 Entering Gaussian System, Link 0=gdv
 Input=icluster_centers_population_49_gaussian/individuo_5272.gjf
 Output=icluster_centers_population_49_gaussian/individuo_5272.log
 Initial command:
 /home/enzo/gaussian_versions/gdv.j21/gdv/l1.exe "/local/home/enzo/scratch/Gau-2270956.inp" -scrdir="/local/home/enzo/scratch/"
 Entering Link 1 = /home/enzo/gaussian_versions/gdv.j21/gdv/l1.exe PID=   2270961.
  
 Copyright (c) 1988-2022, Gaussian, Inc.  All Rights Reserved.
  
 This is the private, development version of
 the Gaussian(R) DV system of programs. It is based on
 the Gaussian(R) 16 system (copyright 2016, Gaussian, Inc.),
 the Gaussian(R) 09 system (copyright 2009, Gaussian, Inc.),
 the Gaussian(R) 03 system (copyright 2003, Gaussian, Inc.),
 the Gaussian(R) 98 system (copyright 1998, Gaussian, Inc.),
 the Gaussian(R) 94 system (copyright 1995, Gaussian, Inc.),
 the Gaussian 92(TM) system (copyright 1992, Gaussian, Inc.),
 the Gaussian 90(TM) system (copyright 1990, Gaussian, Inc.),
 the Gaussian 88(TM) system (copyright 1988, Gaussian, Inc.),
 the Gaussian 86(TM) system (copyright 1986, Carnegie Mellon
 University), and the Gaussian 82(TM) system (copyright 1983,
 Carnegie Mellon University). Gaussian is a federally registered
 trademark of Gaussian, Inc.
  
 This software contains proprietary and confidential information,
 including trade secrets, belonging to Gaussian, Inc.
  
 This software is provided under written license and may be
 used, copied, transmitted, or stored only in accord with that
 written license.
  
 The following legend is applicable only to US Government
 contracts under FAR:
  
                    RESTRICTED RIGHTS LEGEND
  
 Use, reproduction and disclosure by the US Government is
 subject to restrictions as set forth in subparagraphs (a)
 and (c) of the Commercial Computer Software - Restricted
 Rights clause in FAR 52.227-19.
  
 Gaussian, Inc.
 340 Quinnipiac St., Bldg. 40, Wallingford CT 06492
  
  
 ---------------------------------------------------------------
 Warning -- This program may not be used in any manner that
 competes with the business of Gaussian, Inc. or will provide
 assistance to any competitor of Gaussian, Inc.  The licensee
 of this program is prohibited from giving any competitor of
 Gaussian, Inc. access to this program.  By using this program,
 the user acknowledges that Gaussian, Inc. is engaged in the
 business of creating and licensing software in the field of
 computational chemistry and represents and warrants to the
 licensee that it is not a competitor of Gaussian, Inc. and that
 it will not use this program in any manner prohibited above.
 ---------------------------------------------------------------
  

 Cite this work as:
 Gaussian Development Version, Revision J.21,
 M. J. Frisch, G. W. Trucks, H. B. Schlegel, G. E. Scuseria, 
 M. A. Robb, J. R. Cheeseman, G. Scalmani, V. Barone, 
 G. A. Petersson, H. Nakatsuji, X. Li, A. V. Marenich, M. Caricato, 
 J. Bloino, B. G. Janesko, J. Zheng, R. Gomperts, B. Mennucci, 
 H. P. Hratchian, J. V. Ortiz, A. F. Izmaylov, J. L. Sonnenberg, 
 D. Williams-Young, F. Ding, F. Lipparini, F. Egidi, J. Goings, 
 B. Peng, A. Petrone, T. Henderson, D. Ranasinghe, V. G. Zakrzewski, 
 J. Gao, N. Rega, G. Zheng, W. Liang, M. Hada, M. Ehara, K. Toyota, 
 R. Fukuda, J. Hasegawa, M. Ishida, T. Nakajima, Y. Honda, O. Kitao, 
 H. Nakai, T. Vreven, K. Throssell, J. A. Montgomery, Jr., 
 J. E. Peralta, F. Ogliaro, M. J. Bearpark, J. J. Heyd, 
 E. N. Brothers, K. N. Kudin, V. N. Staroverov, T. A. Keith, 
 R. Kobayashi, J. Normand, K. Raghavachari, A. P. Rendell, 
 J. C. Burant, S. S. Iyengar, J. Tomasi, M. Cossi, J. M. Millam, 
 M. Klene, C. Adamo, R. Cammi, J. W. Ochterski, R. L. Martin, 
 K. Morokuma, O. Farkas, J. B. Foresman, and D. J. Fox, 
 Gaussian, Inc., Wallingford CT, 2020.
 
 ******************************************
 Gaussian DV:  ES64L-GDVRevJ.21 25-Jul-2022
                14-Mar-2025 
 ******************************************
 %Nprocshared=12
 Will use up to   12 processors via shared memory.
 %Mem=64GB
 ----------------------------------
 #p B3LYP/6-31G* OPT OUTPUT=PICKETT
 ----------------------------------
 1/18=20,19=15,26=3,37=210000000,38=1/1,3;
 2/9=110,12=2/2;
 3/5=1,6=6,7=1,11=2,25=1,30=1,71=1,74=-5/1,2,3;
 4//1;
 5/5=2,38=5/2;
 6/7=2,8=2,9=2,10=2,28=1/1;
 7//1,2,3,16;
 1/18=20,19=15,26=3/3(2);
 2/9=110/2;
 99/10=1024/99;
 2/9=110/2;
 3/5=1,6=6,7=1,11=2,25=1,30=1,71=1,74=-5/1,2,3;
 4/5=5,16=3,69=1/1;
 5/5=2,38=5/2;
 7//1,2,3,16;
 1/18=20,19=15,26=3/3(-5);
 2/9=110/2;
 6/7=2,8=2,9=2,10=2,19=2,28=1/1;
 99/9=1,10=1024/99;
 Leave Link    1 at Fri Mar 14 14:21:33 2025, MaxMem=  8589934592 cpu:               0.2 elap:               0.0
 (Enter /home/enzo/gaussian_versions/gdv.j21/gdv/l101.exe)
 --------------
 individuo_5272
 --------------
 Symbolic Z-matrix:
 Charge =     0 Multiplicity =     1
 6                    -2.07239   1.69059  -0.78885 
 6                    -1.86209   0.6057    0.26052 
 16                   -3.34389  -0.44229   0.37484 
 6                    -0.66226  -0.23078  -0.07869 
 8                    -0.7451   -1.10099  -0.98523 
 7                     0.57438  -0.03305   0.61456 
 6                     1.7583   -0.82373   0.29468 
 6                     2.94107   0.062     0.08147 
 8                     2.84081   1.30202   0.26383 
 8                     4.14503  -0.483    -0.34449 
 1                    -2.94117   2.32189  -0.51022 
 1                    -1.17441   2.33995  -0.85096 
 1                    -2.26272   1.24084  -1.78573 
 1                    -1.71589   1.09571   1.24582 
 1                    -3.21467  -0.90134  -0.94797 
 1                     0.62202   0.69449   1.36282 
 1                     1.96882  -1.53007   1.12515 
 1                     1.5728   -1.41141  -0.6284 
 1                     4.97844  -0.40865   0.2247 
 
 ITRead=  0  0  0  0  0  0  0  0  0  0  0  0  0  0  0  0  0  0  0
 MicOpt= -1 -1 -1 -1 -1 -1 -1 -1 -1 -1 -1 -1 -1 -1 -1 -1 -1 -1 -1
 NAtoms=     19 NQM=       19 NQMF=       0 NMMI=      0 NMMIF=      0
                NMic=       0 NMicF=      0.
                    Isotopes and Nuclear Properties:
 (Nuclear quadrupole moments (NQMom) in fm**2, nuclear magnetic moments (NMagM)
  in nuclear magnetons)

  Atom         1           2           3           4           5           6           7           8           9          10
 IAtWgt=          12          12          32          12          16          14          12          12          16          16
 AtmWgt=  12.0000000  12.0000000  31.9720718  12.0000000  15.9949146  14.0030740  12.0000000  12.0000000  15.9949146  15.9949146
 NucSpn=           0           0           0           0           0           2           0           0           0           0
 AtZEff=  -0.0000000  -0.0000000  -0.0000000  -0.0000000  -0.0000000  -0.0000000  -0.0000000  -0.0000000  -0.0000000  -0.0000000
 NQMom=    0.0000000   0.0000000   0.0000000   0.0000000   0.0000000   2.0440000   0.0000000   0.0000000   0.0000000   0.0000000
 NMagM=    0.0000000   0.0000000   0.0000000   0.0000000   0.0000000   0.4037610   0.0000000   0.0000000   0.0000000   0.0000000
 AtZNuc=   6.0000000   6.0000000  16.0000000   6.0000000   8.0000000   7.0000000   6.0000000   6.0000000   8.0000000   8.0000000

  Atom        11          12          13          14          15          16          17          18          19
 IAtWgt=           1           1           1           1           1           1           1           1           1
 AtmWgt=   1.0078250   1.0078250   1.0078250   1.0078250   1.0078250   1.0078250   1.0078250   1.0078250   1.0078250
 NucSpn=           1           1           1           1           1           1           1           1           1
 AtZEff=  -0.0000000  -0.0000000  -0.0000000  -0.0000000  -0.0000000  -0.0000000  -0.0000000  -0.0000000  -0.0000000
 NQMom=    0.0000000   0.0000000   0.0000000   0.0000000   0.0000000   0.0000000   0.0000000   0.0000000   0.0000000
 NMagM=    2.7928460   2.7928460   2.7928460   2.7928460   2.7928460   2.7928460   2.7928460   2.7928460   2.7928460
 AtZNuc=   1.0000000   1.0000000   1.0000000   1.0000000   1.0000000   1.0000000   1.0000000   1.0000000   1.0000000
 Leave Link  101 at Fri Mar 14 14:21:33 2025, MaxMem=  8589934592 cpu:               1.6 elap:               0.2
 (Enter /home/enzo/gaussian_versions/gdv.j21/gdv/l103.exe)

 GradGradGradGradGradGradGradGradGradGradGradGradGradGradGradGradGradGrad
 Berny optimization.
 Initialization pass.
                           ----------------------------
                           !    Initial Parameters    !
                           ! (Angstroms and Degrees)  !
 --------------------------                            --------------------------
 ! Name  Definition              Value          Derivative Info.                !
 --------------------------------------------------------------------------------
 ! R1    R(1,2)                  1.5239         estimate D2E/DX2                !
 ! R2    R(1,11)                 1.1095         estimate D2E/DX2                !
 ! R3    R(1,12)                 1.1099         estimate D2E/DX2                !
 ! R4    R(1,13)                 1.1101         estimate D2E/DX2                !
 ! R5    R(2,3)                  1.8185         estimate D2E/DX2                !
 ! R6    R(2,4)                  1.5015         estimate D2E/DX2                !
 ! R7    R(2,14)                 1.1101         estimate D2E/DX2                !
 ! R8    R(3,15)                 1.4062         estimate D2E/DX2                !
 ! R9    R(4,5)                  1.2593         estimate D2E/DX2                !
 ! R10   R(4,6)                  1.4314         estimate D2E/DX2                !
 ! R11   R(6,7)                  1.4592         estimate D2E/DX2                !
 ! R12   R(6,16)                 1.0447         estimate D2E/DX2                !
 ! R13   R(7,8)                  1.493          estimate D2E/DX2                !
 ! R14   R(7,17)                 1.1104         estimate D2E/DX2                !
 ! R15   R(7,18)                 1.1099         estimate D2E/DX2                !
 ! R16   R(8,9)                  1.2574         estimate D2E/DX2                !
 ! R17   R(8,10)                 1.3885         estimate D2E/DX2                !
 ! R18   R(10,19)                1.012          estimate D2E/DX2                !
 ! A1    A(2,1,11)             109.8889         estimate D2E/DX2                !
 ! A2    A(2,1,12)             110.0837         estimate D2E/DX2                !
 ! A3    A(2,1,13)             110.7082         estimate D2E/DX2                !
 ! A4    A(11,1,12)            108.342          estimate D2E/DX2                !
 ! A5    A(11,1,13)            108.7716         estimate D2E/DX2                !
 ! A6    A(12,1,13)            108.996          estimate D2E/DX2                !
 ! A7    A(1,2,3)              109.944          estimate D2E/DX2                !
 ! A8    A(1,2,4)              110.5681         estimate D2E/DX2                !
 ! A9    A(1,2,14)             108.3679         estimate D2E/DX2                !
 ! A10   A(3,2,4)              110.1384         estimate D2E/DX2                !
 ! A11   A(3,2,14)             107.8121         estimate D2E/DX2                !
 ! A12   A(4,2,14)             109.9493         estimate D2E/DX2                !
 ! A13   A(2,3,15)              93.102          estimate D2E/DX2                !
 ! A14   A(2,4,5)              119.6715         estimate D2E/DX2                !
 ! A15   A(2,4,6)              120.2653         estimate D2E/DX2                !
 ! A16   A(5,4,6)              120.0605         estimate D2E/DX2                !
 ! A17   A(4,6,7)              121.3282         estimate D2E/DX2                !
 ! A18   A(4,6,16)             118.8457         estimate D2E/DX2                !
 ! A19   A(7,6,16)             119.8261         estimate D2E/DX2                !
 ! A20   A(6,7,8)              110.648          estimate D2E/DX2                !
 ! A21   A(6,7,17)             109.5465         estimate D2E/DX2                !
 ! A22   A(6,7,18)             109.4892         estimate D2E/DX2                !
 ! A23   A(8,7,17)             109.5122         estimate D2E/DX2                !
 ! A24   A(8,7,18)             109.134          estimate D2E/DX2                !
 ! A25   A(17,7,18)            108.4751         estimate D2E/DX2                !
 ! A26   A(7,8,9)              120.0801         estimate D2E/DX2                !
 ! A27   A(7,8,10)             119.8597         estimate D2E/DX2                !
 ! A28   A(9,8,10)             120.0477         estimate D2E/DX2                !
 ! A29   A(8,10,19)            120.844          estimate D2E/DX2                !
 ! D1    D(11,1,2,3)            59.9999         estimate D2E/DX2                !
 ! D2    D(11,1,2,4)          -178.1733         estimate D2E/DX2                !
 ! D3    D(11,1,2,14)          -57.6045         estimate D2E/DX2                !
 ! D4    D(12,1,2,3)           179.2479         estimate D2E/DX2                !
 ! D5    D(12,1,2,4)           -58.9254         estimate D2E/DX2                !
 ! D6    D(12,1,2,14)           61.6434         estimate D2E/DX2                !
 ! D7    D(13,1,2,3)           -60.1727         estimate D2E/DX2                !
 ! D8    D(13,1,2,4)            61.654          estimate D2E/DX2                !
 ! D9    D(13,1,2,14)         -177.7772         estimate D2E/DX2                !
 ! D10   D(1,2,3,15)            63.3414         estimate D2E/DX2                !
 ! D11   D(4,2,3,15)           -58.7409         estimate D2E/DX2                !
 ! D12   D(14,2,3,15)         -178.7095         estimate D2E/DX2                !
 ! D13   D(1,2,4,5)            -76.728          estimate D2E/DX2                !
 ! D14   D(1,2,4,6)            102.6654         estimate D2E/DX2                !
 ! D15   D(3,2,4,5)             44.9842         estimate D2E/DX2                !
 ! D16   D(3,2,4,6)           -135.6224         estimate D2E/DX2                !
 ! D17   D(14,2,4,5)           163.6512         estimate D2E/DX2                !
 ! D18   D(14,2,4,6)           -16.9554         estimate D2E/DX2                !
 ! D19   D(2,4,6,7)           -179.3909         estimate D2E/DX2                !
 ! D20   D(2,4,6,16)             0.5657         estimate D2E/DX2                !
 ! D21   D(5,4,6,7)              0.0001         estimate D2E/DX2                !
 ! D22   D(5,4,6,16)           179.9567         estimate D2E/DX2                !
 ! D23   D(4,6,7,8)            130.0068         estimate D2E/DX2                !
 ! D24   D(4,6,7,17)          -109.1594         estimate D2E/DX2                !
 ! D25   D(4,6,7,18)             9.6801         estimate D2E/DX2                !
 ! D26   D(16,6,7,8)           -49.9494         estimate D2E/DX2                !
 ! D27   D(16,6,7,17)           70.8844         estimate D2E/DX2                !
 ! D28   D(16,6,7,18)         -170.2762         estimate D2E/DX2                !
 ! D29   D(6,7,8,9)              4.1449         estimate D2E/DX2                !
 ! D30   D(6,7,8,10)          -174.5694         estimate D2E/DX2                !
 ! D31   D(17,7,8,9)          -116.7093         estimate D2E/DX2                !
 ! D32   D(17,7,8,10)           64.5764         estimate D2E/DX2                !
 ! D33   D(18,7,8,9)           124.6835         estimate D2E/DX2                !
 ! D34   D(18,7,8,10)          -54.0307         estimate D2E/DX2                !
 ! D35   D(7,8,10,19)         -118.9527         estimate D2E/DX2                !
 ! D36   D(9,8,10,19)           62.3326         estimate D2E/DX2                !
 --------------------------------------------------------------------------------
 Trust Radius=3.00D-01 FncErr=1.00D-07 GrdErr=1.00D-06 EigMax=2.50D+02 EigMin=1.00D-04
 Number of steps in this run=     93 maximum allowed number of steps=    114.
 GradGradGradGradGradGradGradGradGradGradGradGradGradGradGradGradGradGrad

 Leave Link  103 at Fri Mar 14 14:21:33 2025, MaxMem=  8589934592 cpu:               0.3 elap:               0.1
 (Enter /home/enzo/gaussian_versions/gdv.j21/gdv/l202.exe)
                          Input orientation:                          
 ---------------------------------------------------------------------
 Center     Atomic      Atomic             Coordinates (Angstroms)
 Number     Number       Type             X           Y           Z
 ---------------------------------------------------------------------
      1          6           0       -2.072386    1.690588   -0.788850
      2          6           0       -1.862093    0.605704    0.260515
      3         16           0       -3.343894   -0.442286    0.374840
      4          6           0       -0.662255   -0.230784   -0.078687
      5          8           0       -0.745096   -1.100986   -0.985231
      6          7           0        0.574383   -0.033054    0.614560
      7          6           0        1.758302   -0.823726    0.294678
      8          6           0        2.941066    0.062001    0.081471
      9          8           0        2.840811    1.302020    0.263831
     10          8           0        4.145034   -0.483003   -0.344493
     11          1           0       -2.941173    2.321888   -0.510219
     12          1           0       -1.174413    2.339946   -0.850961
     13          1           0       -2.262716    1.240843   -1.785725
     14          1           0       -1.715887    1.095712    1.245815
     15          1           0       -3.214672   -0.901343   -0.947970
     16          1           0        0.622015    0.694491    1.362818
     17          1           0        1.968824   -1.530070    1.125147
     18          1           0        1.572795   -1.411409   -0.628399
     19          1           0        4.978437   -0.408654    0.224695
 ---------------------------------------------------------------------
                    Distance matrix (angstroms):
                    1          2          3          4          5
     1  C    0.000000
     2  C    1.523930   0.000000
     3  S    2.742273   1.818540   0.000000
     4  C    2.486860   1.501460   2.727931   0.000000
     5  O    3.097281   2.390054   3.006232   1.259340   0.000000
     6  N    3.456282   2.543575   3.946876   1.431420   2.332560
     7  C    4.708501   3.892518   5.117062   2.519936   2.825251
     8  C    5.342701   4.837149   6.311980   3.618742   4.009761
     9  O    5.039705   4.754174   6.426936   3.839047   4.493698
    10  O    6.601383   6.134891   7.523506   4.821234   4.970495
    11  H    1.109489   2.168809   2.930217   3.449032   4.094442
    12  H    1.109900   2.171607   3.734977   2.732648   3.470210
    13  H    1.110070   2.179679   2.944471   2.764261   2.903123
    14  H    2.149612   1.110090   2.403007   2.150358   3.278030
    15  H    2.836943   2.358198   1.406150   2.778513   2.477913
    16  H    3.589106   2.719145   4.242263   2.140892   3.256695
    17  H    5.510662   4.470464   5.474597   3.171740   3.464559
    18  H    4.789100   4.081344   5.110726   2.586795   2.365652
    19  H    7.426183   6.915422   8.323753   5.651644   5.890847
                    6          7          8          9         10
     6  N    0.000000
     7  C    1.459161   0.000000
     8  C    2.427840   1.492950   0.000000
     9  O    2.653701   2.385702   1.257360   0.000000
    10  O    3.724485   2.494218   1.388529   2.292894   0.000000
    11  H    4.378357   5.712076   6.329133   5.922046   7.622940
    12  H    3.291985   4.463421   4.795376   4.294424   6.043349
    13  H    3.928525   4.975852   5.652914   5.500037   6.790291
    14  H    2.630196   4.081531   4.910343   4.665871   6.274696
    15  H    4.189554   5.126467   6.315132   6.556840   7.396247
    16  H    1.044739   2.176477   2.723948   2.549494   4.088162
    17  H    2.108607   1.110369   2.137570   3.085929   2.827027
    18  H    2.107519   1.109890   2.132374   3.125162   2.749355
    19  H    4.437202   3.247530   2.095927   2.738135   1.011960
                   11         12         13         14         15
    11  H    0.000000
    12  H    1.799409   0.000000
    13  H    1.804405   1.807267   0.000000
    14  H    2.467486   2.497555   3.083881   0.000000
    15  H    3.264299   3.831191   2.489380   3.323745   0.000000
    16  H    4.342004   3.291731   4.305055   2.374964   4.754639
    17  H    6.451362   5.363018   5.835843   4.526189   5.617984
    18  H    5.858957   4.655035   4.804684   4.540238   4.825156
    19  H    8.409291   6.824178   7.693954   6.936842   8.291256
                   16         17         18         19
    16  H    0.000000
    17  H    2.611332   0.000000
    18  H    3.050204   1.801622   0.000000
    19  H    4.635803   3.335590   3.651258   0.000000
 Stoichiometry    C5H9NO3S
 Framework group  C1[X(C5H9NO3S)]
 Deg. of freedom    51
 Full point group                 C1      NOp   1
 Largest Abelian subgroup         C1      NOp   1
 Largest concise Abelian subgroup C1      NOp   1
                         Standard orientation:                         
 ---------------------------------------------------------------------
 Center     Atomic      Atomic             Coordinates (Angstroms)
 Number     Number       Type             X           Y           Z
 ---------------------------------------------------------------------
      1          6           0        2.097074    1.658595    0.707078
      2          6           0        1.856856    0.542203   -0.302044
      3         16           0        3.318219   -0.536284   -0.393545
      4          6           0        0.645436   -0.259787    0.076975
      5          8           0        0.721380   -1.099559    1.012363
      6          7           0       -0.594159   -0.063310   -0.611330
      7          6           0       -1.789022   -0.820480   -0.253353
      8          6           0       -2.953383    0.093761   -0.060151
      9          8           0       -2.832457    1.324685   -0.286332
     10          8           0       -4.162795   -0.413897    0.395501
     11          1           0        2.974387    2.263756    0.398748
     12          1           0        1.211674    2.326176    0.754867
     13          1           0        2.288994    1.240091    1.717165
     14          1           0        1.709894    1.000524   -1.302366
     15          1           0        3.193685   -0.946943    0.945525
     16          1           0       -0.635934    0.638728   -1.383908
     17          1           0       -2.020457   -1.551062   -1.056850
     18          1           0       -1.605149   -1.379274    0.687813
     19          1           0       -5.000260   -0.343868   -0.168247
 ---------------------------------------------------------------------
 Rotational constants (GHZ):           2.9441662           0.4501502           0.4217794
 Leave Link  202 at Fri Mar 14 14:21:34 2025, MaxMem=  8589934592 cpu:               0.1 elap:               0.1
 (Enter /home/enzo/gaussian_versions/gdv.j21/gdv/l301.exe)
 Standard basis: 6-31G(d) (6D, 7F)
 Ernie: Thresh=  0.10000D-02 Tol=  0.10000D-05 Strict=F.
 There are   172 symmetry adapted cartesian basis functions of A   symmetry.
 There are   172 symmetry adapted basis functions of A   symmetry.
   172 basis functions,   340 primitive gaussians,   172 cartesian basis functions
    43 alpha electrons       43 beta electrons
       nuclear repulsion energy       605.8330452450 Hartrees.
 IExCor=      4002 DFT=T Ex+Corr=B3LYP ScaHFX=  0.200000
 ScaDFX=  0.800000  0.720000  1.000000  0.810000  1.000000  0.000000
 ScaDFX=  0.000000  0.000000  0.000000  0.000000  0.000000  0.000000
 IRadAn=      5 IRanWt=     -1 IRanGd=            0 ICorTp=0 IEmpDi=  4
 NAtoms=   19 NActive=   19 NUniq=   19 SFac= 1.00D+00 NAtFMM=   60 NAOKFM=F Big=F
 Integral buffers will be    131072 words long.
 Raffenetti 2 integral format.
 Two-electron integral symmetry is turned on.
 Leave Link  301 at Fri Mar 14 14:21:34 2025, MaxMem=  8589934592 cpu:               0.3 elap:               0.1
 (Enter /home/enzo/gaussian_versions/gdv.j21/gdv/l302.exe)
 NPDir=0 NMtPBC=     1 NCelOv=     1 NCel=       1 NClECP=     1 NCelD=      1
         NCelK=      1 NCelE2=     1 NClLst=     1 CellRange=     0.0.
 One-electron integrals computed using PRISM.
 One-electron integral symmetry used in STVInt
 NBasis=   172 RedAO= T EigKep=  3.12D-03  NBF=   172
 NBsUse=   172 1.00D-06 EigRej= -1.00D+00 NBFU=   172
 Precomputing XC quadrature grid using
 IXCGrd= 4 IRadAn=           5 IRanWt=          -1 IRanGd=           0 AccXCQ= 0.00D+00.
 Generated NRdTot=       0 NPtTot=      408760 NUsed=           0 NTot=          64
 NSgBfM=   171   171   171   171   171 MxSgAt=    19 MxSgA2=    19 SizInc=   0.000
 NMBTot=     3489 MaxBatPerAtom=       86 MaxMicBPerAtom=      203 NBfPt=            50344468.
 Leave Link  302 at Fri Mar 14 14:21:34 2025, MaxMem=  8589934592 cpu:               1.6 elap:               0.2
 (Enter /home/enzo/gaussian_versions/gdv.j21/gdv/l303.exe)
 DipDrv:  MaxL=1.
 Leave Link  303 at Fri Mar 14 14:21:34 2025, MaxMem=  8589934592 cpu:               0.4 elap:               0.1
 (Enter /home/enzo/gaussian_versions/gdv.j21/gdv/l401.exe)
 ExpMin= 1.17D-01 ExpMax= 2.19D+04 ExpMxC= 3.30D+03 IAcc=3 IRadAn=         5 AccDes= 0.00D+00
 Harris functional with IExCor= 4002 and IRadAn=       5 diagonalized for initial guess.
 HarFok:  IExCor=    4002 AccDes= 0.00D+00 IRadAn=         5 IDoV= 1 UseB2=F ITyADJ=14 ICtDFT=  3500011
 FoFCou: FMM=F IPFlag=           0 FMFlag=      100000 FMFlg1=           0
         NFxFlg=           0 DoJE=T BraDBF=F KetDBF=T FulRan=T
         wScrn=  0.000000 ICntrl=       500 IOpCl=  0 I1Cent=   200000004 NGrid=           0
         NMat0=    1 NMatS0=      1 NMatT0=    0 NMatD0=    1 NMtDS0=    0 NMtDT0=    0
 Petite list used in FoFCou.
 Harris En= -874.512842489737    
 JPrj=0 DoOrth=F DoCkMO=F.
 Leave Link  401 at Fri Mar 14 14:21:35 2025, MaxMem=  8589934592 cpu:               7.6 elap:               1.0
 (Enter /home/enzo/gaussian_versions/gdv.j21/gdv/l502.exe)
 Integral symmetry usage will be decided dynamically.
 Closed shell SCF:
 Using DIIS extrapolation, IDIIS=  1040.
 NGot=  8589934592 LenX=  8589843591 LenY=  8589813566
 Requested convergence on RMS density matrix=1.00D-08 within 128 cycles.
 Requested convergence on MAX density matrix=1.00D-06.
 Requested convergence on             energy=1.00D-06.
 No special actions if energy rises.
 Fock matrices will be formed incrementally for  20 cycles.
 Integral accuracy reduced to 1.0D-05 until final iterations.

 Cycle   1  Pass 0  IDiag  1:
 FoFJK:  IHMeth= 1 ICntrl=       0 DoSepK=F KAlg= 0 I1Cent=           0 FoldK=F
 IRaf= 890000000 NMat=       1 IRICut=       1 DoRegI=T DoRafI=F ISym2E= 0 IDoP0=0 IntGTp=1.
 FoFCou: FMM=F IPFlag=           0 FMFlag=      100000 FMFlg1=           0
         NFxFlg=           0 DoJE=F BraDBF=F KetDBF=F FulRan=T
         wScrn=  0.000000 ICntrl=         0 IOpCl=  0 I1Cent=           0 NGrid=           0
         NMat0=    1 NMatS0=      1 NMatT0=    0 NMatD0=    1 NMtDS0=    0 NMtDT0=    0
 Symmetry not used in FoFCou.
 E= -874.253688172771    
 DIIS: error= 3.19D-02 at cycle   1 NSaved=   1.
 NSaved= 1 IEnMin= 1 EnMin= -874.253688172771     IErMin= 1 ErrMin= 3.19D-02
 ErrMax= 3.19D-02  0.00D+00 EMaxC= 1.00D-01 BMatC= 3.52D-01 BMatP= 3.52D-01
 IDIUse=3 WtCom= 6.81D-01 WtEn= 3.19D-01
 Coeff-Com:  0.100D+01
 Coeff-En:   0.100D+01
 Coeff:      0.100D+01
 Gap=     0.213 Goal=   None    Shift=    0.000
 GapD=    0.213 DampG=1.000 DampE=0.500 DampFc=0.5000 IDamp=-1.
 Damping current iteration by 5.00D-01
 RMSDP=8.73D-03 MaxDP=2.23D-01              OVMax= 3.57D-01

 Cycle   2  Pass 0  IDiag  1:
 RMSU=  4.36D-03    CP:  9.93D-01
 E= -874.278076486508     Delta-E=       -0.024388313737 Rises=F Damp=T
 DIIS: error= 1.52D-02 at cycle   2 NSaved=   2.
 NSaved= 2 IEnMin= 2 EnMin= -874.278076486508     IErMin= 2 ErrMin= 1.52D-02
 ErrMax= 1.52D-02  0.00D+00 EMaxC= 1.00D-01 BMatC= 9.05D-02 BMatP= 3.52D-01
 IDIUse=3 WtCom= 8.48D-01 WtEn= 1.52D-01
 Coeff-Com:  0.301D+00 0.699D+00
 Coeff-En:   0.465D+00 0.535D+00
 Coeff:      0.326D+00 0.674D+00
 Gap=     0.220 Goal=   None    Shift=    0.000
 RMSDP=2.90D-03 MaxDP=9.46D-02 DE=-2.44D-02 OVMax= 2.27D-01

 Cycle   3  Pass 0  IDiag  1:
 RMSU=  2.09D-03    CP:  9.87D-01  5.42D-01
 E= -874.498172753658     Delta-E=       -0.220096267150 Rises=F Damp=F
 DIIS: error= 1.10D-02 at cycle   3 NSaved=   3.
 NSaved= 3 IEnMin= 3 EnMin= -874.498172753658     IErMin= 3 ErrMin= 1.10D-02
 ErrMax= 1.10D-02  0.00D+00 EMaxC= 1.00D-01 BMatC= 5.30D-02 BMatP= 9.05D-02
 IDIUse=3 WtCom= 8.90D-01 WtEn= 1.10D-01
 Coeff-Com:  0.136D+00 0.430D+00 0.434D+00
 Coeff-En:   0.000D+00 0.000D+00 0.100D+01
 Coeff:      0.121D+00 0.383D+00 0.496D+00
 Gap=     0.196 Goal=   None    Shift=    0.000
 RMSDP=1.59D-03 MaxDP=3.35D-02 DE=-2.20D-01 OVMax= 9.09D-02

 Cycle   4  Pass 0  IDiag  1:
 RMSU=  9.05D-04    CP:  9.93D-01  6.50D-01  4.22D-01
 E= -874.538281368309     Delta-E=       -0.040108614651 Rises=F Damp=F
 DIIS: error= 3.85D-03 at cycle   4 NSaved=   4.
 NSaved= 4 IEnMin= 4 EnMin= -874.538281368309     IErMin= 4 ErrMin= 3.85D-03
 ErrMax= 3.85D-03  0.00D+00 EMaxC= 1.00D-01 BMatC= 8.34D-03 BMatP= 5.30D-02
 IDIUse=3 WtCom= 9.61D-01 WtEn= 3.85D-02
 Coeff-Com:  0.206D-01 0.705D-01 0.290D+00 0.619D+00
 Coeff-En:   0.000D+00 0.000D+00 0.148D+00 0.852D+00
 Coeff:      0.198D-01 0.678D-01 0.285D+00 0.628D+00
 Gap=     0.200 Goal=   None    Shift=    0.000
 RMSDP=5.31D-04 MaxDP=1.43D-02 DE=-4.01D-02 OVMax= 2.53D-02

 Cycle   5  Pass 0  IDiag  1:
 RMSU=  2.55D-04    CP:  9.92D-01  6.12D-01  5.61D-01  6.41D-01
 E= -874.544658520249     Delta-E=       -0.006377151941 Rises=F Damp=F
 DIIS: error= 8.39D-04 at cycle   5 NSaved=   5.
 NSaved= 5 IEnMin= 5 EnMin= -874.544658520249     IErMin= 5 ErrMin= 8.39D-04
 ErrMax= 8.39D-04  0.00D+00 EMaxC= 1.00D-01 BMatC= 4.77D-04 BMatP= 8.34D-03
 IDIUse=3 WtCom= 9.92D-01 WtEn= 8.39D-03
 Coeff-Com:  0.285D-02 0.674D-02 0.121D+00 0.338D+00 0.531D+00
 Coeff-En:   0.000D+00 0.000D+00 0.000D+00 0.000D+00 0.100D+01
 Coeff:      0.283D-02 0.668D-02 0.120D+00 0.335D+00 0.535D+00
 Gap=     0.201 Goal=   None    Shift=    0.000
 RMSDP=1.36D-04 MaxDP=3.01D-03 DE=-6.38D-03 OVMax= 7.54D-03

 Cycle   6  Pass 0  IDiag  1:
 RMSU=  7.95D-05    CP:  9.92D-01  6.19D-01  5.61D-01  6.93D-01  6.28D-01
 E= -874.545020102822     Delta-E=       -0.000361582573 Rises=F Damp=F
 DIIS: error= 4.23D-04 at cycle   6 NSaved=   6.
 NSaved= 6 IEnMin= 6 EnMin= -874.545020102822     IErMin= 6 ErrMin= 4.23D-04
 ErrMax= 4.23D-04  0.00D+00 EMaxC= 1.00D-01 BMatC= 7.13D-05 BMatP= 4.77D-04
 IDIUse=3 WtCom= 9.96D-01 WtEn= 4.23D-03
 Coeff-Com:  0.767D-03-0.115D-02 0.545D-01 0.160D+00 0.336D+00 0.450D+00
 Coeff-En:   0.000D+00 0.000D+00 0.000D+00 0.000D+00 0.588D-01 0.941D+00
 Coeff:      0.764D-03-0.114D-02 0.543D-01 0.159D+00 0.334D+00 0.453D+00
 Gap=     0.201 Goal=   None    Shift=    0.000
 RMSDP=5.24D-05 MaxDP=1.81D-03 DE=-3.62D-04 OVMax= 2.20D-03

 Cycle   7  Pass 0  IDiag  1:
 RMSU=  3.22D-05    CP:  9.92D-01  6.16D-01  5.64D-01  6.94D-01  6.47D-01
                    CP:  5.16D-01
 E= -874.545068750233     Delta-E=       -0.000048647411 Rises=F Damp=F
 DIIS: error= 1.68D-04 at cycle   7 NSaved=   7.
 NSaved= 7 IEnMin= 7 EnMin= -874.545068750233     IErMin= 7 ErrMin= 1.68D-04
 ErrMax= 1.68D-04  0.00D+00 EMaxC= 1.00D-01 BMatC= 1.08D-05 BMatP= 7.13D-05
 IDIUse=3 WtCom= 9.98D-01 WtEn= 1.68D-03
 Coeff-Com:  0.211D-03-0.233D-02 0.185D-01 0.540D-01 0.147D+00 0.306D+00
 Coeff-Com:  0.477D+00
 Coeff-En:   0.000D+00 0.000D+00 0.000D+00 0.000D+00 0.000D+00 0.114D+00
 Coeff-En:   0.886D+00
 Coeff:      0.211D-03-0.232D-02 0.184D-01 0.539D-01 0.147D+00 0.306D+00
 Coeff:      0.477D+00
 Gap=     0.201 Goal=   None    Shift=    0.000
 RMSDP=1.78D-05 MaxDP=6.05D-04 DE=-4.86D-05 OVMax= 8.68D-04

 Cycle   8  Pass 0  IDiag  1:
 RMSU=  1.03D-05    CP:  9.92D-01  6.16D-01  5.64D-01  6.96D-01  6.43D-01
                    CP:  5.86D-01  5.93D-01
 E= -874.545076936875     Delta-E=       -0.000008186642 Rises=F Damp=F
 DIIS: error= 3.69D-05 at cycle   8 NSaved=   8.
 NSaved= 8 IEnMin= 8 EnMin= -874.545076936875     IErMin= 8 ErrMin= 3.69D-05
 ErrMax= 3.69D-05  0.00D+00 EMaxC= 1.00D-01 BMatC= 5.27D-07 BMatP= 1.08D-05
 IDIUse=1 WtCom= 1.00D+00 WtEn= 0.00D+00
 Coeff-Com:  0.134D-03-0.121D-02 0.440D-02 0.113D-01 0.422D-01 0.105D+00
 Coeff-Com:  0.237D+00 0.602D+00
 Coeff:      0.134D-03-0.121D-02 0.440D-02 0.113D-01 0.422D-01 0.105D+00
 Coeff:      0.237D+00 0.602D+00
 Gap=     0.201 Goal=   None    Shift=    0.000
 RMSDP=5.56D-06 MaxDP=1.61D-04 DE=-8.19D-06 OVMax= 1.57D-04

 Initial convergence to 1.0D-05 achieved.  Increase integral accuracy.
 Cycle   9  Pass 1  IDiag  1:
 E= -874.545076201223     Delta-E=        0.000000735653 Rises=F Damp=F
 DIIS: error= 1.79D-05 at cycle   1 NSaved=   1.
 NSaved= 1 IEnMin= 1 EnMin= -874.545076201223     IErMin= 1 ErrMin= 1.79D-05
 ErrMax= 1.79D-05  0.00D+00 EMaxC= 1.00D-01 BMatC= 8.03D-08 BMatP= 8.03D-08
 IDIUse=1 WtCom= 1.00D+00 WtEn= 0.00D+00
 Coeff-Com:  0.100D+01
 Coeff:      0.100D+01
 Gap=     0.201 Goal=   None    Shift=    0.000
 RMSDP=5.56D-06 MaxDP=1.61D-04 DE= 7.36D-07 OVMax= 1.05D-04

 Cycle  10  Pass 1  IDiag  1:
 RMSU=  7.97D-06    CP:  1.00D+00
 E= -874.545076156426     Delta-E=        0.000000044797 Rises=F Damp=F
 DIIS: error= 1.58D-05 at cycle   2 NSaved=   2.
 NSaved= 2 IEnMin= 1 EnMin= -874.545076201223     IErMin= 2 ErrMin= 1.58D-05
 ErrMax= 1.58D-05  0.00D+00 EMaxC= 1.00D-01 BMatC= 1.42D-07 BMatP= 8.03D-08
 IDIUse=1 WtCom= 1.00D+00 WtEn= 0.00D+00
 Coeff-Com:  0.581D+00 0.419D+00
 Coeff:      0.581D+00 0.419D+00
 Gap=     0.201 Goal=   None    Shift=    0.000
 RMSDP=2.44D-06 MaxDP=5.41D-05 DE= 4.48D-08 OVMax= 1.13D-04

 Cycle  11  Pass 1  IDiag  1:
 RMSU=  2.25D-06    CP:  1.00D+00  8.83D-01
 E= -874.545076269927     Delta-E=       -0.000000113501 Rises=F Damp=F
 DIIS: error= 6.34D-06 at cycle   3 NSaved=   3.
 NSaved= 3 IEnMin= 3 EnMin= -874.545076269927     IErMin= 3 ErrMin= 6.34D-06
 ErrMax= 6.34D-06  0.00D+00 EMaxC= 1.00D-01 BMatC= 1.34D-08 BMatP= 8.03D-08
 IDIUse=1 WtCom= 1.00D+00 WtEn= 0.00D+00
 Coeff-Com:  0.166D+00 0.244D+00 0.590D+00
 Coeff:      0.166D+00 0.244D+00 0.590D+00
 Gap=     0.201 Goal=   None    Shift=    0.000
 RMSDP=8.26D-07 MaxDP=2.64D-05 DE=-1.14D-07 OVMax= 3.97D-05

 Cycle  12  Pass 1  IDiag  1:
 RMSU=  6.84D-07    CP:  1.00D+00  9.10D-01  8.19D-01
 E= -874.545076276996     Delta-E=       -0.000000007069 Rises=F Damp=F
 DIIS: error= 3.07D-06 at cycle   4 NSaved=   4.
 NSaved= 4 IEnMin= 4 EnMin= -874.545076276996     IErMin= 4 ErrMin= 3.07D-06
 ErrMax= 3.07D-06  0.00D+00 EMaxC= 1.00D-01 BMatC= 3.99D-09 BMatP= 1.34D-08
 IDIUse=1 WtCom= 1.00D+00 WtEn= 0.00D+00
 Coeff-Com:  0.313D-02 0.907D-01 0.410D+00 0.497D+00
 Coeff:      0.313D-02 0.907D-01 0.410D+00 0.497D+00
 Gap=     0.201 Goal=   None    Shift=    0.000
 RMSDP=3.60D-07 MaxDP=9.97D-06 DE=-7.07D-09 OVMax= 1.21D-05

 Cycle  13  Pass 1  IDiag  1:
 RMSU=  1.30D-07    CP:  1.00D+00  9.15D-01  8.22D-01  5.15D-01
 E= -874.545076280310     Delta-E=       -0.000000003315 Rises=F Damp=F
 DIIS: error= 5.15D-07 at cycle   5 NSaved=   5.
 NSaved= 5 IEnMin= 5 EnMin= -874.545076280310     IErMin= 5 ErrMin= 5.15D-07
 ErrMax= 5.15D-07  0.00D+00 EMaxC= 1.00D-01 BMatC= 9.61D-11 BMatP= 3.99D-09
 IDIUse=1 WtCom= 1.00D+00 WtEn= 0.00D+00
 Coeff-Com: -0.351D-02 0.408D-01 0.196D+00 0.271D+00 0.496D+00
 Coeff:     -0.351D-02 0.408D-01 0.196D+00 0.271D+00 0.496D+00
 Gap=     0.201 Goal=   None    Shift=    0.000
 RMSDP=6.10D-08 MaxDP=1.58D-06 DE=-3.31D-09 OVMax= 2.18D-06

 Cycle  14  Pass 1  IDiag  1:
 RMSU=  3.50D-08    CP:  1.00D+00  9.16D-01  8.24D-01  5.28D-01  6.27D-01
 E= -874.545076280388     Delta-E=       -0.000000000077 Rises=F Damp=F
 DIIS: error= 9.84D-08 at cycle   6 NSaved=   6.
 NSaved= 6 IEnMin= 6 EnMin= -874.545076280388     IErMin= 6 ErrMin= 9.84D-08
 ErrMax= 9.84D-08  0.00D+00 EMaxC= 1.00D-01 BMatC= 4.40D-12 BMatP= 9.61D-11
 IDIUse=1 WtCom= 1.00D+00 WtEn= 0.00D+00
 Coeff-Com: -0.202D-02 0.154D-01 0.730D-01 0.110D+00 0.248D+00 0.556D+00
 Coeff:     -0.202D-02 0.154D-01 0.730D-01 0.110D+00 0.248D+00 0.556D+00
 Gap=     0.201 Goal=   None    Shift=    0.000
 RMSDP=1.22D-08 MaxDP=3.40D-07 DE=-7.73D-11 OVMax= 4.25D-07

 Cycle  15  Pass 1  IDiag  1:
 RMSU=  1.11D-08    CP:  1.00D+00  9.16D-01  8.24D-01  5.33D-01  6.28D-01
                    CP:  9.13D-01
 E= -874.545076280394     Delta-E=       -0.000000000006 Rises=F Damp=F
 DIIS: error= 4.34D-08 at cycle   7 NSaved=   7.
 NSaved= 7 IEnMin= 7 EnMin= -874.545076280394     IErMin= 7 ErrMin= 4.34D-08
 ErrMax= 4.34D-08  0.00D+00 EMaxC= 1.00D-01 BMatC= 5.75D-13 BMatP= 4.40D-12
 IDIUse=1 WtCom= 1.00D+00 WtEn= 0.00D+00
 Coeff-Com: -0.416D-03 0.136D-02 0.413D-02 0.126D-01 0.470D-01 0.275D+00
 Coeff-Com:  0.661D+00
 Coeff:     -0.416D-03 0.136D-02 0.413D-02 0.126D-01 0.470D-01 0.275D+00
 Coeff:      0.661D+00
 Gap=     0.201 Goal=   None    Shift=    0.000
 RMSDP=6.12D-09 MaxDP=1.86D-07 DE=-5.91D-12 OVMax= 2.37D-07

 SCF Done:  E(RB3LYP) =  -874.545076280     A.U. after   15 cycles
            NFock= 15  Conv=0.61D-08     -V/T= 2.0072
 KE= 8.683260887374D+02 PE=-3.271331122191D+03 EE= 9.226269119283D+02
 Leave Link  502 at Fri Mar 14 14:21:49 2025, MaxMem=  8589934592 cpu:              94.3 elap:              14.3
 (Enter /home/enzo/gaussian_versions/gdv.j21/gdv/l601.exe)
 Copying SCF densities to generalized density rwf, IOpCl= 0 IROHF=0.

 **********************************************************************

            Population analysis using the SCF Density.

 **********************************************************************

 Orbital symmetries:
       Occupied  (A) (A) (A) (A) (A) (A) (A) (A) (A) (A) (A) (A)
                 (A) (A) (A) (A) (A) (A) (A) (A) (A) (A) (A) (A)
                 (A) (A) (A) (A) (A) (A) (A) (A) (A) (A) (A) (A)
                 (A) (A) (A) (A) (A) (A) (A)
       Virtual   (A) (A) (A) (A) (A) (A) (A) (A) (A) (A) (A) (A)
                 (A) (A) (A) (A) (A) (A) (A) (A) (A) (A) (A) (A)
                 (A) (A) (A) (A) (A) (A) (A) (A) (A) (A) (A) (A)
                 (A) (A) (A) (A) (A) (A) (A) (A) (A) (A) (A) (A)
                 (A) (A) (A) (A) (A) (A) (A) (A) (A) (A) (A) (A)
                 (A) (A) (A) (A) (A) (A) (A) (A) (A) (A) (A) (A)
                 (A) (A) (A) (A) (A) (A) (A) (A) (A) (A) (A) (A)
                 (A) (A) (A) (A) (A) (A) (A) (A) (A) (A) (A) (A)
                 (A) (A) (A) (A) (A) (A) (A) (A) (A) (A) (A) (A)
                 (A) (A) (A) (A) (A) (A) (A) (A) (A) (A) (A) (A)
                 (A) (A) (A) (A) (A) (A) (A) (A) (A)
 The electronic state is 1-A.
 Alpha  occ. eigenvalues --      -88.87489     -19.19821     -19.15375     -19.12401     -14.37974
 Alpha  occ. eigenvalues --      -10.34358     -10.30563     -10.25701     -10.24183     -10.19671
 Alpha  occ. eigenvalues --       -7.93762      -5.90268      -5.89921      -5.89182      -1.08469
 Alpha  occ. eigenvalues --       -1.02480      -1.00503      -0.91719      -0.82423      -0.75498
 Alpha  occ. eigenvalues --       -0.70355      -0.65403      -0.61675      -0.57692      -0.53252
 Alpha  occ. eigenvalues --       -0.50826      -0.49473      -0.48334      -0.44848      -0.43634
 Alpha  occ. eigenvalues --       -0.43586      -0.41287      -0.40943      -0.39291      -0.36799
 Alpha  occ. eigenvalues --       -0.36491      -0.35429      -0.32755      -0.32460      -0.28353
 Alpha  occ. eigenvalues --       -0.26284      -0.26074      -0.23661
 Alpha virt. eigenvalues --       -0.03542      -0.00943       0.03045       0.04098       0.05989
 Alpha virt. eigenvalues --        0.07618       0.11040       0.12008       0.12747       0.14648
 Alpha virt. eigenvalues --        0.16258       0.16759       0.18093       0.20619       0.21412
 Alpha virt. eigenvalues --        0.22971       0.28796       0.32841       0.34253       0.35030
 Alpha virt. eigenvalues --        0.35843       0.36967       0.39471       0.42550       0.50490
 Alpha virt. eigenvalues --        0.51639       0.52322       0.52790       0.54003       0.55963
 Alpha virt. eigenvalues --        0.57483       0.58837       0.60812       0.62222       0.63164
 Alpha virt. eigenvalues --        0.66796       0.67491       0.71813       0.73567       0.74750
 Alpha virt. eigenvalues --        0.76350       0.79788       0.80825       0.81474       0.83168
 Alpha virt. eigenvalues --        0.84300       0.85957       0.86310       0.86773       0.87934
 Alpha virt. eigenvalues --        0.88382       0.90674       0.91497       0.92589       0.93891
 Alpha virt. eigenvalues --        0.95898       0.96734       0.97516       1.01328       1.03426
 Alpha virt. eigenvalues --        1.04863       1.10096       1.11491       1.12624       1.16129
 Alpha virt. eigenvalues --        1.16955       1.20618       1.23247       1.35356       1.38606
 Alpha virt. eigenvalues --        1.42267       1.47132       1.48173       1.49498       1.51580
 Alpha virt. eigenvalues --        1.54574       1.61007       1.62087       1.69253       1.71773
 Alpha virt. eigenvalues --        1.73215       1.75601       1.78048       1.79478       1.81733
 Alpha virt. eigenvalues --        1.82907       1.86420       1.86583       1.88360       1.91026
 Alpha virt. eigenvalues --        1.92694       1.93869       1.99607       2.00951       2.04948
 Alpha virt. eigenvalues --        2.07354       2.09085       2.14701       2.20170       2.23322
 Alpha virt. eigenvalues --        2.24554       2.28549       2.30389       2.31669       2.41258
 Alpha virt. eigenvalues --        2.41782       2.43926       2.46307       2.56535       2.61623
 Alpha virt. eigenvalues --        2.63178       2.64835       2.72094       2.78992       2.84009
 Alpha virt. eigenvalues --        2.92542       2.97173       3.00319       3.06959       3.74982
 Alpha virt. eigenvalues --        3.90401       3.94245       4.01517       4.12114       4.13747
 Alpha virt. eigenvalues --        4.16829       4.32935       4.46393       4.53812
          Condensed to atoms (all electrons):
               1          2          3          4          5          6
     1  C    5.138413   0.338940  -0.069762  -0.041539  -0.002350  -0.001227
     2  C    0.338940   5.381780   0.273097   0.288741  -0.086804  -0.091123
     3  S   -0.069762   0.273097  15.683394  -0.040024  -0.013771   0.003852
     4  C   -0.041539   0.288741  -0.040024   4.432960   0.543491   0.258300
     5  O   -0.002350  -0.086804  -0.013771   0.543491   8.127720  -0.090814
     6  N   -0.001227  -0.091123   0.003852   0.258300  -0.090814   7.103222
     7  C   -0.000082   0.004750  -0.000336  -0.020721  -0.003947   0.245603
     8  C    0.000018  -0.000107  -0.000003   0.001746   0.000161  -0.040604
     9  O   -0.000000  -0.000055  -0.000000   0.000755  -0.000004  -0.005133
    10  O   -0.000000   0.000000  -0.000000  -0.000006  -0.000001   0.001848
    11  H    0.374963  -0.033133   0.000080   0.004675   0.000040  -0.000068
    12  H    0.353250  -0.030115   0.007258  -0.002334  -0.000146   0.001887
    13  H    0.380477  -0.039257  -0.007147  -0.004183   0.004850   0.000217
    14  H   -0.035493   0.344085  -0.038372  -0.032917   0.003271   0.002839
    15  H   -0.006121  -0.015136   0.258563  -0.009446   0.011827   0.000347
    16  H    0.000098   0.001625  -0.000126  -0.012467   0.002527   0.291679
    17  H   -0.000006  -0.000093   0.000049   0.000313   0.000481  -0.043313
    18  H   -0.000009   0.000995  -0.000020   0.000635   0.021677  -0.037254
    19  H    0.000000  -0.000000   0.000000  -0.000001  -0.000000  -0.000118
               7          8          9         10         11         12
     1  C   -0.000082   0.000018  -0.000000  -0.000000   0.374963   0.353250
     2  C    0.004750  -0.000107  -0.000055   0.000000  -0.033133  -0.030115
     3  S   -0.000336  -0.000003  -0.000000  -0.000000   0.000080   0.007258
     4  C   -0.020721   0.001746   0.000755  -0.000006   0.004675  -0.002334
     5  O   -0.003947   0.000161  -0.000004  -0.000001   0.000040  -0.000146
     6  N    0.245603  -0.040604  -0.005133   0.001848  -0.000068   0.001887
     7  C    5.185185   0.289369  -0.096877  -0.081233   0.000003  -0.000081
     8  C    0.289369   4.406842   0.554347   0.259998  -0.000000   0.000010
     9  O   -0.096877   0.554347   8.053813  -0.080358   0.000000   0.000033
    10  O   -0.081233   0.259998  -0.080358   8.283192   0.000000   0.000000
    11  H    0.000003  -0.000000   0.000000   0.000000   0.542271  -0.028209
    12  H   -0.000081   0.000010   0.000033   0.000000  -0.028209   0.568796
    13  H    0.000003  -0.000000   0.000000   0.000000  -0.025783  -0.025586
    14  H   -0.000094  -0.000015  -0.000002  -0.000000  -0.004131  -0.002788
    15  H   -0.000003  -0.000000   0.000000  -0.000000  -0.000471   0.000051
    16  H   -0.033040   0.000632   0.010593   0.000127  -0.000014   0.000034
    17  H    0.362087  -0.034217   0.000517   0.003662   0.000000   0.000002
    18  H    0.348255  -0.019856   0.001041   0.002838   0.000000  -0.000006
    19  H    0.004689  -0.003648   0.001666   0.223547  -0.000000  -0.000000
              13         14         15         16         17         18
     1  C    0.380477  -0.035493  -0.006121   0.000098  -0.000006  -0.000009
     2  C   -0.039257   0.344085  -0.015136   0.001625  -0.000093   0.000995
     3  S   -0.007147  -0.038372   0.258563  -0.000126   0.000049  -0.000020
     4  C   -0.004183  -0.032917  -0.009446  -0.012467   0.000313   0.000635
     5  O    0.004850   0.003271   0.011827   0.002527   0.000481   0.021677
     6  N    0.000217   0.002839   0.000347   0.291679  -0.043313  -0.037254
     7  C    0.000003  -0.000094  -0.000003  -0.033040   0.362087   0.348255
     8  C   -0.000000  -0.000015  -0.000000   0.000632  -0.034217  -0.019856
     9  O    0.000000  -0.000002   0.000000   0.010593   0.000517   0.001041
    10  O    0.000000  -0.000000  -0.000000   0.000127   0.003662   0.002838
    11  H   -0.025783  -0.004131  -0.000471  -0.000014   0.000000   0.000000
    12  H   -0.025586  -0.002788   0.000051   0.000034   0.000002  -0.000006
    13  H    0.534432   0.005135   0.005760  -0.000008  -0.000000  -0.000010
    14  H    0.005135   0.585380   0.003552   0.002854  -0.000010  -0.000038
    15  H    0.005760   0.003552   0.624080  -0.000007  -0.000000  -0.000011
    16  H   -0.000008   0.002854  -0.000007   0.394970  -0.000018   0.003657
    17  H   -0.000000  -0.000010  -0.000000  -0.000018   0.547640  -0.022656
    18  H   -0.000010  -0.000038  -0.000011   0.003657  -0.022656   0.465413
    19  H    0.000000   0.000000   0.000000  -0.000012  -0.000468  -0.000188
              19
     1  C    0.000000
     2  C   -0.000000
     3  S    0.000000
     4  C   -0.000001
     5  O   -0.000000
     6  N   -0.000118
     7  C    0.004689
     8  C   -0.003648
     9  O    0.001666
    10  O    0.223547
    11  H   -0.000000
    12  H   -0.000000
    13  H    0.000000
    14  H    0.000000
    15  H    0.000000
    16  H   -0.000012
    17  H   -0.000468
    18  H   -0.000188
    19  H    0.342609
 Mulliken charges:
               1
     1  C   -0.429569
     2  C   -0.338191
     3  S   -0.056731
     4  C    0.632022
     5  O   -0.518210
     6  N   -0.600139
     7  C   -0.203529
     8  C    0.585329
     9  O   -0.440336
    10  O   -0.613614
    11  H    0.169778
    12  H    0.157946
    13  H    0.171102
    14  H    0.166745
    15  H    0.127013
    16  H    0.336897
    17  H    0.186028
    18  H    0.235535
    19  H    0.431925
 Sum of Mulliken charges =  -0.00000
 Mulliken charges with hydrogens summed into heavy atoms:
               1
     1  C    0.069257
     2  C   -0.171446
     3  S    0.070282
     4  C    0.632022
     5  O   -0.518210
     6  N   -0.263242
     7  C    0.218034
     8  C    0.585329
     9  O   -0.440336
    10  O   -0.181690
 Electronic spatial extent (au):  <R**2>=           2528.0712
 Charge=             -0.0000 electrons
 Dipole moment (field-independent basis, Debye):
    X=             -2.6929    Y=              0.3504    Z=             -2.3808  Tot=              3.6115
 Quadrupole moment (field-independent basis, Debye-Ang):
   XX=            -58.6699   YY=            -69.8766   ZZ=            -64.4743
   XY=              9.9925   XZ=              8.0147   YZ=              0.8646
 Traceless Quadrupole moment (field-independent basis, Debye-Ang):
   XX=              5.6704   YY=             -5.5363   ZZ=             -0.1340
   XY=              9.9925   XZ=              8.0147   YZ=              0.8646
 Octapole moment (field-independent basis, Debye-Ang**2):
  XXX=           -133.0654  YYY=             -1.4917  ZZZ=             -3.1640  XYY=              0.7637
  XXY=            -21.4052  XXZ=            -11.0677  XZZ=             -8.7359  YZZ=              4.1542
  YYZ=             -0.5103  XYZ=             -8.0374
 Hexadecapole moment (field-independent basis, Debye-Ang**3):
 XXXX=          -2164.2139 YYYY=           -395.1719 ZZZZ=           -182.9672 XXXY=             47.9942
 XXXZ=            165.3277 YYYX=             15.0135 YYYZ=             -5.0453 ZZZX=              7.3265
 ZZZY=             -9.1067 XXYY=           -523.5266 XXZZ=           -460.7997 YYZZ=            -97.1808
 XXYZ=              1.5014 YYXZ=              3.6810 ZZXY=              1.5496
 N-N= 6.058330452450D+02 E-N=-3.271331131529D+03  KE= 8.683260887374D+02
 No NMR shielding tensors so no spin-rotation constants.
 Leave Link  601 at Fri Mar 14 14:21:50 2025, MaxMem=  8589934592 cpu:               1.2 elap:               0.3
 (Enter /home/enzo/gaussian_versions/gdv.j21/gdv/l701.exe)
 ... and contract with generalized density number  0.
 Compute integral first derivatives.
 Leave Link  701 at Fri Mar 14 14:21:50 2025, MaxMem=  8589934592 cpu:               1.2 elap:               0.3
 (Enter /home/enzo/gaussian_versions/gdv.j21/gdv/l702.exe)
 L702 exits ... SP integral derivatives will be done elsewhere.
 Leave Link  702 at Fri Mar 14 14:21:50 2025, MaxMem=  8589934592 cpu:               0.2 elap:               0.3
 (Enter /home/enzo/gaussian_versions/gdv.j21/gdv/l703.exe)
 Integral derivatives from FoFJK, PRISM(SPDF).
 Compute integral first derivatives, UseDBF=F ICtDFT=           0.
 Calling FoFJK, ICntrl=      2127 FMM=F ISym2X=0 I1Cent= 0 IOpClX= 0 NMat=1 NMatS=1 NMatT=0.
 FoFJK:  IHMeth= 1 ICntrl=    2127 DoSepK=F KAlg= 0 I1Cent=           0 FoldK=F
 IRaf=         0 NMat=       1 IRICut=       1 DoRegI=T DoRafI=F ISym2E= 0 IDoP0=0 IntGTp=1.
 FoFCou: FMM=F IPFlag=           0 FMFlag=      100000 FMFlg1=         800
         NFxFlg=           0 DoJE=F BraDBF=F KetDBF=F FulRan=T
         wScrn=  0.000000 ICntrl=      2127 IOpCl=  0 I1Cent=           0 NGrid=           0
         NMat0=    1 NMatS0=      1 NMatT0=    0 NMatD0=    1 NMtDS0=    0 NMtDT0=    0
 Symmetry not used in FoFCou.
 Leave Link  703 at Fri Mar 14 14:21:52 2025, MaxMem=  8589934592 cpu:              16.0 elap:               2.1
 (Enter /home/enzo/gaussian_versions/gdv.j21/gdv/l716.exe)
 Dipole        =-1.05946471D+00 1.37855190D-01-9.36687259D-01
 ***** Axes restored to original set *****
 -------------------------------------------------------------------
 Center     Atomic                   Forces (Hartrees/Bohr)
 Number     Number              X              Y              Z
 -------------------------------------------------------------------
      1        6           0.000202531    0.014296349   -0.009170701
      2        6           0.004787706    0.015762504    0.014184498
      3       16          -0.006431525   -0.012874425   -0.016928383
      4        6           0.044450532   -0.047319748   -0.024812507
      5        8           0.007735739    0.034214212    0.031575965
      6        7          -0.042437455    0.007518817   -0.004436078
      7        6          -0.009786566   -0.010458998   -0.002473114
      8        6           0.031777972    0.094217929    0.014436784
      9        8           0.008251216   -0.065421917   -0.005837432
     10        8          -0.000771678   -0.022603834    0.014146811
     11        1           0.007771504   -0.006037890   -0.003351935
     12        1          -0.006483888   -0.003940524   -0.001904688
     13        1           0.002968317    0.004621836    0.009041217
     14        1          -0.004494038   -0.005882316   -0.005342738
     15        1          -0.002379790    0.005901245    0.024527531
     16        1           0.003239391   -0.018502046   -0.021552148
     17        1           0.002261569    0.001273925   -0.008202843
     18        1          -0.003677924    0.003108385    0.010333190
     19        1          -0.036983612    0.012126496   -0.014233430
 -------------------------------------------------------------------
 Cartesian Forces:  Max     0.094217929 RMS     0.022686219
 Leave Link  716 at Fri Mar 14 14:21:53 2025, MaxMem=  8589934592 cpu:               0.3 elap:               0.1
 (Enter /home/enzo/gaussian_versions/gdv.j21/gdv/l103.exe)

 GradGradGradGradGradGradGradGradGradGradGradGradGradGradGradGradGradGrad
 Berny optimization.
 FormGI is forming the generalized inverse of G from B-inverse, IUseBI=4.
 Internal  Forces:  Max     0.066023919 RMS     0.014545661
 Search for a local minimum.
 Step number   1 out of a maximum of   93
 All quantities printed in internal units (Hartrees-Bohrs-Radians)
 RMS Force = .14546D-01 SwitMx=.10000D-02 MixMth= 1
 Mixed Optimization -- RFO/linear search
 Second derivative matrix not updated -- first step.
 ITU=  0
     Eigenvalues ---    0.00230   0.00449   0.00747   0.00859   0.00909
     Eigenvalues ---    0.00960   0.01054   0.01107   0.01276   0.01844
     Eigenvalues ---    0.05076   0.05358   0.05428   0.05664   0.05775
     Eigenvalues ---    0.06700   0.07595   0.09731   0.13112   0.16000
     Eigenvalues ---    0.16000   0.16000   0.16000   0.16000   0.16000
     Eigenvalues ---    0.17528   0.19893   0.21765   0.22000   0.22010
     Eigenvalues ---    0.24709   0.24997   0.24999   0.25000   0.25000
     Eigenvalues ---    0.29991   0.32225   0.32561   0.32590   0.32593
     Eigenvalues ---    0.32611   0.32612   0.32654   0.33128   0.37070
     Eigenvalues ---    0.40614   0.40786   0.45646   0.47576   0.79879
     Eigenvalues ---    0.80576
 RFO step:  Lambda=-4.21141344D-02 EMin= 2.30000000D-03
 Linear search not attempted -- first point.
 Maximum step size (   0.300) exceeded in Quadratic search.
    -- Step size scaled by   0.902
 Iteration  1 RMS(Cart)=  0.07870343 RMS(Int)=  0.00252574
 Iteration  2 RMS(Cart)=  0.00426796 RMS(Int)=  0.00014370
 Iteration  3 RMS(Cart)=  0.00002290 RMS(Int)=  0.00014238
 Iteration  4 RMS(Cart)=  0.00000000 RMS(Int)=  0.00014238
 Variable       Old X    -DE/DX   Delta X   Delta X   Delta X     New X
                                 (Linear)    (Quad)   (Total)
    R1        2.87981   0.00946   0.00000   0.02495   0.02495   2.90476
    R2        2.09663  -0.01036   0.00000  -0.02536  -0.02536   2.07127
    R3        2.09741  -0.00745   0.00000  -0.01824  -0.01824   2.07916
    R4        2.09773  -0.01050   0.00000  -0.02574  -0.02574   2.07198
    R5        3.43654   0.01168   0.00000   0.03643   0.03643   3.47297
    R6        2.83735   0.01234   0.00000   0.03056   0.03056   2.86791
    R7        2.09777  -0.00793   0.00000  -0.01944  -0.01944   2.07832
    R8        2.65724  -0.02522   0.00000  -0.08760  -0.08760   2.56964
    R9        2.37981  -0.04688   0.00000  -0.05030  -0.05030   2.32950
   R10        2.70499  -0.05003   0.00000  -0.10033  -0.10033   2.60466
   R11        2.75741  -0.01567   0.00000  -0.03425  -0.03425   2.72316
   R12        1.97427  -0.02817   0.00000  -0.05671  -0.05671   1.91756
   R13        2.82127   0.01146   0.00000   0.02768   0.02768   2.84895
   R14        2.09829  -0.00652   0.00000  -0.01599  -0.01599   2.08230
   R15        2.09739  -0.00963   0.00000  -0.02359  -0.02359   2.07380
   R16        2.37607  -0.06602   0.00000  -0.07026  -0.07026   2.30580
   R17        2.62394  -0.02860   0.00000  -0.04983  -0.04983   2.57411
   R18        1.91233  -0.03757   0.00000  -0.06800  -0.06800   1.84433
    A1        1.91792   0.00047   0.00000   0.00333   0.00330   1.92122
    A2        1.92132   0.00291   0.00000   0.01334   0.01332   1.93464
    A3        1.93222  -0.00035   0.00000  -0.00317  -0.00316   1.92907
    A4        1.89092  -0.00083   0.00000  -0.00051  -0.00058   1.89034
    A5        1.89842  -0.00027   0.00000  -0.00194  -0.00194   1.89649
    A6        1.90234  -0.00200   0.00000  -0.01129  -0.01127   1.89107
    A7        1.91888   0.00839   0.00000   0.03925   0.03928   1.95816
    A8        1.92978  -0.00698   0.00000  -0.01709  -0.01736   1.91241
    A9        1.89138   0.00106   0.00000   0.00242   0.00263   1.89400
   A10        1.92228   0.00154   0.00000   0.01212   0.01205   1.93433
   A11        1.88168  -0.00641   0.00000  -0.04127  -0.04119   1.84048
   A12        1.91898   0.00245   0.00000   0.00396   0.00394   1.92292
   A13        1.62494   0.00385   0.00000   0.01717   0.01717   1.64211
   A14        2.08866   0.01435   0.00000   0.04422   0.04401   2.13267
   A15        2.09903  -0.01994   0.00000  -0.06170  -0.06190   2.03713
   A16        2.09545   0.00558   0.00000   0.01714   0.01695   2.11240
   A17        2.11758  -0.00115   0.00000  -0.00396  -0.00405   2.11353
   A18        2.07425   0.00440   0.00000   0.01907   0.01897   2.09322
   A19        2.09136  -0.00326   0.00000  -0.01513  -0.01522   2.07614
   A20        1.93117   0.00458   0.00000   0.01930   0.01919   1.95036
   A21        1.91195   0.00458   0.00000   0.02895   0.02899   1.94094
   A22        1.91095  -0.00727   0.00000  -0.03761  -0.03761   1.87333
   A23        1.91135  -0.00500   0.00000  -0.01939  -0.01967   1.89167
   A24        1.90475   0.00464   0.00000   0.02603   0.02624   1.93099
   A25        1.89325  -0.00166   0.00000  -0.01811  -0.01786   1.87539
   A26        2.09579   0.01786   0.00000   0.05518   0.05518   2.15098
   A27        2.09195  -0.03138   0.00000  -0.09694  -0.09694   1.99501
   A28        2.09523   0.01352   0.00000   0.04175   0.04175   2.13698
   A29        2.10913  -0.02939   0.00000  -0.13123  -0.13123   1.97790
    D1        1.04720  -0.00236   0.00000  -0.02571  -0.02568   1.02151
    D2       -3.10971   0.00057   0.00000   0.00441   0.00437  -3.10534
    D3       -1.00539   0.00001   0.00000   0.00043   0.00038  -1.00501
    D4        3.12847  -0.00129   0.00000  -0.01600  -0.01593   3.11253
    D5       -1.02844   0.00164   0.00000   0.01411   0.01412  -1.01432
    D6        1.07588   0.00108   0.00000   0.01013   0.01013   1.08601
    D7       -1.05021  -0.00211   0.00000  -0.02342  -0.02339  -1.07360
    D8        1.07607   0.00083   0.00000   0.00669   0.00667   1.08273
    D9       -3.10280   0.00026   0.00000   0.00271   0.00267  -3.10012
   D10        1.10552   0.00031   0.00000   0.03983   0.04035   1.14586
   D11       -1.02522   0.00248   0.00000   0.02734   0.02708  -0.99814
   D12       -3.11907   0.00252   0.00000   0.04058   0.04032  -3.07875
   D13       -1.33916  -0.00051   0.00000   0.02413   0.02431  -1.31485
   D14        1.79185  -0.00262   0.00000  -0.01228  -0.01233   1.77951
   D15        0.78512   0.00645   0.00000   0.07023   0.07032   0.85544
   D16       -2.36706   0.00434   0.00000   0.03382   0.03367  -2.33338
   D17        2.85625   0.00102   0.00000   0.02938   0.02947   2.88572
   D18       -0.29593  -0.00109   0.00000  -0.00703  -0.00718  -0.30311
   D19       -3.13096   0.00211   0.00000   0.03642   0.03638  -3.09458
   D20        0.00987   0.00061   0.00000   0.01080   0.01047   0.02034
   D21        0.00000   0.00005   0.00000   0.00003   0.00037   0.00037
   D22        3.14084  -0.00145   0.00000  -0.02559  -0.02555   3.11529
   D23        2.26905   0.00131   0.00000   0.00276   0.00257   2.27161
   D24       -1.90519   0.00099   0.00000   0.00978   0.01012  -1.89507
   D25        0.16895  -0.00265   0.00000  -0.01751  -0.01736   0.15159
   D26       -0.87178   0.00282   0.00000   0.02861   0.02822  -0.84356
   D27        1.23717   0.00250   0.00000   0.03563   0.03577   1.27294
   D28       -2.97188  -0.00114   0.00000   0.00834   0.00830  -2.96358
   D29        0.07234   0.00348   0.00000   0.02931   0.02912   0.10147
   D30       -3.04681   0.00349   0.00000   0.02921   0.02903  -3.01778
   D31       -2.03696  -0.00188   0.00000  -0.00641  -0.00637  -2.04333
   D32        1.12707  -0.00188   0.00000  -0.00651  -0.00646   1.12061
   D33        2.17614   0.00032   0.00000   0.01154   0.01167   2.18781
   D34       -0.94301   0.00032   0.00000   0.01144   0.01158  -0.93144
   D35       -2.07612  -0.00682   0.00000  -0.10181  -0.10181  -2.17792
   D36        1.08791  -0.00687   0.00000  -0.10209  -0.10209   0.98582
         Item               Value     Threshold  Converged?
 Maximum Force            0.066024     0.000450     NO 
 RMS     Force            0.014546     0.000300     NO 
 Maximum Displacement     0.306590     0.001800     NO 
 RMS     Displacement     0.079270     0.001200     NO 
 Predicted change in Energy=-2.360521D-02
 Lowest energy point so far.  Saving SCF results.
 GradGradGradGradGradGradGradGradGradGradGradGradGradGradGradGradGradGrad

 Leave Link  103 at Fri Mar 14 14:21:53 2025, MaxMem=  8589934592 cpu:               0.4 elap:               0.1
 (Enter /home/enzo/gaussian_versions/gdv.j21/gdv/l202.exe)
                          Input orientation:                          
 ---------------------------------------------------------------------
 Center     Atomic      Atomic             Coordinates (Angstroms)
 Number     Number       Type             X           Y           Z
 ---------------------------------------------------------------------
      1          6           0       -1.999270    1.691822   -0.799645
      2          6           0       -1.828065    0.584053    0.252168
      3         16           0       -3.346167   -0.434375    0.441233
      4          6           0       -0.637890   -0.283997   -0.112774
      5          8           0       -0.685252   -1.114828   -1.022210
      6          7           0        0.528969   -0.061490    0.586309
      7          6           0        1.732302   -0.791756    0.277621
      8          6           0        2.914712    0.127418    0.104766
      9          8           0        2.865190    1.328032    0.316681
     10          8           0        4.045412   -0.490569   -0.336929
     11          1           0       -2.834357    2.346219   -0.524403
     12          1           0       -1.089095    2.305539   -0.873636
     13          1           0       -2.203943    1.257671   -1.785453
     14          1           0       -1.667344    1.055302    1.232809
     15          1           0       -3.274786   -0.948910   -0.815426
     16          1           0        0.555322    0.642643    1.316500
     17          1           0        1.970948   -1.519846    1.069538
     18          1           0        1.544199   -1.357448   -0.643745
     19          1           0        4.816196   -0.347600    0.244433
 ---------------------------------------------------------------------
                    Distance matrix (angstroms):
                    1          2          3          4          5
     1  C    0.000000
     2  C    1.537132   0.000000
     3  S    2.806176   1.837818   0.000000
     4  C    2.495798   1.517632   2.768447   0.000000
     5  O    3.107002   2.411692   3.112097   1.232719   0.000000
     6  N    3.374458   2.466573   3.895737   1.378327   2.274024
     7  C    4.610129   3.817029   5.093656   2.455206   2.763784
     8  C    5.235699   4.766988   6.295032   3.582955   3.971522
     9  O    5.004149   4.752295   6.457751   3.880031   4.512852
    10  O    6.443223   5.999965   7.432640   4.693212   4.820632
    11  H    1.096067   2.172767   2.987659   3.451368   4.104304
    12  H    1.100246   2.185641   3.785549   2.736456   3.447328
    13  H    1.096447   2.178749   3.020899   2.761724   2.918512
    14  H    2.155505   1.099801   2.379953   2.159650   3.280103
    15  H    2.932688   2.362782   1.359792   2.808746   2.603071
    16  H    3.479194   2.610894   4.140975   2.079721   3.177623
    17  H    5.437949   4.418934   5.463032   3.119490   3.405120
    18  H    4.677449   3.993025   5.093616   2.489125   2.274325
    19  H    7.190266   6.709265   8.165196   5.466141   5.697276
                    6          7          8          9         10
     6  N    0.000000
     7  C    1.441037   0.000000
     8  C    2.441176   1.507599   0.000000
     9  O    2.731556   2.403843   1.220178   0.000000
    10  O    3.660854   2.412232   1.362162   2.264385   0.000000
    11  H    4.282838   5.598616   6.194411   5.850552   7.444040
    12  H    3.217514   4.344987   4.661754   4.243672   5.871068
    13  H    3.851525   4.893920   5.572345   5.488172   6.648985
    14  H    2.547347   3.985173   4.809230   4.632228   6.122857
    15  H    4.149811   5.127415   6.349420   6.645709   7.350125
    16  H    1.014730   2.126511   2.701939   2.608617   4.024764
    17  H    2.107039   1.101907   2.129544   3.078453   2.709421
    18  H    2.055051   1.097409   2.154855   3.143126   2.664898
    19  H    4.310343   3.115892   1.964890   2.572817   0.975976
                   11         12         13         14         15
    11  H    0.000000
    12  H    1.780325   0.000000
    13  H    1.781181   1.781102   0.000000
    14  H    2.473091   2.516858   3.072262   0.000000
    15  H    3.337147   3.920723   2.637548   3.285727   0.000000
    16  H    4.216755   3.204064   4.196894   2.262198   4.663462
    17  H    6.370091   5.270043   5.770207   4.460405   5.603283
    18  H    5.736126   4.517141   4.710723   4.433603   4.839318
    19  H    8.147315   6.569756   7.481958   6.706812   8.182229
                   16         17         18         19
    16  H    0.000000
    17  H    2.596409   0.000000
    18  H    2.969983   1.773084   0.000000
    19  H    4.503882   3.185969   3.537600   0.000000
 Stoichiometry    C5H9NO3S
 Framework group  C1[X(C5H9NO3S)]
 Deg. of freedom    51
 Full point group                 C1      NOp   1
 RotChk:  IX=0 Diff= 1.59D-02
 Largest Abelian subgroup         C1      NOp   1
 Largest concise Abelian subgroup C1      NOp   1
                         Standard orientation:                         
 ---------------------------------------------------------------------
 Center     Atomic      Atomic             Coordinates (Angstroms)
 Number     Number       Type             X           Y           Z
 ---------------------------------------------------------------------
      1          6           0        2.006827    1.672702    0.747009
      2          6           0        1.819382    0.537183   -0.271930
      3         16           0        3.326173   -0.501743   -0.438630
      4          6           0        0.622241   -0.307846    0.123023
      5          8           0        0.665541   -1.112828    1.055614
      6          7           0       -0.545639   -0.093423   -0.576881
      7          6           0       -1.754812   -0.802201   -0.242038
      8          6           0       -2.927015    0.133611   -0.090213
      9          8           0       -2.866355    1.327117   -0.336582
     10          8           0       -4.061786   -0.459890    0.374044
     11          1           0        2.847169    2.310378    0.449423
     12          1           0        1.103277    2.297584    0.807519
     13          1           0        2.211811    1.264783    1.743894
     14          1           0        1.658749    0.981880   -1.264907
     15          1           0        3.255604   -0.979448    0.832533
     16          1           0       -0.568357    0.589819   -1.326775
     17          1           0       -2.004605   -1.550107   -1.011739
     18          1           0       -1.568038   -1.343269    0.694267
     19          1           0       -4.833857   -0.325672   -0.207695
 ---------------------------------------------------------------------
 Rotational constants (GHZ):           2.8884519           0.4586538           0.4298780
 Leave Link  202 at Fri Mar 14 14:21:53 2025, MaxMem=  8589934592 cpu:               0.1 elap:               0.1
 (Enter /home/enzo/gaussian_versions/gdv.j21/gdv/l301.exe)
 Standard basis: 6-31G(d) (6D, 7F)
 Ernie: Thresh=  0.10000D-02 Tol=  0.10000D-05 Strict=F.
 There are   172 symmetry adapted cartesian basis functions of A   symmetry.
 There are   172 symmetry adapted basis functions of A   symmetry.
   172 basis functions,   340 primitive gaussians,   172 cartesian basis functions
    43 alpha electrons       43 beta electrons
       nuclear repulsion energy       610.0512332892 Hartrees.
 IExCor=      4002 DFT=T Ex+Corr=B3LYP ScaHFX=  0.200000
 ScaDFX=  0.800000  0.720000  1.000000  0.810000  1.000000  0.000000
 ScaDFX=  0.000000  0.000000  0.000000  0.000000  0.000000  0.000000
 IRadAn=      5 IRanWt=     -1 IRanGd=            0 ICorTp=0 IEmpDi=  4
 NAtoms=   19 NActive=   19 NUniq=   19 SFac= 1.00D+00 NAtFMM=   60 NAOKFM=F Big=F
 Integral buffers will be    131072 words long.
 Raffenetti 2 integral format.
 Two-electron integral symmetry is turned on.
 Leave Link  301 at Fri Mar 14 14:21:53 2025, MaxMem=  8589934592 cpu:               0.3 elap:               0.1
 (Enter /home/enzo/gaussian_versions/gdv.j21/gdv/l302.exe)
 NPDir=0 NMtPBC=     1 NCelOv=     1 NCel=       1 NClECP=     1 NCelD=      1
         NCelK=      1 NCelE2=     1 NClLst=     1 CellRange=     0.0.
 One-electron integrals computed using PRISM.
 One-electron integral symmetry used in STVInt
 NBasis=   172 RedAO= T EigKep=  2.90D-03  NBF=   172
 NBsUse=   172 1.00D-06 EigRej= -1.00D+00 NBFU=   172
 Precomputing XC quadrature grid using
 IXCGrd= 4 IRadAn=           5 IRanWt=          -1 IRanGd=           0 AccXCQ= 0.00D+00.
 Generated NRdTot=       0 NPtTot=      408420 NUsed=           0 NTot=          64
 NSgBfM=   171   171   171   171   171 MxSgAt=    19 MxSgA2=    19 SizInc=   0.000
 NMBTot=     3509 MaxBatPerAtom=       86 MaxMicBPerAtom=      201 NBfPt=            50727599.
 Leave Link  302 at Fri Mar 14 14:21:53 2025, MaxMem=  8589934592 cpu:               1.9 elap:               0.3
 (Enter /home/enzo/gaussian_versions/gdv.j21/gdv/l303.exe)
 DipDrv:  MaxL=1.
 Leave Link  303 at Fri Mar 14 14:21:53 2025, MaxMem=  8589934592 cpu:               0.6 elap:               0.3
 (Enter /home/enzo/gaussian_versions/gdv.j21/gdv/l401.exe)
 Initial guess from the checkpoint file:  "/local/home/enzo/scratch/Gau-2270961.chk"
 B after Tr=     0.000000   -0.000000    0.000000
         Rot=    0.999989   -0.002418    0.001681   -0.003609 Ang=  -0.53 deg.
 AO Guess basis will be translated and rotated to current coordinates.
 JPrj=2 DoOrth=T DoCkMO=T.
 Generating alternative initial guess.
 ExpMin= 1.17D-01 ExpMax= 2.19D+04 ExpMxC= 3.30D+03 IAcc=3 IRadAn=         5 AccDes= 0.00D+00
 Harris functional with IExCor= 4002 and IRadAn=       5 diagonalized for initial guess.
 HarFok:  IExCor=    4002 AccDes= 0.00D+00 IRadAn=         5 IDoV= 1 UseB2=F ITyADJ=14 ICtDFT=  3500011
 FoFCou: FMM=F IPFlag=           0 FMFlag=      100000 FMFlg1=           0
         NFxFlg=           0 DoJE=T BraDBF=F KetDBF=T FulRan=T
         wScrn=  0.000000 ICntrl=       500 IOpCl=  0 I1Cent=   200000004 NGrid=           0
         NMat0=    1 NMatS0=      1 NMatT0=    0 NMatD0=    1 NMtDS0=    0 NMtDT0=    0
 Petite list used in FoFCou.
 Harris En= -874.537683763507    
 Leave Link  401 at Fri Mar 14 14:21:55 2025, MaxMem=  8589934592 cpu:               9.0 elap:               1.6
 (Enter /home/enzo/gaussian_versions/gdv.j21/gdv/l502.exe)
 Integral symmetry usage will be decided dynamically.
 Closed shell SCF:
 Using DIIS extrapolation, IDIIS=  1040.
 NGot=  8589934592 LenX=  8589843591 LenY=  8589813566
 Requested convergence on RMS density matrix=1.00D-08 within 128 cycles.
 Requested convergence on MAX density matrix=1.00D-06.
 Requested convergence on             energy=1.00D-06.
 No special actions if energy rises.
 Fock matrices will be formed incrementally for  20 cycles.
 Integral accuracy reduced to 1.0D-05 until final iterations.

 Cycle   1  Pass 0  IDiag  1:
 FoFJK:  IHMeth= 1 ICntrl=       0 DoSepK=F KAlg= 0 I1Cent=           0 FoldK=F
 IRaf= 900000000 NMat=       1 IRICut=       1 DoRegI=T DoRafI=F ISym2E= 0 IDoP0=0 IntGTp=1.
 FoFCou: FMM=F IPFlag=           0 FMFlag=      100000 FMFlg1=           0
         NFxFlg=           0 DoJE=F BraDBF=F KetDBF=F FulRan=T
         wScrn=  0.000000 ICntrl=         0 IOpCl=  0 I1Cent=           0 NGrid=           0
         NMat0=    1 NMatS0=      1 NMatT0=    0 NMatD0=    1 NMtDS0=    0 NMtDT0=    0
 Symmetry not used in FoFCou.
 E= -874.558688600765    
 DIIS: error= 2.83D-03 at cycle   1 NSaved=   1.
 NSaved= 1 IEnMin= 1 EnMin= -874.558688600765     IErMin= 1 ErrMin= 2.83D-03
 ErrMax= 2.83D-03  0.00D+00 EMaxC= 1.00D-01 BMatC= 7.17D-03 BMatP= 7.17D-03
 IDIUse=3 WtCom= 9.72D-01 WtEn= 2.83D-02
 Coeff-Com:  0.100D+01
 Coeff-En:   0.100D+01
 Coeff:      0.100D+01
 Gap=     1.637 Goal=   None    Shift=    0.000
 GapD=    1.637 DampG=2.000 DampE=1.000 DampFc=2.0000 IDamp=-1.
 RMSDP=8.74D-04 MaxDP=1.28D-02              OVMax= 2.61D-02

 Cycle   2  Pass 0  IDiag  1:
 RMSU=  8.74D-04    CP:  1.00D+00
 E= -874.568893036807     Delta-E=       -0.010204436042 Rises=F Damp=F
 DIIS: error= 1.76D-03 at cycle   2 NSaved=   2.
 NSaved= 2 IEnMin= 2 EnMin= -874.568893036807     IErMin= 2 ErrMin= 1.76D-03
 ErrMax= 1.76D-03  0.00D+00 EMaxC= 1.00D-01 BMatC= 1.18D-03 BMatP= 7.17D-03
 IDIUse=3 WtCom= 9.82D-01 WtEn= 1.76D-02
 Coeff-Com:  0.186D+00 0.814D+00
 Coeff-En:   0.000D+00 0.100D+01
 Coeff:      0.183D+00 0.817D+00
 Gap=     0.217 Goal=   None    Shift=    0.000
 RMSDP=3.43D-04 MaxDP=1.11D-02 DE=-1.02D-02 OVMax= 1.09D-02

 Cycle   3  Pass 0  IDiag  1:
 RMSU=  3.41D-04    CP:  9.99D-01  9.61D-01
 E= -874.568817448309     Delta-E=        0.000075588498 Rises=F Damp=F
 DIIS: error= 1.59D-03 at cycle   3 NSaved=   3.
 NSaved= 3 IEnMin= 2 EnMin= -874.568893036807     IErMin= 3 ErrMin= 1.59D-03
 ErrMax= 1.59D-03  0.00D+00 EMaxC= 1.00D-01 BMatC= 1.36D-03 BMatP= 1.18D-03
 IDIUse=3 WtCom= 2.01D-01 WtEn= 7.99D-01
 Coeff-Com: -0.503D-02 0.520D+00 0.485D+00
 Coeff-En:   0.000D+00 0.517D+00 0.483D+00
 Coeff:     -0.101D-02 0.517D+00 0.484D+00
 Gap=     0.215 Goal=   None    Shift=    0.000
 RMSDP=2.01D-04 MaxDP=8.83D-03 DE= 7.56D-05 OVMax= 9.30D-03

 Cycle   4  Pass 0  IDiag  1:
 RMSU=  9.68D-05    CP:  9.99D-01  1.03D+00  5.15D-01
 E= -874.569780174003     Delta-E=       -0.000962725694 Rises=F Damp=F
 DIIS: error= 8.16D-04 at cycle   4 NSaved=   4.
 NSaved= 4 IEnMin= 4 EnMin= -874.569780174003     IErMin= 4 ErrMin= 8.16D-04
 ErrMax= 8.16D-04  0.00D+00 EMaxC= 1.00D-01 BMatC= 1.35D-04 BMatP= 1.18D-03
 IDIUse=3 WtCom= 9.92D-01 WtEn= 8.16D-03
 Coeff-Com: -0.194D-01 0.259D+00 0.312D+00 0.449D+00
 Coeff-En:   0.000D+00 0.000D+00 0.299D-01 0.970D+00
 Coeff:     -0.192D-01 0.257D+00 0.309D+00 0.453D+00
 Gap=     0.214 Goal=   None    Shift=    0.000
 RMSDP=6.18D-05 MaxDP=2.35D-03 DE=-9.63D-04 OVMax= 3.14D-03

 Cycle   5  Pass 0  IDiag  1:
 RMSU=  3.31D-05    CP:  9.99D-01  1.03D+00  5.56D-01  4.83D-01
 E= -874.569880730494     Delta-E=       -0.000100556491 Rises=F Damp=F
 DIIS: error= 1.41D-04 at cycle   5 NSaved=   5.
 NSaved= 5 IEnMin= 5 EnMin= -874.569880730494     IErMin= 5 ErrMin= 1.41D-04
 ErrMax= 1.41D-04  0.00D+00 EMaxC= 1.00D-01 BMatC= 8.38D-06 BMatP= 1.35D-04
 IDIUse=3 WtCom= 9.99D-01 WtEn= 1.41D-03
 Coeff-Com: -0.984D-02 0.952D-01 0.129D+00 0.259D+00 0.527D+00
 Coeff-En:   0.000D+00 0.000D+00 0.000D+00 0.000D+00 0.100D+01
 Coeff:     -0.983D-02 0.951D-01 0.129D+00 0.259D+00 0.527D+00
 Gap=     0.214 Goal=   None    Shift=    0.000
 RMSDP=1.67D-05 MaxDP=4.84D-04 DE=-1.01D-04 OVMax= 7.86D-04

 Cycle   6  Pass 0  IDiag  1:
 RMSU=  1.18D-05    CP:  9.99D-01  1.03D+00  5.58D-01  5.37D-01  6.89D-01
 E= -874.569886942156     Delta-E=       -0.000006211662 Rises=F Damp=F
 DIIS: error= 3.70D-05 at cycle   6 NSaved=   6.
 NSaved= 6 IEnMin= 6 EnMin= -874.569886942156     IErMin= 6 ErrMin= 3.70D-05
 ErrMax= 3.70D-05  0.00D+00 EMaxC= 1.00D-01 BMatC= 6.04D-07 BMatP= 8.38D-06
 IDIUse=1 WtCom= 1.00D+00 WtEn= 0.00D+00
 Coeff-Com: -0.262D-02 0.179D-01 0.284D-01 0.787D-01 0.270D+00 0.607D+00
 Coeff:     -0.262D-02 0.179D-01 0.284D-01 0.787D-01 0.270D+00 0.607D+00
 Gap=     0.214 Goal=   None    Shift=    0.000
 RMSDP=5.10D-06 MaxDP=1.38D-04 DE=-6.21D-06 OVMax= 1.74D-04

 Initial convergence to 1.0D-05 achieved.  Increase integral accuracy.
 Cycle   7  Pass 1  IDiag  1:
 E= -874.569859819072     Delta-E=        0.000027123084 Rises=F Damp=F
 DIIS: error= 1.79D-05 at cycle   1 NSaved=   1.
 NSaved= 1 IEnMin= 1 EnMin= -874.569859819072     IErMin= 1 ErrMin= 1.79D-05
 ErrMax= 1.79D-05  0.00D+00 EMaxC= 1.00D-01 BMatC= 7.93D-08 BMatP= 7.93D-08
 IDIUse=1 WtCom= 1.00D+00 WtEn= 0.00D+00
 Coeff-Com:  0.100D+01
 Coeff:      0.100D+01
 Gap=     0.214 Goal=   None    Shift=    0.000
 RMSDP=5.10D-06 MaxDP=1.38D-04 DE= 2.71D-05 OVMax= 1.31D-04

 Cycle   8  Pass 1  IDiag  1:
 RMSU=  7.61D-06    CP:  1.00D+00
 E= -874.569859762393     Delta-E=        0.000000056679 Rises=F Damp=F
 DIIS: error= 2.78D-05 at cycle   2 NSaved=   2.
 NSaved= 2 IEnMin= 1 EnMin= -874.569859819072     IErMin= 1 ErrMin= 1.79D-05
 ErrMax= 2.78D-05  0.00D+00 EMaxC= 1.00D-01 BMatC= 1.68D-07 BMatP= 7.93D-08
 IDIUse=1 WtCom= 1.00D+00 WtEn= 0.00D+00
 Coeff-Com:  0.606D+00 0.394D+00
 Coeff:      0.606D+00 0.394D+00
 Gap=     0.214 Goal=   None    Shift=    0.000
 RMSDP=2.49D-06 MaxDP=8.38D-05 DE= 5.67D-08 OVMax= 1.29D-04

 Cycle   9  Pass 1  IDiag  1:
 RMSU=  2.33D-06    CP:  1.00D+00  8.87D-01
 E= -874.569859886687     Delta-E=       -0.000000124294 Rises=F Damp=F
 DIIS: error= 7.98D-06 at cycle   3 NSaved=   3.
 NSaved= 3 IEnMin= 3 EnMin= -874.569859886687     IErMin= 3 ErrMin= 7.98D-06
 ErrMax= 7.98D-06  0.00D+00 EMaxC= 1.00D-01 BMatC= 1.25D-08 BMatP= 7.93D-08
 IDIUse=1 WtCom= 1.00D+00 WtEn= 0.00D+00
 Coeff-Com:  0.135D+00 0.223D+00 0.642D+00
 Coeff:      0.135D+00 0.223D+00 0.642D+00
 Gap=     0.214 Goal=   None    Shift=    0.000
 RMSDP=8.69D-07 MaxDP=2.55D-05 DE=-1.24D-07 OVMax= 5.29D-05

 Cycle  10  Pass 1  IDiag  1:
 RMSU=  6.79D-07    CP:  1.00D+00  9.09D-01  7.80D-01
 E= -874.569859894466     Delta-E=       -0.000000007780 Rises=F Damp=F
 DIIS: error= 2.66D-06 at cycle   4 NSaved=   4.
 NSaved= 4 IEnMin= 4 EnMin= -874.569859894466     IErMin= 4 ErrMin= 2.66D-06
 ErrMax= 2.66D-06  0.00D+00 EMaxC= 1.00D-01 BMatC= 2.37D-09 BMatP= 1.25D-08
 IDIUse=1 WtCom= 1.00D+00 WtEn= 0.00D+00
 Coeff-Com:  0.338D-02 0.838D-01 0.394D+00 0.519D+00
 Coeff:      0.338D-02 0.838D-01 0.394D+00 0.519D+00
 Gap=     0.214 Goal=   None    Shift=    0.000
 RMSDP=3.38D-07 MaxDP=7.58D-06 DE=-7.78D-09 OVMax= 1.76D-05

 Cycle  11  Pass 1  IDiag  1:
 RMSU=  1.24D-07    CP:  1.00D+00  9.14D-01  8.13D-01  5.55D-01
 E= -874.569859896631     Delta-E=       -0.000000002165 Rises=F Damp=F
 DIIS: error= 3.54D-07 at cycle   5 NSaved=   5.
 NSaved= 5 IEnMin= 5 EnMin= -874.569859896631     IErMin= 5 ErrMin= 3.54D-07
 ErrMax= 3.54D-07  0.00D+00 EMaxC= 1.00D-01 BMatC= 9.32D-11 BMatP= 2.37D-09
 IDIUse=1 WtCom= 1.00D+00 WtEn= 0.00D+00
 Coeff-Com: -0.357D-02 0.367D-01 0.190D+00 0.282D+00 0.494D+00
 Coeff:     -0.357D-02 0.367D-01 0.190D+00 0.282D+00 0.494D+00
 Gap=     0.214 Goal=   None    Shift=    0.000
 RMSDP=6.24D-08 MaxDP=1.62D-06 DE=-2.16D-09 OVMax= 2.47D-06

 Cycle  12  Pass 1  IDiag  1:
 RMSU=  4.06D-08    CP:  1.00D+00  9.15D-01  8.13D-01  5.62D-01  6.24D-01
 E= -874.569859896698     Delta-E=       -0.000000000067 Rises=F Damp=F
 DIIS: error= 1.31D-07 at cycle   6 NSaved=   6.
 NSaved= 6 IEnMin= 6 EnMin= -874.569859896698     IErMin= 6 ErrMin= 1.31D-07
 ErrMax= 1.31D-07  0.00D+00 EMaxC= 1.00D-01 BMatC= 7.44D-12 BMatP= 9.32D-11
 IDIUse=1 WtCom= 1.00D+00 WtEn= 0.00D+00
 Coeff-Com: -0.231D-02 0.114D-01 0.640D-01 0.100D+00 0.264D+00 0.562D+00
 Coeff:     -0.231D-02 0.114D-01 0.640D-01 0.100D+00 0.264D+00 0.562D+00
 Gap=     0.214 Goal=   None    Shift=    0.000
 RMSDP=1.67D-08 MaxDP=4.88D-07 DE=-6.71D-11 OVMax= 7.23D-07

 Cycle  13  Pass 1  IDiag  1:
 RMSU=  1.40D-08    CP:  1.00D+00  9.15D-01  8.14D-01  5.65D-01  6.68D-01
                    CP:  8.36D-01
 E= -874.569859896706     Delta-E=       -0.000000000008 Rises=F Damp=F
 DIIS: error= 6.17D-08 at cycle   7 NSaved=   7.
 NSaved= 7 IEnMin= 7 EnMin= -874.569859896706     IErMin= 7 ErrMin= 6.17D-08
 ErrMax= 6.17D-08  0.00D+00 EMaxC= 1.00D-01 BMatC= 1.10D-12 BMatP= 7.44D-12
 IDIUse=1 WtCom= 1.00D+00 WtEn= 0.00D+00
 Coeff-Com: -0.911D-03 0.256D-02 0.162D-01 0.267D-01 0.998D-01 0.320D+00
 Coeff-Com:  0.536D+00
 Coeff:     -0.911D-03 0.256D-02 0.162D-01 0.267D-01 0.998D-01 0.320D+00
 Coeff:      0.536D+00
 Gap=     0.214 Goal=   None    Shift=    0.000
 RMSDP=7.04D-09 MaxDP=3.65D-07 DE=-8.41D-12 OVMax= 4.66D-07

 SCF Done:  E(RB3LYP) =  -874.569859897     A.U. after   13 cycles
            NFock= 13  Conv=0.70D-08     -V/T= 2.0065
 KE= 8.689011819296D+02 PE=-3.279987419627D+03 EE= 9.264651445117D+02
 Leave Link  502 at Fri Mar 14 14:22:07 2025, MaxMem=  8589934592 cpu:              84.2 elap:              12.0
 (Enter /home/enzo/gaussian_versions/gdv.j21/gdv/l701.exe)
 ... and contract with generalized density number  0.
 Compute integral first derivatives.
 Leave Link  701 at Fri Mar 14 14:22:08 2025, MaxMem=  8589934592 cpu:               2.9 elap:               0.6
 (Enter /home/enzo/gaussian_versions/gdv.j21/gdv/l702.exe)
 L702 exits ... SP integral derivatives will be done elsewhere.
 Leave Link  702 at Fri Mar 14 14:22:08 2025, MaxMem=  8589934592 cpu:               0.4 elap:               0.3
 (Enter /home/enzo/gaussian_versions/gdv.j21/gdv/l703.exe)
 Integral derivatives from FoFJK, PRISM(SPDF).
 Compute integral first derivatives, UseDBF=F ICtDFT=           0.
 Calling FoFJK, ICntrl=      2127 FMM=F ISym2X=0 I1Cent= 0 IOpClX= 0 NMat=1 NMatS=1 NMatT=0.
 FoFJK:  IHMeth= 1 ICntrl=    2127 DoSepK=F KAlg= 0 I1Cent=           0 FoldK=F
 IRaf=         0 NMat=       1 IRICut=       1 DoRegI=T DoRafI=F ISym2E= 0 IDoP0=0 IntGTp=1.
 FoFCou: FMM=F IPFlag=           0 FMFlag=      100000 FMFlg1=         800
         NFxFlg=           0 DoJE=F BraDBF=F KetDBF=F FulRan=T
         wScrn=  0.000000 ICntrl=      2127 IOpCl=  0 I1Cent=           0 NGrid=           0
         NMat0=    1 NMatS0=      1 NMatT0=    0 NMatD0=    1 NMtDS0=    0 NMtDT0=    0
 Symmetry not used in FoFCou.
 Leave Link  703 at Fri Mar 14 14:22:10 2025, MaxMem=  8589934592 cpu:              15.1 elap:               1.7
 (Enter /home/enzo/gaussian_versions/gdv.j21/gdv/l716.exe)
 Dipole        =-1.03675054D+00 1.97409987D-01-8.97244546D-01
 ***** Axes restored to original set *****
 -------------------------------------------------------------------
 Center     Atomic                   Forces (Hartrees/Bohr)
 Number     Number              X              Y              Z
 -------------------------------------------------------------------
      1        6          -0.000970575    0.002923261   -0.001275077
      2        6           0.001020713    0.009068987    0.002797682
      3       16          -0.000933458   -0.001900042   -0.003444590
      4        6           0.014782117   -0.014628997   -0.008502709
      5        8          -0.003122463    0.008121851    0.006015039
      6        7          -0.013377569    0.001610766    0.001606103
      7        6          -0.001695025   -0.003273759   -0.003423283
      8        6           0.005235053    0.035507413    0.002607645
      9        8           0.001567510   -0.019371518    0.003166886
     10        8          -0.001153349   -0.021829574    0.005400225
     11        1           0.000946662   -0.001338390   -0.000749155
     12        1          -0.001123776   -0.001717896    0.000110094
     13        1           0.000869545    0.000434274    0.001446453
     14        1          -0.001576682   -0.002669847   -0.001009739
     15        1          -0.000077177    0.000350405    0.005291072
     16        1           0.002002511   -0.001924086   -0.004094417
     17        1           0.001546752   -0.000443114   -0.002295329
     18        1           0.000707049   -0.000253401    0.002288512
     19        1          -0.004647839    0.011333669   -0.005935412
 -------------------------------------------------------------------
 Cartesian Forces:  Max     0.035507413 RMS     0.007731416
 Leave Link  716 at Fri Mar 14 14:22:10 2025, MaxMem=  8589934592 cpu:               0.2 elap:               0.2
 (Enter /home/enzo/gaussian_versions/gdv.j21/gdv/l103.exe)

 GradGradGradGradGradGradGradGradGradGradGradGradGradGradGradGradGradGrad
 Berny optimization.
 Using GEDIIS/GDIIS optimizer.
 FormGI is forming the generalized inverse of G from B-inverse, IUseBI=4.
 Internal  Forces:  Max     0.018574205 RMS     0.004015300
 Search for a local minimum.
 Step number   2 out of a maximum of   93
 All quantities printed in internal units (Hartrees-Bohrs-Radians)
 RMS Force = .40153D-02 SwitMx=.10000D-02 MixMth= 1
 Mixed Optimization -- RFO/linear search
 Update second derivatives using D2CorX and points    1    2
 DE= -2.48D-02 DEPred=-2.36D-02 R= 1.05D+00
 TightC=F SS=  1.41D+00  RLast= 3.61D-01 DXNew= 5.0454D-01 1.0843D+00
 Trust test= 1.05D+00 RLast= 3.61D-01 DXMaxT set to 5.05D-01
 ITU=  1  0
 Use linear search instead of GDIIS.
     Eigenvalues ---    0.00231   0.00449   0.00749   0.00860   0.00909
     Eigenvalues ---    0.00970   0.01060   0.01103   0.01276   0.01715
     Eigenvalues ---    0.04953   0.05195   0.05388   0.05640   0.05706
     Eigenvalues ---    0.06642   0.07614   0.09935   0.13283   0.15671
     Eigenvalues ---    0.15996   0.16000   0.16000   0.16000   0.16101
     Eigenvalues ---    0.17625   0.20203   0.21547   0.21981   0.22258
     Eigenvalues ---    0.23376   0.24733   0.24994   0.25000   0.25812
     Eigenvalues ---    0.30080   0.32068   0.32565   0.32577   0.32602
     Eigenvalues ---    0.32609   0.32631   0.32753   0.33085   0.37297
     Eigenvalues ---    0.40656   0.41596   0.45905   0.49412   0.77121
     Eigenvalues ---    0.80185
 RFO step:  Lambda=-8.87718271D-03 EMin= 2.30702056D-03
 Quartic linear search produced a step of  0.34913.
 Iteration  1 RMS(Cart)=  0.06837454 RMS(Int)=  0.03025233
 Iteration  2 RMS(Cart)=  0.03088504 RMS(Int)=  0.00313943
 Iteration  3 RMS(Cart)=  0.00301816 RMS(Int)=  0.00017185
 Iteration  4 RMS(Cart)=  0.00001833 RMS(Int)=  0.00017147
 Iteration  5 RMS(Cart)=  0.00000000 RMS(Int)=  0.00017147
 Variable       Old X    -DE/DX   Delta X   Delta X   Delta X     New X
                                 (Linear)    (Quad)   (Total)
    R1        2.90476   0.00057   0.00871  -0.00489   0.00382   2.90858
    R2        2.07127  -0.00171  -0.00886   0.00057  -0.00828   2.06298
    R3        2.07916  -0.00190  -0.00637  -0.00222  -0.00859   2.07058
    R4        2.07198  -0.00163  -0.00899   0.00096  -0.00802   2.06396
    R5        3.47297   0.00188   0.01272  -0.00151   0.01121   3.48418
    R6        2.86791   0.00515   0.01067   0.01171   0.02238   2.89029
    R7        2.07832  -0.00227  -0.00679  -0.00337  -0.01016   2.06817
    R8        2.56964  -0.00503  -0.03058  -0.00130  -0.03189   2.53775
    R9        2.32950  -0.00979  -0.01756  -0.00347  -0.02104   2.30847
   R10        2.60466  -0.00843  -0.03503   0.00085  -0.03417   2.57049
   R11        2.72316   0.00007  -0.01196   0.00981  -0.00214   2.72102
   R12        1.91756  -0.00423  -0.01980   0.00214  -0.01766   1.89990
   R13        2.84895   0.00362   0.00966   0.00612   0.01578   2.86473
   R14        2.08230  -0.00102  -0.00558   0.00057  -0.00501   2.07729
   R15        2.07380  -0.00191  -0.00823  -0.00075  -0.00898   2.06482
   R16        2.30580  -0.01857  -0.02453  -0.01260  -0.03713   2.26867
   R17        2.57411   0.00012  -0.01740   0.01363  -0.00377   2.57034
   R18        1.84433  -0.00555  -0.02374   0.00257  -0.02117   1.82316
    A1        1.92122   0.00041   0.00115   0.00399   0.00514   1.92636
    A2        1.93464  -0.00079   0.00465  -0.01158  -0.00696   1.92768
    A3        1.92907  -0.00035  -0.00110  -0.00290  -0.00402   1.92505
    A4        1.89034   0.00058  -0.00020   0.00723   0.00701   1.89735
    A5        1.89649   0.00008  -0.00068   0.00266   0.00199   1.89848
    A6        1.89107   0.00010  -0.00393   0.00100  -0.00298   1.88809
    A7        1.95816   0.00200   0.01371  -0.00189   0.01183   1.96999
    A8        1.91241  -0.00102  -0.00606   0.00123  -0.00492   1.90749
    A9        1.89400   0.00096   0.00092   0.01712   0.01811   1.91211
   A10        1.93433  -0.00070   0.00421  -0.01408  -0.00990   1.92443
   A11        1.84048  -0.00193  -0.01438  -0.00955  -0.02395   1.81653
   A12        1.92292   0.00073   0.00138   0.00785   0.00909   1.93201
   A13        1.64211   0.00199   0.00600   0.00948   0.01548   1.65759
   A14        2.13267  -0.00077   0.01537  -0.01706  -0.00183   2.13084
   A15        2.03713  -0.00767  -0.02161  -0.01966  -0.04140   1.99572
   A16        2.11240   0.00842   0.00592   0.03814   0.04393   2.15633
   A17        2.11353   0.00296  -0.00141   0.01811   0.01634   2.12987
   A18        2.09322   0.00013   0.00662  -0.00291   0.00334   2.09656
   A19        2.07614  -0.00311  -0.00531  -0.01608  -0.02173   2.05441
   A20        1.95036  -0.00025   0.00670  -0.00538   0.00128   1.95164
   A21        1.94094   0.00242   0.01012   0.01280   0.02295   1.96389
   A22        1.87333  -0.00022  -0.01313   0.01577   0.00262   1.87595
   A23        1.89167  -0.00173  -0.00687  -0.01231  -0.01930   1.87238
   A24        1.93099   0.00090   0.00916  -0.00248   0.00672   1.93771
   A25        1.87539  -0.00110  -0.00623  -0.00827  -0.01448   1.86092
   A26        2.15098   0.00465   0.01927   0.00709   0.02581   2.17679
   A27        1.99501  -0.01166  -0.03384  -0.02928  -0.06367   1.93133
   A28        2.13698   0.00703   0.01458   0.02340   0.03742   2.17440
   A29        1.97790  -0.00980  -0.04582  -0.03025  -0.07606   1.90183
    D1        1.02151  -0.00036  -0.00897  -0.00099  -0.00992   1.01160
    D2       -3.10534  -0.00061   0.00153  -0.01952  -0.01802  -3.12336
    D3       -1.00501   0.00026   0.00013   0.00118   0.00128  -1.00373
    D4        3.11253   0.00012  -0.00556   0.00320  -0.00232   3.11022
    D5       -1.01432  -0.00012   0.00493  -0.01533  -0.01042  -1.02474
    D6        1.08601   0.00074   0.00354   0.00538   0.00888   1.09489
    D7       -1.07360  -0.00050  -0.00816  -0.00502  -0.01313  -1.08673
    D8        1.08273  -0.00074   0.00233  -0.02356  -0.02123   1.06150
    D9       -3.10012   0.00012   0.00093  -0.00285  -0.00193  -3.10206
   D10        1.14586   0.00080   0.01409   0.06446   0.07878   1.22464
   D11       -0.99814   0.00120   0.00945   0.07451   0.08400  -0.91414
   D12       -3.07875   0.00185   0.01408   0.07824   0.09204  -2.98670
   D13       -1.31485   0.00070   0.00849   0.01910   0.02777  -1.28708
   D14        1.77951   0.00056  -0.00431   0.05422   0.04978   1.82929
   D15        0.85544   0.00205   0.02455   0.00783   0.03256   0.88800
   D16       -2.33338   0.00191   0.01176   0.04295   0.05457  -2.27881
   D17        2.88572  -0.00029   0.01029  -0.00755   0.00285   2.88857
   D18       -0.30311  -0.00044  -0.00251   0.02758   0.02486  -0.27824
   D19       -3.09458   0.00126   0.01270   0.02674   0.03945  -3.05513
   D20        0.02034   0.00014   0.00365  -0.01231  -0.00913   0.01121
   D21        0.00037   0.00086   0.00013   0.05985   0.06045   0.06082
   D22        3.11529  -0.00026  -0.00892   0.02080   0.01188   3.12716
   D23        2.27161   0.00049   0.00090   0.00683   0.00779   2.27940
   D24       -1.89507  -0.00021   0.00353  -0.00372   0.00007  -1.89500
   D25        0.15159  -0.00033  -0.00606   0.00279  -0.00308   0.14852
   D26       -0.84356   0.00155   0.00985   0.04531   0.05489  -0.78868
   D27        1.27294   0.00085   0.01249   0.03477   0.04717   1.32011
   D28       -2.96358   0.00073   0.00290   0.04127   0.04402  -2.91956
   D29        0.10147   0.00133   0.01017   0.03714   0.04717   0.14863
   D30       -3.01778   0.00041   0.01014  -0.02300  -0.01289  -3.03067
   D31       -2.04333  -0.00036  -0.00222   0.03304   0.03080  -2.01253
   D32        1.12061  -0.00127  -0.00226  -0.02711  -0.02926   1.09135
   D33        2.18781   0.00150   0.00407   0.05185   0.05590   2.24370
   D34       -0.93144   0.00058   0.00404  -0.00830  -0.00417  -0.93560
   D35       -2.17792  -0.00908  -0.03554  -0.32435  -0.35973  -2.53766
   D36        0.98582  -0.00996  -0.03564  -0.38373  -0.41953   0.56628
         Item               Value     Threshold  Converged?
 Maximum Force            0.018574     0.000450     NO 
 RMS     Force            0.004015     0.000300     NO 
 Maximum Displacement     0.378558     0.001800     NO 
 RMS     Displacement     0.080704     0.001200     NO 
 Predicted change in Energy=-8.732264D-03
 Lowest energy point so far.  Saving SCF results.
 GradGradGradGradGradGradGradGradGradGradGradGradGradGradGradGradGradGrad

 Leave Link  103 at Fri Mar 14 14:22:10 2025, MaxMem=  8589934592 cpu:               0.4 elap:               0.2
 (Enter /home/enzo/gaussian_versions/gdv.j21/gdv/l202.exe)
                          Input orientation:                          
 ---------------------------------------------------------------------
 Center     Atomic      Atomic             Coordinates (Angstroms)
 Number     Number       Type             X           Y           Z
 ---------------------------------------------------------------------
      1          6           0       -1.971975    1.704597   -0.825773
      2          6           0       -1.802366    0.608349    0.241220
      3         16           0       -3.336894   -0.379333    0.504124
      4          6           0       -0.644040   -0.308187   -0.155688
      5          8           0       -0.741485   -1.121985   -1.061510
      6          7           0        0.495596   -0.114100    0.561124
      7          6           0        1.717578   -0.812208    0.256615
      8          6           0        2.898630    0.133583    0.163318
      9          8           0        2.869138    1.295914    0.462291
     10          8           0        4.009650   -0.526540   -0.260857
     11          1           0       -2.783546    2.380776   -0.550261
     12          1           0       -1.048952    2.286257   -0.927077
     13          1           0       -2.201023    1.257269   -1.795483
     14          1           0       -1.613407    1.070947    1.214907
     15          1           0       -3.278912   -1.002926   -0.683815
     16          1           0        0.522191    0.579375    1.288575
     17          1           0        1.967026   -1.572724    1.010108
     18          1           0        1.565796   -1.343911   -0.685802
     19          1           0        4.784078   -0.147276    0.171819
 ---------------------------------------------------------------------
                    Distance matrix (angstroms):
                    1          2          3          4          5
     1  C    0.000000
     2  C    1.539156   0.000000
     3  S    2.823896   1.843749   0.000000
     4  C    2.502743   1.529475   2.773423   0.000000
     5  O    3.091802   2.411769   3.120719   1.221588   0.000000
     6  N    3.364528   2.430000   3.842080   1.360242   2.275773
     7  C    4.595505   3.795816   5.079009   2.449749   2.807206
     8  C    5.212406   4.725551   6.265859   3.584332   4.040680
     9  O    5.026182   4.727003   6.428299   3.911196   4.604868
    10  O    6.409130   5.943028   7.387732   4.659997   4.854780
    11  H    1.091683   2.175007   3.006014   3.458858   4.086652
    12  H    1.095702   2.178973   3.793202   2.736811   3.424722
    13  H    1.092201   2.174439   3.042509   2.750232   2.886142
    14  H    2.166670   1.094426   2.361977   2.172606   3.278914
    15  H    3.009803   2.373202   1.342918   2.775632   2.568144
    16  H    3.457955   2.549775   4.053026   2.057609   3.164554
    17  H    5.443071   4.422283   5.460016   3.126627   3.439593
    18  H    4.672132   4.001900   5.136410   2.497423   2.348182
    19  H    7.075937   6.630010   8.131080   5.440369   5.744825
                    6          7          8          9         10
     6  N    0.000000
     7  C    1.439902   0.000000
     8  C    2.448299   1.515951   0.000000
     9  O    2.762537   2.410927   1.200528   0.000000
    10  O    3.632401   2.367062   1.360167   2.268271   0.000000
    11  H    4.267594   5.577303   6.151926   5.844230   7.394847
    12  H    3.219020   4.319178   4.626702   4.273470   5.826245
    13  H    3.834841   4.883572   5.577278   5.550276   6.641500
    14  H    2.505926   3.944623   4.726834   4.550851   6.028981
    15  H    4.072689   5.087798   6.338084   6.663088   7.316350
    16  H    1.005385   2.104850   2.666907   2.589273   3.973180
    17  H    2.119970   1.099254   2.120477   3.056631   2.623388
    18  H    2.052459   1.092656   2.163432   3.159983   2.611723
    19  H    4.306244   3.138909   1.906271   2.415403   0.964773
                   11         12         13         14         15
    11  H    0.000000
    12  H    1.777566   0.000000
    13  H    1.775438   1.772065   0.000000
    14  H    2.490120   2.526595   3.072859   0.000000
    15  H    3.422377   3.981284   2.739732   3.268028   0.000000
    16  H    4.189781   3.207966   4.169754   2.192680   4.565345
    17  H    6.374390   5.266929   5.766527   4.455383   5.542013
    18  H    5.727866   4.480317   4.710250   4.421716   4.856694
    19  H    8.011329   6.415130   7.391527   6.595446   8.153285
                   16         17         18         19
    16  H    0.000000
    17  H    2.607033   0.000000
    18  H    2.947254   1.757684   0.000000
    19  H    4.465294   3.266559   3.539037   0.000000
 Stoichiometry    C5H9NO3S
 Framework group  C1[X(C5H9NO3S)]
 Deg. of freedom    51
 Full point group                 C1      NOp   1
 RotChk:  IX=0 Diff= 3.99D-02
 Largest Abelian subgroup         C1      NOp   1
 Largest concise Abelian subgroup C1      NOp   1
                         Standard orientation:                         
 ---------------------------------------------------------------------
 Center     Atomic      Atomic             Coordinates (Angstroms)
 Number     Number       Type             X           Y           Z
 ---------------------------------------------------------------------
      1          6           0        1.989790    1.652450    0.825475
      2          6           0        1.789351    0.557163   -0.237149
      3         16           0        3.303876   -0.456747   -0.515740
      4          6           0        0.620459   -0.338954    0.175115
      5          8           0        0.714727   -1.152532    1.081471
      6          7           0       -0.524012   -0.127069   -0.528838
      7          6           0       -1.753944   -0.803894   -0.208692
      8          6           0       -2.917745    0.161847   -0.103708
      9          8           0       -2.872175    1.322937   -0.405469
     10          8           0       -4.034708   -0.478639    0.334728
     11          1           0        2.809366    2.314322    0.539133
     12          1           0        1.077928    2.249778    0.936246
     13          1           0        2.222544    1.203194    1.793411
     14          1           0        1.596888    1.021002   -1.209558
     15          1           0        3.249232   -1.076985    0.674113
     16          1           0       -0.547393    0.565353   -1.257401
     17          1           0       -2.024907   -1.561548   -0.957624
     18          1           0       -1.600178   -1.336262    0.733028
     19          1           0       -4.807625   -0.087211   -0.089738
 ---------------------------------------------------------------------
 Rotational constants (GHZ):           2.8241036           0.4613385           0.4337082
 Leave Link  202 at Fri Mar 14 14:22:10 2025, MaxMem=  8589934592 cpu:               0.3 elap:               0.2
 (Enter /home/enzo/gaussian_versions/gdv.j21/gdv/l301.exe)
 Standard basis: 6-31G(d) (6D, 7F)
 Ernie: Thresh=  0.10000D-02 Tol=  0.10000D-05 Strict=F.
 There are   172 symmetry adapted cartesian basis functions of A   symmetry.
 There are   172 symmetry adapted basis functions of A   symmetry.
   172 basis functions,   340 primitive gaussians,   172 cartesian basis functions
    43 alpha electrons       43 beta electrons
       nuclear repulsion energy       611.3380284044 Hartrees.
 IExCor=      4002 DFT=T Ex+Corr=B3LYP ScaHFX=  0.200000
 ScaDFX=  0.800000  0.720000  1.000000  0.810000  1.000000  0.000000
 ScaDFX=  0.000000  0.000000  0.000000  0.000000  0.000000  0.000000
 IRadAn=      5 IRanWt=     -1 IRanGd=            0 ICorTp=0 IEmpDi=  4
 NAtoms=   19 NActive=   19 NUniq=   19 SFac= 1.00D+00 NAtFMM=   60 NAOKFM=F Big=F
 Integral buffers will be    131072 words long.
 Raffenetti 2 integral format.
 Two-electron integral symmetry is turned on.
 Leave Link  301 at Fri Mar 14 14:22:11 2025, MaxMem=  8589934592 cpu:               0.3 elap:               0.2
 (Enter /home/enzo/gaussian_versions/gdv.j21/gdv/l302.exe)
 NPDir=0 NMtPBC=     1 NCelOv=     1 NCel=       1 NClECP=     1 NCelD=      1
         NCelK=      1 NCelE2=     1 NClLst=     1 CellRange=     0.0.
 One-electron integrals computed using PRISM.
 One-electron integral symmetry used in STVInt
 NBasis=   172 RedAO= T EigKep=  2.76D-03  NBF=   172
 NBsUse=   172 1.00D-06 EigRej= -1.00D+00 NBFU=   172
 Precomputing XC quadrature grid using
 IXCGrd= 4 IRadAn=           5 IRanWt=          -1 IRanGd=           0 AccXCQ= 0.00D+00.
 Generated NRdTot=       0 NPtTot=      408191 NUsed=           0 NTot=          64
 NSgBfM=   171   171   171   171   171 MxSgAt=    19 MxSgA2=    19 SizInc=   0.000
 NMBTot=     3527 MaxBatPerAtom=       86 MaxMicBPerAtom=      212 NBfPt=            50720966.
 Leave Link  302 at Fri Mar 14 14:22:11 2025, MaxMem=  8589934592 cpu:               1.6 elap:               0.2
 (Enter /home/enzo/gaussian_versions/gdv.j21/gdv/l303.exe)
 DipDrv:  MaxL=1.
 Leave Link  303 at Fri Mar 14 14:22:11 2025, MaxMem=  8589934592 cpu:               0.9 elap:               0.3
 (Enter /home/enzo/gaussian_versions/gdv.j21/gdv/l401.exe)
 Initial guess from the checkpoint file:  "/local/home/enzo/scratch/Gau-2270961.chk"
 B after Tr=     0.000000   -0.000000    0.000000
         Rot=    0.999949   -0.009952   -0.000986   -0.001319 Ang=  -1.16 deg.
 AO Guess basis will be translated and rotated to current coordinates.
 JPrj=2 DoOrth=T DoCkMO=T.
 Generating alternative initial guess.
 ExpMin= 1.17D-01 ExpMax= 2.19D+04 ExpMxC= 3.30D+03 IAcc=3 IRadAn=         5 AccDes= 0.00D+00
 Harris functional with IExCor= 4002 and IRadAn=       5 diagonalized for initial guess.
 HarFok:  IExCor=    4002 AccDes= 0.00D+00 IRadAn=         5 IDoV= 1 UseB2=F ITyADJ=14 ICtDFT=  3500011
 FoFCou: FMM=F IPFlag=           0 FMFlag=      100000 FMFlg1=           0
         NFxFlg=           0 DoJE=T BraDBF=F KetDBF=T FulRan=T
         wScrn=  0.000000 ICntrl=       500 IOpCl=  0 I1Cent=   200000004 NGrid=           0
         NMat0=    1 NMatS0=      1 NMatT0=    0 NMatD0=    1 NMtDS0=    0 NMtDT0=    0
 Petite list used in FoFCou.
 Harris En= -874.544902162048    
 Leave Link  401 at Fri Mar 14 14:22:13 2025, MaxMem=  8589934592 cpu:              10.6 elap:               1.6
 (Enter /home/enzo/gaussian_versions/gdv.j21/gdv/l502.exe)
 Integral symmetry usage will be decided dynamically.
 Closed shell SCF:
 Using DIIS extrapolation, IDIIS=  1040.
 NGot=  8589934592 LenX=  8589843591 LenY=  8589813566
 Requested convergence on RMS density matrix=1.00D-08 within 128 cycles.
 Requested convergence on MAX density matrix=1.00D-06.
 Requested convergence on             energy=1.00D-06.
 No special actions if energy rises.
 Fock matrices will be formed incrementally for  20 cycles.
 Integral accuracy reduced to 1.0D-05 until final iterations.

 Cycle   1  Pass 0  IDiag  1:
 FoFJK:  IHMeth= 1 ICntrl=       0 DoSepK=F KAlg= 0 I1Cent=           0 FoldK=F
 IRaf= 900000000 NMat=       1 IRICut=       1 DoRegI=T DoRafI=F ISym2E= 0 IDoP0=0 IntGTp=1.
 FoFCou: FMM=F IPFlag=           0 FMFlag=      100000 FMFlg1=           0
         NFxFlg=           0 DoJE=F BraDBF=F KetDBF=F FulRan=T
         wScrn=  0.000000 ICntrl=         0 IOpCl=  0 I1Cent=           0 NGrid=           0
         NMat0=    1 NMatS0=      1 NMatT0=    0 NMatD0=    1 NMtDS0=    0 NMtDT0=    0
 Symmetry not used in FoFCou.
 E= -874.559968938734    
 DIIS: error= 8.28D-03 at cycle   1 NSaved=   1.
 NSaved= 1 IEnMin= 1 EnMin= -874.559968938734     IErMin= 1 ErrMin= 8.28D-03
 ErrMax= 8.28D-03  0.00D+00 EMaxC= 1.00D-01 BMatC= 1.15D-02 BMatP= 1.15D-02
 IDIUse=3 WtCom= 9.17D-01 WtEn= 8.28D-02
 Coeff-Com:  0.100D+01
 Coeff-En:   0.100D+01
 Coeff:      0.100D+01
 Gap=     1.610 Goal=   None    Shift=    0.000
 GapD=    1.610 DampG=2.000 DampE=1.000 DampFc=2.0000 IDamp=-1.
 RMSDP=1.19D-03 MaxDP=4.44D-02              OVMax= 6.57D-02

 Cycle   2  Pass 0  IDiag  1:
 RMSU=  1.19D-03    CP:  9.98D-01
 E= -874.579295408413     Delta-E=       -0.019326469680 Rises=F Damp=F
 DIIS: error= 1.66D-03 at cycle   2 NSaved=   2.
 NSaved= 2 IEnMin= 2 EnMin= -874.579295408413     IErMin= 2 ErrMin= 1.66D-03
 ErrMax= 1.66D-03  0.00D+00 EMaxC= 1.00D-01 BMatC= 9.41D-04 BMatP= 1.15D-02
 IDIUse=3 WtCom= 9.83D-01 WtEn= 1.66D-02
 Coeff-Com:  0.496D-01 0.950D+00
 Coeff-En:   0.000D+00 0.100D+01
 Coeff:      0.488D-01 0.951D+00
 Gap=     0.225 Goal=   None    Shift=    0.000
 RMSDP=4.12D-04 MaxDP=1.58D-02 DE=-1.93D-02 OVMax= 2.53D-02

 Cycle   3  Pass 0  IDiag  1:
 RMSU=  4.11D-04    CP:  9.98D-01  1.02D+00
 E= -874.577869874908     Delta-E=        0.001425533505 Rises=F Damp=F
 DIIS: error= 3.01D-03 at cycle   3 NSaved=   3.
 NSaved= 3 IEnMin= 2 EnMin= -874.579295408413     IErMin= 2 ErrMin= 1.66D-03
 ErrMax= 3.01D-03  0.00D+00 EMaxC= 1.00D-01 BMatC= 3.02D-03 BMatP= 9.41D-04
 IDIUse=3 WtCom= 1.54D-01 WtEn= 8.46D-01
 Coeff-Com: -0.405D-01 0.672D+00 0.369D+00
 Coeff-En:   0.000D+00 0.704D+00 0.296D+00
 Coeff:     -0.625D-02 0.699D+00 0.307D+00
 Gap=     0.223 Goal=   None    Shift=    0.000
 RMSDP=2.24D-04 MaxDP=1.05D-02 DE= 1.43D-03 OVMax= 1.70D-02

 Cycle   4  Pass 0  IDiag  1:
 RMSU=  7.53D-05    CP:  9.98D-01  1.07D+00  5.02D-01
 E= -874.580131665142     Delta-E=       -0.002261790234 Rises=F Damp=F
 DIIS: error= 2.74D-04 at cycle   4 NSaved=   4.
 NSaved= 4 IEnMin= 4 EnMin= -874.580131665142     IErMin= 4 ErrMin= 2.74D-04
 ErrMax= 2.74D-04  0.00D+00 EMaxC= 1.00D-01 BMatC= 3.55D-05 BMatP= 9.41D-04
 IDIUse=3 WtCom= 9.97D-01 WtEn= 2.74D-03
 Coeff-Com: -0.223D-01 0.239D+00 0.728D-01 0.710D+00
 Coeff-En:   0.000D+00 0.000D+00 0.000D+00 0.100D+01
 Coeff:     -0.223D-01 0.238D+00 0.726D-01 0.711D+00
 Gap=     0.222 Goal=   None    Shift=    0.000
 RMSDP=3.99D-05 MaxDP=8.26D-04 DE=-2.26D-03 OVMax= 2.00D-03

 Cycle   5  Pass 0  IDiag  1:
 RMSU=  2.78D-05    CP:  9.98D-01  1.08D+00  4.47D-01  9.39D-01
 E= -874.580159685281     Delta-E=       -0.000028020139 Rises=F Damp=F
 DIIS: error= 7.90D-05 at cycle   5 NSaved=   5.
 NSaved= 5 IEnMin= 5 EnMin= -874.580159685281     IErMin= 5 ErrMin= 7.90D-05
 ErrMax= 7.90D-05  0.00D+00 EMaxC= 1.00D-01 BMatC= 3.92D-06 BMatP= 3.55D-05
 IDIUse=1 WtCom= 1.00D+00 WtEn= 0.00D+00
 Coeff-Com: -0.717D-02 0.546D-01 0.434D-02 0.354D+00 0.594D+00
 Coeff:     -0.717D-02 0.546D-01 0.434D-02 0.354D+00 0.594D+00
 Gap=     0.223 Goal=   None    Shift=    0.000
 RMSDP=1.19D-05 MaxDP=3.02D-04 DE=-2.80D-05 OVMax= 3.80D-04

 Cycle   6  Pass 0  IDiag  1:
 RMSU=  8.94D-06    CP:  9.98D-01  1.08D+00  4.54D-01  9.88D-01  7.81D-01
 E= -874.580162626624     Delta-E=       -0.000002941342 Rises=F Damp=F
 DIIS: error= 3.11D-05 at cycle   6 NSaved=   6.
 NSaved= 6 IEnMin= 6 EnMin= -874.580162626624     IErMin= 6 ErrMin= 3.11D-05
 ErrMax= 3.11D-05  0.00D+00 EMaxC= 1.00D-01 BMatC= 4.72D-07 BMatP= 3.92D-06
 IDIUse=1 WtCom= 1.00D+00 WtEn= 0.00D+00
 Coeff-Com: -0.104D-02 0.933D-03-0.505D-02 0.985D-01 0.303D+00 0.604D+00
 Coeff:     -0.104D-02 0.933D-03-0.505D-02 0.985D-01 0.303D+00 0.604D+00
 Gap=     0.223 Goal=   None    Shift=    0.000
 RMSDP=4.63D-06 MaxDP=1.18D-04 DE=-2.94D-06 OVMax= 1.53D-04

 Initial convergence to 1.0D-05 achieved.  Increase integral accuracy.
 Cycle   7  Pass 1  IDiag  1:
 E= -874.580148797147     Delta-E=        0.000013829476 Rises=F Damp=F
 DIIS: error= 2.07D-05 at cycle   1 NSaved=   1.
 NSaved= 1 IEnMin= 1 EnMin= -874.580148797147     IErMin= 1 ErrMin= 2.07D-05
 ErrMax= 2.07D-05  0.00D+00 EMaxC= 1.00D-01 BMatC= 1.22D-07 BMatP= 1.22D-07
 IDIUse=1 WtCom= 1.00D+00 WtEn= 0.00D+00
 Coeff-Com:  0.100D+01
 Coeff:      0.100D+01
 Gap=     0.223 Goal=   None    Shift=    0.000
 RMSDP=4.63D-06 MaxDP=1.18D-04 DE= 1.38D-05 OVMax= 2.44D-04

 Cycle   8  Pass 1  IDiag  1:
 RMSU=  7.69D-06    CP:  1.00D+00
 E= -874.580148609212     Delta-E=        0.000000187936 Rises=F Damp=F
 DIIS: error= 4.49D-05 at cycle   2 NSaved=   2.
 NSaved= 2 IEnMin= 1 EnMin= -874.580148797147     IErMin= 1 ErrMin= 2.07D-05
 ErrMax= 4.49D-05  0.00D+00 EMaxC= 1.00D-01 BMatC= 3.78D-07 BMatP= 1.22D-07
 IDIUse=1 WtCom= 1.00D+00 WtEn= 0.00D+00
 Coeff-Com:  0.649D+00 0.351D+00
 Coeff:      0.649D+00 0.351D+00
 Gap=     0.223 Goal=   None    Shift=    0.000
 RMSDP=3.41D-06 MaxDP=1.17D-04 DE= 1.88D-07 OVMax= 2.00D-04

 Cycle   9  Pass 1  IDiag  1:
 RMSU=  2.85D-06    CP:  1.00D+00  7.60D-01
 E= -874.580148895949     Delta-E=       -0.000000286737 Rises=F Damp=F
 DIIS: error= 6.16D-06 at cycle   3 NSaved=   3.
 NSaved= 3 IEnMin= 3 EnMin= -874.580148895949     IErMin= 3 ErrMin= 6.16D-06
 ErrMax= 6.16D-06  0.00D+00 EMaxC= 1.00D-01 BMatC= 9.61D-09 BMatP= 1.22D-07
 IDIUse=1 WtCom= 1.00D+00 WtEn= 0.00D+00
 Coeff-Com:  0.175D+00 0.165D+00 0.661D+00
 Coeff:      0.175D+00 0.165D+00 0.661D+00
 Gap=     0.223 Goal=   None    Shift=    0.000
 RMSDP=7.81D-07 MaxDP=2.10D-05 DE=-2.87D-07 OVMax= 4.45D-05

 Cycle  10  Pass 1  IDiag  1:
 RMSU=  6.03D-07    CP:  1.00D+00  7.92D-01  8.49D-01
 E= -874.580148901994     Delta-E=       -0.000000006045 Rises=F Damp=F
 DIIS: error= 1.91D-06 at cycle   4 NSaved=   4.
 NSaved= 4 IEnMin= 4 EnMin= -874.580148901994     IErMin= 4 ErrMin= 1.91D-06
 ErrMax= 1.91D-06  0.00D+00 EMaxC= 1.00D-01 BMatC= 2.04D-09 BMatP= 9.61D-09
 IDIUse=1 WtCom= 1.00D+00 WtEn= 0.00D+00
 Coeff-Com:  0.577D-02 0.431D-01 0.380D+00 0.571D+00
 Coeff:      0.577D-02 0.431D-01 0.380D+00 0.571D+00
 Gap=     0.223 Goal=   None    Shift=    0.000
 RMSDP=2.85D-07 MaxDP=6.08D-06 DE=-6.04D-09 OVMax= 1.30D-05

 Cycle  11  Pass 1  IDiag  1:
 RMSU=  1.20D-07    CP:  1.00D+00  7.94D-01  8.84D-01  6.04D-01
 E= -874.580148903725     Delta-E=       -0.000000001731 Rises=F Damp=F
 DIIS: error= 5.64D-07 at cycle   5 NSaved=   5.
 NSaved= 5 IEnMin= 5 EnMin= -874.580148903725     IErMin= 5 ErrMin= 5.64D-07
 ErrMax= 5.64D-07  0.00D+00 EMaxC= 1.00D-01 BMatC= 1.08D-10 BMatP= 2.04D-09
 IDIUse=1 WtCom= 1.00D+00 WtEn= 0.00D+00
 Coeff-Com: -0.273D-02 0.184D-01 0.190D+00 0.321D+00 0.473D+00
 Coeff:     -0.273D-02 0.184D-01 0.190D+00 0.321D+00 0.473D+00
 Gap=     0.223 Goal=   None    Shift=    0.000
 RMSDP=6.00D-08 MaxDP=1.62D-06 DE=-1.73D-09 OVMax= 3.13D-06

 Cycle  12  Pass 1  IDiag  1:
 RMSU=  3.76D-08    CP:  1.00D+00  7.95D-01  8.84D-01  6.13D-01  6.13D-01
 E= -874.580148903811     Delta-E=       -0.000000000086 Rises=F Damp=F
 DIIS: error= 1.23D-07 at cycle   6 NSaved=   6.
 NSaved= 6 IEnMin= 6 EnMin= -874.580148903811     IErMin= 6 ErrMin= 1.23D-07
 ErrMax= 1.23D-07  0.00D+00 EMaxC= 1.00D-01 BMatC= 6.46D-12 BMatP= 1.08D-10
 IDIUse=1 WtCom= 1.00D+00 WtEn= 0.00D+00
 Coeff-Com: -0.215D-02 0.568D-02 0.660D-01 0.117D+00 0.249D+00 0.564D+00
 Coeff:     -0.215D-02 0.568D-02 0.660D-01 0.117D+00 0.249D+00 0.564D+00
 Gap=     0.223 Goal=   None    Shift=    0.000
 RMSDP=1.58D-08 MaxDP=5.23D-07 DE=-8.64D-11 OVMax= 7.83D-07

 Cycle  13  Pass 1  IDiag  1:
 RMSU=  1.33D-08    CP:  1.00D+00  7.95D-01  8.84D-01  6.17D-01  6.52D-01
                    CP:  8.29D-01
 E= -874.580148903818     Delta-E=       -0.000000000007 Rises=F Damp=F
 DIIS: error= 7.09D-08 at cycle   7 NSaved=   7.
 NSaved= 7 IEnMin= 7 EnMin= -874.580148903818     IErMin= 7 ErrMin= 7.09D-08
 ErrMax= 7.09D-08  0.00D+00 EMaxC= 1.00D-01 BMatC= 1.21D-12 BMatP= 6.46D-12
 IDIUse=1 WtCom= 1.00D+00 WtEn= 0.00D+00
 Coeff-Com: -0.101D-02 0.150D-02 0.202D-01 0.368D-01 0.105D+00 0.342D+00
 Coeff-Com:  0.496D+00
 Coeff:     -0.101D-02 0.150D-02 0.202D-01 0.368D-01 0.105D+00 0.342D+00
 Coeff:      0.496D+00
 Gap=     0.223 Goal=   None    Shift=    0.000
 RMSDP=6.35D-09 MaxDP=2.92D-07 DE=-6.59D-12 OVMax= 4.35D-07

 SCF Done:  E(RB3LYP) =  -874.580148904     A.U. after   13 cycles
            NFock= 13  Conv=0.64D-08     -V/T= 2.0063
 KE= 8.691117252344D+02 PE=-3.282568570686D+03 EE= 9.275386681432D+02
 Leave Link  502 at Fri Mar 14 14:22:24 2025, MaxMem=  8589934592 cpu:              75.1 elap:              11.7
 (Enter /home/enzo/gaussian_versions/gdv.j21/gdv/l701.exe)
 ... and contract with generalized density number  0.
 Compute integral first derivatives.
 Leave Link  701 at Fri Mar 14 14:22:25 2025, MaxMem=  8589934592 cpu:               3.2 elap:               0.6
 (Enter /home/enzo/gaussian_versions/gdv.j21/gdv/l702.exe)
 L702 exits ... SP integral derivatives will be done elsewhere.
 Leave Link  702 at Fri Mar 14 14:22:25 2025, MaxMem=  8589934592 cpu:               0.2 elap:               0.3
 (Enter /home/enzo/gaussian_versions/gdv.j21/gdv/l703.exe)
 Integral derivatives from FoFJK, PRISM(SPDF).
 Compute integral first derivatives, UseDBF=F ICtDFT=           0.
 Calling FoFJK, ICntrl=      2127 FMM=F ISym2X=0 I1Cent= 0 IOpClX= 0 NMat=1 NMatS=1 NMatT=0.
 FoFJK:  IHMeth= 1 ICntrl=    2127 DoSepK=F KAlg= 0 I1Cent=           0 FoldK=F
 IRaf=         0 NMat=       1 IRICut=       1 DoRegI=T DoRafI=F ISym2E= 0 IDoP0=0 IntGTp=1.
 FoFCou: FMM=F IPFlag=           0 FMFlag=      100000 FMFlg1=         800
         NFxFlg=           0 DoJE=F BraDBF=F KetDBF=F FulRan=T
         wScrn=  0.000000 ICntrl=      2127 IOpCl=  0 I1Cent=           0 NGrid=           0
         NMat0=    1 NMatS0=      1 NMatT0=    0 NMatD0=    1 NMtDS0=    0 NMtDT0=    0
 Symmetry not used in FoFCou.
 Leave Link  703 at Fri Mar 14 14:22:27 2025, MaxMem=  8589934592 cpu:              14.6 elap:               1.7
 (Enter /home/enzo/gaussian_versions/gdv.j21/gdv/l716.exe)
 Dipole        =-1.17806361D+00 3.44753119D-01-6.76161006D-01
 ***** Axes restored to original set *****
 -------------------------------------------------------------------
 Center     Atomic                   Forces (Hartrees/Bohr)
 Number     Number              X              Y              Z
 -------------------------------------------------------------------
      1        6          -0.000697443   -0.001267282    0.001963431
      2        6          -0.001729905    0.003123986   -0.003395650
      3       16          -0.001126998    0.002202860    0.003709644
      4        6          -0.005039868    0.000429298    0.004043066
      5        8           0.001354727   -0.001940101   -0.005013572
      6        7           0.004333703   -0.004189364    0.000900552
      7        6          -0.000824000   -0.000498490   -0.004867691
      8        6          -0.000778894   -0.009370972   -0.004262757
      9        8           0.002653455    0.010950551    0.007114257
     10        8          -0.007662680   -0.012060959    0.005492170
     11        1          -0.000948600    0.000589130    0.000069397
     12        1           0.000977810    0.000595198    0.000106846
     13        1          -0.000123832   -0.000728802   -0.000907949
     14        1           0.000396138    0.000027981    0.000639733
     15        1           0.000909074   -0.002176809   -0.002903262
     16        1           0.000626598    0.004215946    0.001668785
     17        1          -0.000337217   -0.000170384    0.000428617
     18        1           0.000727032   -0.000892151   -0.000939648
     19        1           0.007290903    0.011160365   -0.003845968
 -------------------------------------------------------------------
 Cartesian Forces:  Max     0.012060959 RMS     0.004055636
 Leave Link  716 at Fri Mar 14 14:22:27 2025, MaxMem=  8589934592 cpu:               0.6 elap:               0.2
 (Enter /home/enzo/gaussian_versions/gdv.j21/gdv/l103.exe)

 GradGradGradGradGradGradGradGradGradGradGradGradGradGradGradGradGradGrad
 Berny optimization.
 Using GEDIIS/GDIIS optimizer.
 FormGI is forming the generalized inverse of G from B-inverse, IUseBI=4.
 Internal  Forces:  Max     0.012308735 RMS     0.002593343
 Search for a local minimum.
 Step number   3 out of a maximum of   93
 All quantities printed in internal units (Hartrees-Bohrs-Radians)
 RMS Force = .25933D-02 SwitMx=.10000D-02 MixMth= 1
 Mixed Optimization -- RFO/linear search
 Update second derivatives using D2CorX and points    2    3
 DE= -1.03D-02 DEPred=-8.73D-03 R= 1.18D+00
 TightC=F SS=  1.41D+00  RLast= 6.18D-01 DXNew= 8.4853D-01 1.8530D+00
 Trust test= 1.18D+00 RLast= 6.18D-01 DXMaxT set to 8.49D-01
 ITU=  1  1  0
 Use linear search instead of GDIIS.
     Eigenvalues ---    0.00233   0.00449   0.00652   0.00780   0.00868
     Eigenvalues ---    0.00920   0.01007   0.01082   0.01189   0.01310
     Eigenvalues ---    0.04963   0.05140   0.05283   0.05680   0.05711
     Eigenvalues ---    0.06625   0.07738   0.09997   0.13347   0.15806
     Eigenvalues ---    0.15973   0.16000   0.16000   0.16051   0.16113
     Eigenvalues ---    0.17606   0.20199   0.21903   0.22055   0.22273
     Eigenvalues ---    0.24674   0.24744   0.24994   0.25743   0.27314
     Eigenvalues ---    0.30096   0.31922   0.32566   0.32593   0.32604
     Eigenvalues ---    0.32616   0.32647   0.32982   0.33065   0.37296
     Eigenvalues ---    0.40653   0.42750   0.48147   0.51087   0.80150
     Eigenvalues ---    0.92284
 RFO step:  Lambda=-6.69155728D-03 EMin= 2.33122842D-03
 Quartic linear search produced a step of  0.53279.
 Iteration  1 RMS(Cart)=  0.06150818 RMS(Int)=  0.05273750
 Iteration  2 RMS(Cart)=  0.03680664 RMS(Int)=  0.02195896
 Iteration  3 RMS(Cart)=  0.02513451 RMS(Int)=  0.00185767
 Iteration  4 RMS(Cart)=  0.00171357 RMS(Int)=  0.00032003
 Iteration  5 RMS(Cart)=  0.00000426 RMS(Int)=  0.00032001
 Iteration  6 RMS(Cart)=  0.00000000 RMS(Int)=  0.00032001
 Variable       Old X    -DE/DX   Delta X   Delta X   Delta X     New X
                                 (Linear)    (Quad)   (Total)
    R1        2.90858  -0.00134   0.00204  -0.00351  -0.00147   2.90711
    R2        2.06298   0.00109  -0.00441   0.00225  -0.00216   2.06082
    R3        2.07058   0.00113  -0.00457   0.00310  -0.00148   2.06910
    R4        2.06396   0.00113  -0.00427   0.00238  -0.00190   2.06206
    R5        3.48418   0.00028   0.00597   0.00419   0.01016   3.49434
    R6        2.89029   0.00301   0.01192   0.01346   0.02538   2.91567
    R7        2.06817   0.00065  -0.00541   0.00121  -0.00420   2.06397
    R8        2.53775   0.00362  -0.01699   0.01451  -0.00248   2.53527
    R9        2.30847   0.00490  -0.01121   0.00392  -0.00729   2.30118
   R10        2.57049   0.00582  -0.01821   0.01028  -0.00793   2.56256
   R11        2.72102   0.00152  -0.00114   0.00210   0.00096   2.72198
   R12        1.89990   0.00413  -0.00941   0.00841  -0.00100   1.89890
   R13        2.86473   0.00132   0.00841   0.00680   0.01521   2.87994
   R14        2.07729   0.00034  -0.00267   0.00006  -0.00261   2.07468
   R15        2.06482   0.00114  -0.00479   0.00267  -0.00211   2.06271
   R16        2.26867   0.01231  -0.01978   0.01427  -0.00552   2.26315
   R17        2.57034  -0.00038  -0.00201  -0.00545  -0.00745   2.56289
   R18        1.82316   0.00851  -0.01128   0.01825   0.00697   1.83013
    A1        1.92636   0.00027   0.00274   0.00201   0.00475   1.93112
    A2        1.92768  -0.00018  -0.00371   0.00071  -0.00302   1.92466
    A3        1.92505  -0.00043  -0.00214  -0.00362  -0.00578   1.91927
    A4        1.89735   0.00005   0.00373   0.00032   0.00406   1.90140
    A5        1.89848   0.00006   0.00106  -0.00043   0.00064   1.89911
    A6        1.88809   0.00025  -0.00159   0.00104  -0.00060   1.88749
    A7        1.96999  -0.00023   0.00630   0.00217   0.00849   1.97848
    A8        1.90749   0.00081  -0.00262   0.00512   0.00247   1.90996
    A9        1.91211   0.00007   0.00965   0.00024   0.00988   1.92200
   A10        1.92443  -0.00037  -0.00527   0.00012  -0.00518   1.91925
   A11        1.81653  -0.00013  -0.01276  -0.00645  -0.01926   1.79727
   A12        1.93201  -0.00021   0.00484  -0.00181   0.00287   1.93488
   A13        1.65759  -0.00081   0.00825  -0.00585   0.00239   1.65998
   A14        2.13084  -0.00030  -0.00098   0.00210  -0.00005   2.13079
   A15        1.99572   0.00303  -0.02206   0.01116  -0.01208   1.98364
   A16        2.15633  -0.00276   0.02340  -0.01552   0.00670   2.16303
   A17        2.12987   0.00036   0.00871   0.00022   0.00839   2.13825
   A18        2.09656  -0.00019   0.00178  -0.00019   0.00102   2.09758
   A19        2.05441  -0.00022  -0.01158  -0.00166  -0.01375   2.04067
   A20        1.95164  -0.00138   0.00068  -0.00670  -0.00602   1.94563
   A21        1.96389   0.00010   0.01223  -0.00219   0.01001   1.97390
   A22        1.87595   0.00100   0.00139   0.00611   0.00747   1.88342
   A23        1.87238   0.00036  -0.01028  -0.00125  -0.01152   1.86086
   A24        1.93771   0.00023   0.00358   0.00451   0.00809   1.94580
   A25        1.86092  -0.00025  -0.00771  -0.00009  -0.00785   1.85307
   A26        2.17679   0.00190   0.01375   0.01417   0.02699   2.20377
   A27        1.93133   0.00071  -0.03392  -0.00070  -0.03556   1.89578
   A28        2.17440  -0.00258   0.01994  -0.01009   0.00892   2.18332
   A29        1.90183  -0.00198  -0.04053  -0.02178  -0.06231   1.83952
    D1        1.01160  -0.00022  -0.00528  -0.01068  -0.01595   0.99564
    D2       -3.12336  -0.00027  -0.00960  -0.00529  -0.01490  -3.13826
    D3       -1.00373   0.00003   0.00068  -0.00414  -0.00346  -1.00720
    D4        3.11022  -0.00010  -0.00124  -0.00853  -0.00976   3.10045
    D5       -1.02474  -0.00015  -0.00555  -0.00313  -0.00871  -1.03345
    D6        1.09489   0.00015   0.00473  -0.00198   0.00273   1.09762
    D7       -1.08673  -0.00018  -0.00700  -0.00910  -0.01606  -1.10279
    D8        1.06150  -0.00024  -0.01131  -0.00370  -0.01501   1.04649
    D9       -3.10206   0.00006  -0.00103  -0.00255  -0.00357  -3.10563
   D10        1.22464   0.00099   0.04197   0.01937   0.06139   1.28604
   D11       -0.91414   0.00039   0.04476   0.01113   0.05601  -0.85813
   D12       -2.98670   0.00088   0.04904   0.01679   0.06565  -2.92105
   D13       -1.28708   0.00123   0.01479   0.07957   0.09434  -1.19274
   D14        1.82929   0.00023   0.02652  -0.01760   0.00897   1.83827
   D15        0.88800   0.00124   0.01735   0.08593   0.10325   0.99125
   D16       -2.27881   0.00025   0.02907  -0.01125   0.01788  -2.26094
   D17        2.88857   0.00075   0.00152   0.07710   0.07856   2.96713
   D18       -0.27824  -0.00024   0.01325  -0.02007  -0.00681  -0.28506
   D19       -3.05513   0.00067   0.02102   0.03757   0.05879  -2.99634
   D20        0.01121  -0.00004  -0.00486   0.01120   0.00613   0.01734
   D21        0.06082  -0.00031   0.03221  -0.06092  -0.02851   0.03231
   D22        3.12716  -0.00101   0.00633  -0.08730  -0.08117   3.04599
   D23        2.27940   0.00024   0.00415   0.00876   0.01308   2.29248
   D24       -1.89500  -0.00023   0.00004   0.00073   0.00090  -1.89410
   D25        0.14852   0.00014  -0.00164   0.00322   0.00176   0.15028
   D26       -0.78868   0.00093   0.02924   0.03446   0.06356  -0.72512
   D27        1.32011   0.00046   0.02513   0.02644   0.05138   1.37148
   D28       -2.91956   0.00083   0.02345   0.02892   0.05224  -2.86733
   D29        0.14863  -0.00036   0.02513  -0.02953  -0.00451   0.14412
   D30       -3.03067   0.00043  -0.00687   0.06609   0.05935  -2.97132
   D31       -2.01253   0.00016   0.01641  -0.02161  -0.00533  -2.01786
   D32        1.09135   0.00095  -0.01559   0.07400   0.05853   1.14988
   D33        2.24370   0.00013   0.02978  -0.02320   0.00646   2.25016
   D34       -0.93560   0.00093  -0.00222   0.07242   0.07032  -0.86528
   D35       -2.53766  -0.00985  -0.19166  -0.37380  -0.56506  -3.10272
   D36        0.56628  -0.00894  -0.22352  -0.27772  -0.50164   0.06464
         Item               Value     Threshold  Converged?
 Maximum Force            0.012309     0.000450     NO 
 RMS     Force            0.002593     0.000300     NO 
 Maximum Displacement     0.645807     0.001800     NO 
 RMS     Displacement     0.111411     0.001200     NO 
 Predicted change in Energy=-8.519753D-03
 Lowest energy point so far.  Saving SCF results.
 GradGradGradGradGradGradGradGradGradGradGradGradGradGradGradGradGradGrad

 Leave Link  103 at Fri Mar 14 14:22:28 2025, MaxMem=  8589934592 cpu:               1.0 elap:               0.3
 (Enter /home/enzo/gaussian_versions/gdv.j21/gdv/l202.exe)
                          Input orientation:                          
 ---------------------------------------------------------------------
 Center     Atomic      Atomic             Coordinates (Angstroms)
 Number     Number       Type             X           Y           Z
 ---------------------------------------------------------------------
      1          6           0       -1.919094    1.710043   -0.851356
      2          6           0       -1.795430    0.623502    0.230651
      3         16           0       -3.362191   -0.319456    0.505175
      4          6           0       -0.655498   -0.346481   -0.143845
      5          8           0       -0.734711   -1.100581   -1.096696
      6          7           0        0.468360   -0.176680    0.595735
      7          6           0        1.703090   -0.854589    0.294627
      8          6           0        2.881297    0.111958    0.280848
      9          8           0        2.859790    1.260058    0.620952
     10          8           0        3.965572   -0.534062   -0.215484
     11          1           0       -2.718362    2.409587   -0.604203
     12          1           0       -0.978519    2.263002   -0.943032
     13          1           0       -2.139054    1.251259   -1.816677
     14          1           0       -1.611470    1.082316    1.204590
     15          1           0       -3.279110   -1.023429   -0.633873
     16          1           0        0.496674    0.520360    1.318969
     17          1           0        1.950538   -1.640996    1.019649
     18          1           0        1.585176   -1.354972   -0.668268
     19          1           0        4.690023    0.107041   -0.169928
 ---------------------------------------------------------------------
                    Distance matrix (angstroms):
                    1          2          3          4          5
     1  C    0.000000
     2  C    1.538377   0.000000
     3  S    2.835766   1.849127   0.000000
     4  C    2.515261   1.542906   2.783549   0.000000
     5  O    3.059830   2.420628   3.174870   1.217731   0.000000
     6  N    3.369530   2.428647   3.834280   1.356048   2.272729
     7  C    4.583757   3.798485   5.097819   2.452216   2.817652
     8  C    5.184546   4.704889   6.262394   3.591580   4.055045
     9  O    5.020749   4.714723   6.420383   3.939940   4.630698
    10  O    6.330058   5.893059   7.366241   4.625431   4.815614
    11  H    1.090539   2.176898   3.015445   3.473218   4.061859
    12  H    1.094920   2.175509   3.801090   2.748171   3.375906
    13  H    1.091197   2.168804   3.058464   2.748104   2.832261
    14  H    2.171540   1.092204   2.349291   2.184862   3.290846
    15  H    3.060851   2.379304   1.341607   2.753494   2.587301
    16  H    3.458553   2.539452   4.032169   2.053956   3.158986
    17  H    5.450154   4.447780   5.498749   3.133833   3.461435
    18  H    4.659157   4.018820   5.188998   2.512507   2.372791
    19  H    6.834793   6.518305   8.091712   5.364789   5.634269
                    6          7          8          9         10
     6  N    0.000000
     7  C    1.440410   0.000000
     8  C    2.450455   1.524000   0.000000
     9  O    2.789944   2.432318   1.197609   0.000000
    10  O    3.607810   2.341320   1.356222   2.267431   0.000000
    11  H    4.275959   5.568839   6.117075   5.825651   7.313764
    12  H    3.226967   4.294438   4.585091   4.264336   5.726861
    13  H    3.828492   4.863565   5.558916   5.561525   6.558784
    14  H    2.506286   3.945369   4.688268   4.512693   5.977683
    15  H    4.033913   5.070792   6.330596   6.668958   7.273236
    16  H    1.004855   2.096472   2.632663   2.572683   3.936954
    17  H    2.126212   1.097873   2.117779   3.066237   2.609832
    18  H    2.057512   1.091538   2.175463   3.181998   2.558358
    19  H    4.299904   3.172115   1.864058   2.303192   0.968461
                   11         12         13         14         15
    11  H    0.000000
    12  H    1.778580   0.000000
    13  H    1.774095   1.770232   0.000000
    14  H    2.501718   2.531192   3.071635   0.000000
    15  H    3.478637   4.023547   2.805879   3.255016   0.000000
    16  H    4.195739   3.213977   4.160955   2.184754   4.522546
    17  H    6.390833   5.260485   5.756270   4.487598   5.519488
    18  H    5.718081   4.442721   4.688408   4.434695   4.875693
    19  H    7.770102   6.113774   7.117395   6.522981   8.062276
                   16         17         18         19
    16  H    0.000000
    17  H    2.621979   0.000000
    18  H    2.941227   1.750533   0.000000
    19  H    4.468984   3.460564   3.467839   0.000000
 Stoichiometry    C5H9NO3S
 Framework group  C1[X(C5H9NO3S)]
 Deg. of freedom    51
 Full point group                 C1      NOp   1
 RotChk:  IX=0 Diff= 3.90D-02
 Largest Abelian subgroup         C1      NOp   1
 Largest concise Abelian subgroup C1      NOp   1
                         Standard orientation:                         
 ---------------------------------------------------------------------
 Center     Atomic      Atomic             Coordinates (Angstroms)
 Number     Number       Type             X           Y           Z
 ---------------------------------------------------------------------
      1          6           0        1.949877    1.625072    0.892679
      2          6           0        1.775399    0.566038   -0.209413
      3         16           0        3.312557   -0.406682   -0.541422
      4          6           0        0.621775   -0.385323    0.170883
      5          8           0        0.705168   -1.162073    1.105000
      6          7           0       -0.514599   -0.173076   -0.537970
      7          6           0       -1.757741   -0.828681   -0.222438
      8          6           0       -2.912053    0.164400   -0.159743
      9          8           0       -2.871216    1.318975   -0.475269
     10          8           0       -3.999537   -0.467168    0.348035
     11          1           0        2.759564    2.311207    0.641874
     12          1           0        1.025065    2.197532    1.018619
     13          1           0        2.181234    1.139943    1.842328
     14          1           0        1.579822    1.050554   -1.168528
     15          1           0        3.239257   -1.133707    0.583731
     16          1           0       -0.543146    0.540353   -1.245033
     17          1           0       -2.040533   -1.592808   -0.958280
     18          1           0       -1.629417   -1.352967    0.726305
     19          1           0       -4.709438    0.191428    0.333599
 ---------------------------------------------------------------------
 Rotational constants (GHZ):           2.7698093           0.4624797           0.4369198
 Leave Link  202 at Fri Mar 14 14:22:28 2025, MaxMem=  8589934592 cpu:               1.1 elap:               0.4
 (Enter /home/enzo/gaussian_versions/gdv.j21/gdv/l301.exe)
 Standard basis: 6-31G(d) (6D, 7F)
 Ernie: Thresh=  0.10000D-02 Tol=  0.10000D-05 Strict=F.
 There are   172 symmetry adapted cartesian basis functions of A   symmetry.
 There are   172 symmetry adapted basis functions of A   symmetry.
   172 basis functions,   340 primitive gaussians,   172 cartesian basis functions
    43 alpha electrons       43 beta electrons
       nuclear repulsion energy       611.1727203340 Hartrees.
 IExCor=      4002 DFT=T Ex+Corr=B3LYP ScaHFX=  0.200000
 ScaDFX=  0.800000  0.720000  1.000000  0.810000  1.000000  0.000000
 ScaDFX=  0.000000  0.000000  0.000000  0.000000  0.000000  0.000000
 IRadAn=      5 IRanWt=     -1 IRanGd=            0 ICorTp=0 IEmpDi=  4
 NAtoms=   19 NActive=   19 NUniq=   19 SFac= 1.00D+00 NAtFMM=   60 NAOKFM=F Big=F
 Integral buffers will be    131072 words long.
 Raffenetti 2 integral format.
 Two-electron integral symmetry is turned on.
 Leave Link  301 at Fri Mar 14 14:22:28 2025, MaxMem=  8589934592 cpu:               0.5 elap:               0.3
 (Enter /home/enzo/gaussian_versions/gdv.j21/gdv/l302.exe)
 NPDir=0 NMtPBC=     1 NCelOv=     1 NCel=       1 NClECP=     1 NCelD=      1
         NCelK=      1 NCelE2=     1 NClLst=     1 CellRange=     0.0.
 One-electron integrals computed using PRISM.
 One-electron integral symmetry used in STVInt
 NBasis=   172 RedAO= T EigKep=  2.77D-03  NBF=   172
 NBsUse=   172 1.00D-06 EigRej= -1.00D+00 NBFU=   172
 Precomputing XC quadrature grid using
 IXCGrd= 4 IRadAn=           5 IRanWt=          -1 IRanGd=           0 AccXCQ= 0.00D+00.
 Generated NRdTot=       0 NPtTot=      408271 NUsed=           0 NTot=          64
 NSgBfM=   171   171   171   171   171 MxSgAt=    19 MxSgA2=    19 SizInc=   0.000
 NMBTot=     3496 MaxBatPerAtom=       85 MaxMicBPerAtom=      206 NBfPt=            50833612.
 Leave Link  302 at Fri Mar 14 14:22:29 2025, MaxMem=  8589934592 cpu:               1.7 elap:               0.3
 (Enter /home/enzo/gaussian_versions/gdv.j21/gdv/l303.exe)
 DipDrv:  MaxL=1.
 Leave Link  303 at Fri Mar 14 14:22:29 2025, MaxMem=  8589934592 cpu:               0.2 elap:               0.2
 (Enter /home/enzo/gaussian_versions/gdv.j21/gdv/l401.exe)
 Initial guess from the checkpoint file:  "/local/home/enzo/scratch/Gau-2270961.chk"
 B after Tr=    -0.000000    0.000000    0.000000
         Rot=    0.999982   -0.005915    0.000736   -0.001196 Ang=  -0.70 deg.
 AO Guess basis will be translated and rotated to current coordinates.
 JPrj=2 DoOrth=T DoCkMO=T.
 Generating alternative initial guess.
 ExpMin= 1.17D-01 ExpMax= 2.19D+04 ExpMxC= 3.30D+03 IAcc=3 IRadAn=         5 AccDes= 0.00D+00
 Harris functional with IExCor= 4002 and IRadAn=       5 diagonalized for initial guess.
 HarFok:  IExCor=    4002 AccDes= 0.00D+00 IRadAn=         5 IDoV= 1 UseB2=F ITyADJ=14 ICtDFT=  3500011
 FoFCou: FMM=F IPFlag=           0 FMFlag=      100000 FMFlg1=           0
         NFxFlg=           0 DoJE=T BraDBF=F KetDBF=T FulRan=T
         wScrn=  0.000000 ICntrl=       500 IOpCl=  0 I1Cent=   200000004 NGrid=           0
         NMat0=    1 NMatS0=      1 NMatT0=    0 NMatD0=    1 NMtDS0=    0 NMtDT0=    0
 Petite list used in FoFCou.
 Harris En= -874.547044091027    
 Leave Link  401 at Fri Mar 14 14:22:30 2025, MaxMem=  8589934592 cpu:               6.0 elap:               0.8
 (Enter /home/enzo/gaussian_versions/gdv.j21/gdv/l502.exe)
 Integral symmetry usage will be decided dynamically.
 Closed shell SCF:
 Using DIIS extrapolation, IDIIS=  1040.
 NGot=  8589934592 LenX=  8589843591 LenY=  8589813566
 Requested convergence on RMS density matrix=1.00D-08 within 128 cycles.
 Requested convergence on MAX density matrix=1.00D-06.
 Requested convergence on             energy=1.00D-06.
 No special actions if energy rises.
 Fock matrices will be formed incrementally for  20 cycles.
 Integral accuracy reduced to 1.0D-05 until final iterations.

 Cycle   1  Pass 0  IDiag  1:
 FoFJK:  IHMeth= 1 ICntrl=       0 DoSepK=F KAlg= 0 I1Cent=           0 FoldK=F
 IRaf= 900000000 NMat=       1 IRICut=       1 DoRegI=T DoRafI=F ISym2E= 0 IDoP0=0 IntGTp=1.
 FoFCou: FMM=F IPFlag=           0 FMFlag=      100000 FMFlg1=           0
         NFxFlg=           0 DoJE=F BraDBF=F KetDBF=F FulRan=T
         wScrn=  0.000000 ICntrl=         0 IOpCl=  0 I1Cent=           0 NGrid=           0
         NMat0=    1 NMatS0=      1 NMatT0=    0 NMatD0=    1 NMtDS0=    0 NMtDT0=    0
 Symmetry not used in FoFCou.
 E= -874.549738810727    
 DIIS: error= 1.48D-02 at cycle   1 NSaved=   1.
 NSaved= 1 IEnMin= 1 EnMin= -874.549738810727     IErMin= 1 ErrMin= 1.48D-02
 ErrMax= 1.48D-02  0.00D+00 EMaxC= 1.00D-01 BMatC= 2.06D-02 BMatP= 2.06D-02
 IDIUse=3 WtCom= 8.52D-01 WtEn= 1.48D-01
 Coeff-Com:  0.100D+01
 Coeff-En:   0.100D+01
 Coeff:      0.100D+01
 Recover alternate guess density for next cycle.
 RMSDP=3.37D-03 MaxDP=8.05D-02              OVMax= 0.00D+00

 Cycle   2  Pass 0  IDiag  1:
 RMSU=  3.37D-03    CP:  9.97D-01
 E= -874.308570345729     Delta-E=        0.241168464999 Rises=F Damp=F
 Switch densities from cycles 1 and 2 for lowest energy.
 DIIS: error= 3.39D-02 at cycle   2 NSaved=   2.
 NSaved= 2 IEnMin= 1 EnMin= -874.549738810727     IErMin= 1 ErrMin= 1.48D-02
 ErrMax= 3.39D-02  0.00D+00 EMaxC= 1.00D+00 BMatC= 3.37D-01 BMatP= 2.06D-02
 IDIUse=1 WtCom= 1.00D+00 WtEn= 0.00D+00
 Coeff-Com:  0.948D+00 0.519D-01
 Coeff:      0.948D+00 0.519D-01
 Gap=     0.247 Goal=   None    Shift=    0.000
 RMSDP=1.46D-03 MaxDP=7.36D-02 DE= 2.41D-01 OVMax= 1.01D-01

 Cycle   3  Pass 0  IDiag  1:
 RMSU=  1.38D-03    CP:  9.98D-01  1.33D-01
 E= -874.582625195534     Delta-E=       -0.274054849805 Rises=F Damp=F
 DIIS: error= 3.09D-03 at cycle   3 NSaved=   3.
 NSaved= 3 IEnMin= 3 EnMin= -874.582625195534     IErMin= 3 ErrMin= 3.09D-03
 ErrMax= 3.09D-03  0.00D+00 EMaxC= 1.00D+00 BMatC= 3.48D-03 BMatP= 2.06D-02
 IDIUse=1 WtCom= 1.00D+00 WtEn= 0.00D+00
 Coeff-Com:  0.600D-01 0.678D-01 0.872D+00
 Coeff:      0.600D-01 0.678D-01 0.872D+00
 Gap=     0.229 Goal=   None    Shift=    0.000
 RMSDP=4.77D-04 MaxDP=1.86D-02 DE=-2.74D-01 OVMax= 2.57D-02

 Cycle   4  Pass 0  IDiag  1:
 RMSU=  4.33D-04    CP:  9.98D-01  1.90D-01  9.62D-01
 E= -874.583029023060     Delta-E=       -0.000403827526 Rises=F Damp=F
 DIIS: error= 3.81D-03 at cycle   4 NSaved=   4.
 NSaved= 4 IEnMin= 4 EnMin= -874.583029023060     IErMin= 3 ErrMin= 3.09D-03
 ErrMax= 3.81D-03  0.00D+00 EMaxC= 1.00D+00 BMatC= 3.29D-03 BMatP= 3.48D-03
 IDIUse=1 WtCom= 1.00D+00 WtEn= 0.00D+00
 Coeff-Com: -0.245D-01 0.437D-01 0.579D+00 0.402D+00
 Coeff:     -0.245D-01 0.437D-01 0.579D+00 0.402D+00
 Gap=     0.228 Goal=   None    Shift=    0.000
 RMSDP=2.81D-04 MaxDP=1.08D-02 DE=-4.04D-04 OVMax= 2.22D-02

 Cycle   5  Pass 0  IDiag  1:
 RMSU=  1.37D-04    CP:  9.98D-01  2.02D-01  9.92D-01  4.49D-01
 E= -874.585392676888     Delta-E=       -0.002363653828 Rises=F Damp=F
 DIIS: error= 7.70D-04 at cycle   5 NSaved=   5.
 NSaved= 5 IEnMin= 5 EnMin= -874.585392676888     IErMin= 5 ErrMin= 7.70D-04
 ErrMax= 7.70D-04  0.00D+00 EMaxC= 1.00D+00 BMatC= 1.34D-04 BMatP= 3.29D-03
 IDIUse=1 WtCom= 1.00D+00 WtEn= 0.00D+00
 Coeff-Com: -0.182D-01 0.121D-01 0.198D+00 0.211D+00 0.598D+00
 Coeff:     -0.182D-01 0.121D-01 0.198D+00 0.211D+00 0.598D+00
 Gap=     0.229 Goal=   None    Shift=    0.000
 RMSDP=7.04D-05 MaxDP=2.85D-03 DE=-2.36D-03 OVMax= 3.84D-03

 Cycle   6  Pass 0  IDiag  1:
 RMSU=  4.57D-05    CP:  9.98D-01  2.04D-01  9.95D-01  5.12D-01  6.66D-01
 E= -874.585479101757     Delta-E=       -0.000086424869 Rises=F Damp=F
 DIIS: error= 2.37D-04 at cycle   6 NSaved=   6.
 NSaved= 6 IEnMin= 6 EnMin= -874.585479101757     IErMin= 6 ErrMin= 2.37D-04
 ErrMax= 2.37D-04  0.00D+00 EMaxC= 1.00D+00 BMatC= 2.22D-05 BMatP= 1.34D-04
 IDIUse=1 WtCom= 1.00D+00 WtEn= 0.00D+00
 Coeff-Com: -0.807D-02 0.268D-02 0.624D-01 0.881D-01 0.360D+00 0.494D+00
 Coeff:     -0.807D-02 0.268D-02 0.624D-01 0.881D-01 0.360D+00 0.494D+00
 Gap=     0.229 Goal=   None    Shift=    0.000
 RMSDP=2.59D-05 MaxDP=7.73D-04 DE=-8.64D-05 OVMax= 1.15D-03

 Cycle   7  Pass 0  IDiag  1:
 RMSU=  1.43D-05    CP:  9.98D-01  2.02D-01  9.99D-01  5.09D-01  7.27D-01
                    CP:  6.13D-01
 E= -874.585495124848     Delta-E=       -0.000016023091 Rises=F Damp=F
 DIIS: error= 6.82D-05 at cycle   7 NSaved=   7.
 NSaved= 7 IEnMin= 7 EnMin= -874.585495124848     IErMin= 7 ErrMin= 6.82D-05
 ErrMax= 6.82D-05  0.00D+00 EMaxC= 1.00D+00 BMatC= 1.34D-06 BMatP= 2.22D-05
 IDIUse=1 WtCom= 1.00D+00 WtEn= 0.00D+00
 Coeff-Com: -0.228D-02 0.358D-03 0.132D-01 0.247D-01 0.124D+00 0.254D+00
 Coeff-Com:  0.586D+00
 Coeff:     -0.228D-02 0.358D-03 0.132D-01 0.247D-01 0.124D+00 0.254D+00
 Coeff:      0.586D+00
 Gap=     0.229 Goal=   None    Shift=    0.000
 RMSDP=7.99D-06 MaxDP=2.22D-04 DE=-1.60D-05 OVMax= 3.83D-04

 Initial convergence to 1.0D-05 achieved.  Increase integral accuracy.
 Cycle   8  Pass 1  IDiag  1:
 E= -874.585485893770     Delta-E=        0.000009231078 Rises=F Damp=F
 DIIS: error= 3.22D-05 at cycle   1 NSaved=   1.
 NSaved= 1 IEnMin= 1 EnMin= -874.585485893770     IErMin= 1 ErrMin= 3.22D-05
 ErrMax= 3.22D-05  0.00D+00 EMaxC= 1.00D+00 BMatC= 3.12D-07 BMatP= 3.12D-07
 IDIUse=1 WtCom= 1.00D+00 WtEn= 0.00D+00
 Coeff-Com:  0.100D+01
 Coeff:      0.100D+01
 Gap=     0.229 Goal=   None    Shift=    0.000
 RMSDP=7.99D-06 MaxDP=2.22D-04 DE= 9.23D-06 OVMax= 4.61D-04

 Cycle   9  Pass 1  IDiag  1:
 RMSU=  9.90D-06    CP:  1.00D+00
 E= -874.585485200451     Delta-E=        0.000000693319 Rises=F Damp=F
 DIIS: error= 6.76D-05 at cycle   2 NSaved=   2.
 NSaved= 2 IEnMin= 1 EnMin= -874.585485893770     IErMin= 1 ErrMin= 3.22D-05
 ErrMax= 6.76D-05  0.00D+00 EMaxC= 1.00D+00 BMatC= 1.20D-06 BMatP= 3.12D-07
 IDIUse=1 WtCom= 1.00D+00 WtEn= 0.00D+00
 Coeff-Com:  0.668D+00 0.332D+00
 Coeff:      0.668D+00 0.332D+00
 Gap=     0.229 Goal=   None    Shift=    0.000
 RMSDP=5.82D-06 MaxDP=1.76D-04 DE= 6.93D-07 OVMax= 3.47D-04

 Cycle  10  Pass 1  IDiag  1:
 RMSU=  3.58D-06    CP:  1.00D+00  5.39D-01
 E= -874.585486153109     Delta-E=       -0.000000952658 Rises=F Damp=F
 DIIS: error= 8.52D-06 at cycle   3 NSaved=   3.
 NSaved= 3 IEnMin= 3 EnMin= -874.585486153109     IErMin= 3 ErrMin= 8.52D-06
 ErrMax= 8.52D-06  0.00D+00 EMaxC= 1.00D+00 BMatC= 1.54D-08 BMatP= 3.12D-07
 IDIUse=1 WtCom= 1.00D+00 WtEn= 0.00D+00
 Coeff-Com:  0.271D+00 0.161D+00 0.568D+00
 Coeff:      0.271D+00 0.161D+00 0.568D+00
 Gap=     0.229 Goal=   None    Shift=    0.000
 RMSDP=9.19D-07 MaxDP=2.48D-05 DE=-9.53D-07 OVMax= 4.07D-05

 Cycle  11  Pass 1  IDiag  1:
 RMSU=  8.18D-07    CP:  1.00D+00  5.59D-01  8.96D-01
 E= -874.585486164919     Delta-E=       -0.000000011809 Rises=F Damp=F
 DIIS: error= 3.54D-06 at cycle   4 NSaved=   4.
 NSaved= 4 IEnMin= 4 EnMin= -874.585486164919     IErMin= 4 ErrMin= 3.54D-06
 ErrMax= 3.54D-06  0.00D+00 EMaxC= 1.00D+00 BMatC= 1.47D-09 BMatP= 1.54D-08
 IDIUse=1 WtCom= 1.00D+00 WtEn= 0.00D+00
 Coeff-Com:  0.135D-01 0.186D-01 0.256D+00 0.711D+00
 Coeff:      0.135D-01 0.186D-01 0.256D+00 0.711D+00
 Gap=     0.229 Goal=   None    Shift=    0.000
 RMSDP=2.78D-07 MaxDP=6.41D-06 DE=-1.18D-08 OVMax= 7.64D-06

 Cycle  12  Pass 1  IDiag  1:
 RMSU=  1.46D-07    CP:  1.00D+00  5.62D-01  9.22D-01  7.35D-01
 E= -874.585486166137     Delta-E=       -0.000000001218 Rises=F Damp=F
 DIIS: error= 8.15D-07 at cycle   5 NSaved=   5.
 NSaved= 5 IEnMin= 5 EnMin= -874.585486166137     IErMin= 5 ErrMin= 8.15D-07
 ErrMax= 8.15D-07  0.00D+00 EMaxC= 1.00D+00 BMatC= 1.96D-10 BMatP= 1.47D-09
 IDIUse=1 WtCom= 1.00D+00 WtEn= 0.00D+00
 Coeff-Com: -0.183D-02 0.495D-02 0.131D+00 0.421D+00 0.445D+00
 Coeff:     -0.183D-02 0.495D-02 0.131D+00 0.421D+00 0.445D+00
 Gap=     0.229 Goal=   None    Shift=    0.000
 RMSDP=8.07D-08 MaxDP=3.33D-06 DE=-1.22D-09 OVMax= 4.51D-06

 Cycle  13  Pass 1  IDiag  1:
 RMSU=  4.82D-08    CP:  1.00D+00  5.63D-01  9.22D-01  7.54D-01  5.70D-01
 E= -874.585486166280     Delta-E=       -0.000000000143 Rises=F Damp=F
 DIIS: error= 2.59D-07 at cycle   6 NSaved=   6.
 NSaved= 6 IEnMin= 6 EnMin= -874.585486166280     IErMin= 6 ErrMin= 2.59D-07
 ErrMax= 2.59D-07  0.00D+00 EMaxC= 1.00D+00 BMatC= 1.86D-11 BMatP= 1.96D-10
 IDIUse=1 WtCom= 1.00D+00 WtEn= 0.00D+00
 Coeff-Com: -0.255D-02 0.896D-03 0.511D-01 0.177D+00 0.272D+00 0.502D+00
 Coeff:     -0.255D-02 0.896D-03 0.511D-01 0.177D+00 0.272D+00 0.502D+00
 Gap=     0.229 Goal=   None    Shift=    0.000
 RMSDP=2.65D-08 MaxDP=8.23D-07 DE=-1.43D-10 OVMax= 1.57D-06

 Cycle  14  Pass 1  IDiag  1:
 RMSU=  2.17D-08    CP:  1.00D+00  5.62D-01  9.23D-01  7.55D-01  5.79D-01
                    CP:  7.03D-01
 E= -874.585486166286     Delta-E=       -0.000000000007 Rises=F Damp=F
 DIIS: error= 7.12D-08 at cycle   7 NSaved=   7.
 NSaved= 7 IEnMin= 7 EnMin= -874.585486166286     IErMin= 7 ErrMin= 7.12D-08
 ErrMax= 7.12D-08  0.00D+00 EMaxC= 1.00D+00 BMatC= 1.73D-12 BMatP= 1.86D-11
 IDIUse=1 WtCom= 1.00D+00 WtEn= 0.00D+00
 Coeff-Com: -0.112D-02-0.193D-03 0.108D-01 0.413D-01 0.913D-01 0.279D+00
 Coeff-Com:  0.579D+00
 Coeff:     -0.112D-02-0.193D-03 0.108D-01 0.413D-01 0.913D-01 0.279D+00
 Coeff:      0.579D+00
 Gap=     0.229 Goal=   None    Shift=    0.000
 RMSDP=8.63D-09 MaxDP=2.60D-07 DE=-6.59D-12 OVMax= 4.40D-07

 SCF Done:  E(RB3LYP) =  -874.585486166     A.U. after   14 cycles
            NFock= 14  Conv=0.86D-08     -V/T= 2.0063
 KE= 8.691234809517D+02 PE=-3.282149959655D+03 EE= 9.272682722026D+02
 Leave Link  502 at Fri Mar 14 14:22:41 2025, MaxMem=  8589934592 cpu:              81.8 elap:              11.6
 (Enter /home/enzo/gaussian_versions/gdv.j21/gdv/l701.exe)
 ... and contract with generalized density number  0.
 Compute integral first derivatives.
 Leave Link  701 at Fri Mar 14 14:22:42 2025, MaxMem=  8589934592 cpu:               2.5 elap:               0.5
 (Enter /home/enzo/gaussian_versions/gdv.j21/gdv/l702.exe)
 L702 exits ... SP integral derivatives will be done elsewhere.
 Leave Link  702 at Fri Mar 14 14:22:42 2025, MaxMem=  8589934592 cpu:               0.1 elap:               0.2
 (Enter /home/enzo/gaussian_versions/gdv.j21/gdv/l703.exe)
 Integral derivatives from FoFJK, PRISM(SPDF).
 Compute integral first derivatives, UseDBF=F ICtDFT=           0.
 Calling FoFJK, ICntrl=      2127 FMM=F ISym2X=0 I1Cent= 0 IOpClX= 0 NMat=1 NMatS=1 NMatT=0.
 FoFJK:  IHMeth= 1 ICntrl=    2127 DoSepK=F KAlg= 0 I1Cent=           0 FoldK=F
 IRaf=         0 NMat=       1 IRICut=       1 DoRegI=T DoRafI=F ISym2E= 0 IDoP0=0 IntGTp=1.
 FoFCou: FMM=F IPFlag=           0 FMFlag=      100000 FMFlg1=         800
         NFxFlg=           0 DoJE=F BraDBF=F KetDBF=F FulRan=T
         wScrn=  0.000000 ICntrl=      2127 IOpCl=  0 I1Cent=           0 NGrid=           0
         NMat0=    1 NMatS0=      1 NMatT0=    0 NMatD0=    1 NMtDS0=    0 NMtDT0=    0
 Symmetry not used in FoFCou.
 Leave Link  703 at Fri Mar 14 14:22:45 2025, MaxMem=  8589934592 cpu:              17.1 elap:               2.6
 (Enter /home/enzo/gaussian_versions/gdv.j21/gdv/l716.exe)
 Dipole        =-1.19748032D+00 4.47022301D-01-3.77897846D-01
 ***** Axes restored to original set *****
 -------------------------------------------------------------------
 Center     Atomic                   Forces (Hartrees/Bohr)
 Number     Number              X              Y              Z
 -------------------------------------------------------------------
      1        6          -0.000132489   -0.003648120    0.002042586
      2        6          -0.001652225   -0.003733849   -0.002400454
      3       16          -0.000227280    0.002809279    0.002871201
      4        6          -0.006890052    0.016853027    0.001197829
      5        8          -0.001076549   -0.009130227   -0.005798675
      6        7           0.007833699   -0.005925767    0.005308071
      7        6           0.001236492    0.001102301    0.002137820
      8        6          -0.007269595   -0.025240629   -0.017013869
      9        8           0.002169249    0.016071033    0.007991793
     10        8          -0.002970410    0.003230099    0.005585909
     11        1          -0.001293943    0.001036719    0.000634950
     12        1           0.001246562    0.001103958    0.000162577
     13        1          -0.000365213   -0.000722818   -0.001571534
     14        1           0.001960710    0.001233759    0.001275373
     15        1           0.000738319   -0.002469859   -0.003877613
     16        1          -0.000552761    0.004105998    0.002917434
     17        1          -0.002151326   -0.001394806    0.002044593
     18        1           0.001456373    0.001317205   -0.002008168
     19        1           0.007940439    0.003402697   -0.001499823
 -------------------------------------------------------------------
 Cartesian Forces:  Max     0.025240629 RMS     0.006148508
 Leave Link  716 at Fri Mar 14 14:22:45 2025, MaxMem=  8589934592 cpu:               0.3 elap:               0.3
 (Enter /home/enzo/gaussian_versions/gdv.j21/gdv/l103.exe)

 GradGradGradGradGradGradGradGradGradGradGradGradGradGradGradGradGradGrad
 Berny optimization.
 Using GEDIIS/GDIIS optimizer.
 FormGI is forming the generalized inverse of G from B-inverse, IUseBI=4.
 Internal  Forces:  Max     0.017637198 RMS     0.003406073
 Search for a local minimum.
 Step number   4 out of a maximum of   93
 All quantities printed in internal units (Hartrees-Bohrs-Radians)
 RMS Force = .34061D-02 SwitMx=.10000D-02 MixMth= 1
 Mixed Optimization -- RFO/linear search
 Update second derivatives using D2CorX and points    3    4
 DE= -5.34D-03 DEPred=-8.52D-03 R= 6.26D-01
 TightC=F SS=  1.41D+00  RLast= 8.07D-01 DXNew= 1.4270D+00 2.4201D+00
 Trust test= 6.26D-01 RLast= 8.07D-01 DXMaxT set to 1.43D+00
 ITU=  1  1  1  0
 Use linear search instead of GDIIS.
     Eigenvalues ---    0.00234   0.00449   0.00730   0.00856   0.00881
     Eigenvalues ---    0.00974   0.01059   0.01100   0.01292   0.02326
     Eigenvalues ---    0.04904   0.05175   0.05223   0.05659   0.05760
     Eigenvalues ---    0.06620   0.07849   0.09971   0.13387   0.15920
     Eigenvalues ---    0.15959   0.16000   0.16002   0.16045   0.16253
     Eigenvalues ---    0.17672   0.20206   0.21869   0.22096   0.22212
     Eigenvalues ---    0.24687   0.24819   0.25054   0.25880   0.27439
     Eigenvalues ---    0.30101   0.32025   0.32576   0.32595   0.32611
     Eigenvalues ---    0.32620   0.32645   0.32940   0.33106   0.37295
     Eigenvalues ---    0.40651   0.42747   0.47447   0.50070   0.80203
     Eigenvalues ---    0.87705
 RFO step:  Lambda=-4.04833983D-03 EMin= 2.34108828D-03
 Quartic linear search produced a step of -0.10335.
 Iteration  1 RMS(Cart)=  0.10065383 RMS(Int)=  0.00345549
 Iteration  2 RMS(Cart)=  0.00560379 RMS(Int)=  0.00111163
 Iteration  3 RMS(Cart)=  0.00001553 RMS(Int)=  0.00111155
 Iteration  4 RMS(Cart)=  0.00000001 RMS(Int)=  0.00111155
 Variable       Old X    -DE/DX   Delta X   Delta X   Delta X     New X
                                 (Linear)    (Quad)   (Total)
    R1        2.90711  -0.00242   0.00015  -0.00553  -0.00537   2.90174
    R2        2.06082   0.00176   0.00022   0.00281   0.00303   2.06385
    R3        2.06910   0.00161   0.00015   0.00323   0.00338   2.07248
    R4        2.06206   0.00177   0.00020   0.00285   0.00305   2.06511
    R5        3.49434  -0.00076  -0.00105   0.00212   0.00107   3.49541
    R6        2.91567  -0.00317  -0.00262  -0.00150  -0.00412   2.91155
    R7        2.06397   0.00199   0.00043   0.00354   0.00397   2.06794
    R8        2.53527   0.00463   0.00026   0.01242   0.01268   2.54795
    R9        2.30118   0.01026   0.00075   0.00791   0.00866   2.30984
   R10        2.56256   0.00894   0.00082   0.01248   0.01330   2.57586
   R11        2.72198   0.00164  -0.00010   0.00157   0.00148   2.72346
   R12        1.89890   0.00493   0.00010   0.00759   0.00769   1.90659
   R13        2.87994  -0.00167  -0.00157   0.00031  -0.00126   2.87868
   R14        2.07468   0.00186   0.00027   0.00337   0.00364   2.07832
   R15        2.06271   0.00101   0.00022   0.00112   0.00134   2.06404
   R16        2.26315   0.01764   0.00057   0.01647   0.01704   2.28019
   R17        2.56289  -0.00068   0.00077  -0.00636  -0.00559   2.55729
   R18        1.83013   0.00812  -0.00072   0.01415   0.01343   1.84356
    A1        1.93112  -0.00044  -0.00049  -0.00179  -0.00228   1.92884
    A2        1.92466   0.00006   0.00031   0.00174   0.00206   1.92672
    A3        1.91927   0.00017   0.00060  -0.00009   0.00050   1.91977
    A4        1.90140  -0.00001  -0.00042  -0.00067  -0.00109   1.90031
    A5        1.89911   0.00013  -0.00007   0.00027   0.00020   1.89931
    A6        1.88749   0.00010   0.00006   0.00057   0.00063   1.88812
    A7        1.97848  -0.00127  -0.00088  -0.00158  -0.00246   1.97602
    A8        1.90996   0.00095  -0.00026   0.00129   0.00103   1.91099
    A9        1.92200  -0.00006  -0.00102   0.00169   0.00067   1.92266
   A10        1.91925  -0.00033   0.00054  -0.00201  -0.00147   1.91778
   A11        1.79727   0.00123   0.00199   0.00362   0.00561   1.80288
   A12        1.93488  -0.00056  -0.00030  -0.00306  -0.00335   1.93153
   A13        1.65998  -0.00090  -0.00025  -0.00386  -0.00411   1.65587
   A14        2.13079  -0.00165   0.00001   0.00336   0.00001   2.13080
   A15        1.98364   0.00561   0.00125   0.01956   0.01747   2.00111
   A16        2.16303  -0.00363  -0.00069  -0.00840  -0.01241   2.15062
   A17        2.13825  -0.00148  -0.00087  -0.00612  -0.00706   2.13119
   A18        2.09758  -0.00010  -0.00011  -0.00065  -0.00082   2.09675
   A19        2.04067   0.00155   0.00142   0.00318   0.00452   2.04518
   A20        1.94563  -0.00155   0.00062  -0.00744  -0.00684   1.93878
   A21        1.97390  -0.00200  -0.00103  -0.00918  -0.01018   1.96371
   A22        1.88342   0.00192  -0.00077   0.00521   0.00439   1.88781
   A23        1.86086   0.00278   0.00119   0.01488   0.01607   1.87693
   A24        1.94580  -0.00174  -0.00084  -0.00939  -0.01024   1.93556
   A25        1.85307   0.00058   0.00081   0.00609   0.00693   1.86000
   A26        2.20377  -0.00291  -0.00279   0.00062  -0.00694   2.19684
   A27        1.89578   0.00965   0.00367   0.02247   0.02146   1.91723
   A28        2.18332  -0.00666  -0.00092  -0.01895  -0.02451   2.15881
   A29        1.83952   0.00592   0.00644   0.00861   0.01505   1.85457
    D1        0.99564   0.00045   0.00165  -0.00958  -0.00793   0.98771
    D2       -3.13826  -0.00016   0.00154  -0.01233  -0.01079   3.13413
    D3       -1.00720  -0.00028   0.00036  -0.01422  -0.01386  -1.02106
    D4        3.10045   0.00019   0.00101  -0.01044  -0.00943   3.09102
    D5       -1.03345  -0.00042   0.00090  -0.01320  -0.01230  -1.04574
    D6        1.09762  -0.00054  -0.00028  -0.01508  -0.01536   1.08225
    D7       -1.10279   0.00046   0.00166  -0.00871  -0.00705  -1.10984
    D8        1.04649  -0.00015   0.00155  -0.01146  -0.00991   1.03658
    D9       -3.10563  -0.00027   0.00037  -0.01335  -0.01298  -3.11861
   D10        1.28604   0.00025  -0.00635   0.08535   0.07901   1.36504
   D11       -0.85813   0.00017  -0.00579   0.08630   0.08051  -0.77762
   D12       -2.92105   0.00030  -0.00679   0.08883   0.08205  -2.83900
   D13       -1.19274  -0.00075  -0.00975  -0.02485  -0.03483  -1.22756
   D14        1.83827   0.00216  -0.00093   0.11435   0.11364   1.95191
   D15        0.99125  -0.00192  -0.01067  -0.02734  -0.03824   0.95301
   D16       -2.26094   0.00099  -0.00185   0.11186   0.11024  -2.15070
   D17        2.96713  -0.00093  -0.00812  -0.02583  -0.03417   2.93296
   D18       -0.28506   0.00198   0.00070   0.11337   0.11430  -0.17076
   D19       -2.99634  -0.00136  -0.00608  -0.04887  -0.05460  -3.05094
   D20        0.01734  -0.00150  -0.00063  -0.08274  -0.08295  -0.06561
   D21        0.03231   0.00177   0.00295   0.09419   0.09671   0.12902
   D22        3.04599   0.00163   0.00839   0.06032   0.06836   3.11435
   D23        2.29248  -0.00074  -0.00135   0.01136   0.00996   2.30245
   D24       -1.89410   0.00033  -0.00009   0.01879   0.01869  -1.87541
   D25        0.15028   0.00111  -0.00018   0.02432   0.02411   0.17439
   D26       -0.72512  -0.00051  -0.00657   0.04442   0.03786  -0.68726
   D27        1.37148   0.00057  -0.00531   0.05186   0.04659   1.41807
   D28       -2.86733   0.00135  -0.00540   0.05738   0.05201  -2.81532
   D29        0.14412   0.00092   0.00047   0.08842   0.08894   0.23306
   D30       -2.97132  -0.00236  -0.00613  -0.08081  -0.08709  -3.05841
   D31       -2.01786   0.00250   0.00055   0.09444   0.09510  -1.92276
   D32        1.14988  -0.00078  -0.00605  -0.07479  -0.08093   1.06895
   D33        2.25016   0.00111  -0.00067   0.08344   0.08291   2.33307
   D34       -0.86528  -0.00217  -0.00727  -0.08579  -0.09312  -0.95840
   D35       -3.10272   0.00106   0.05840  -0.06874  -0.01132  -3.11404
   D36        0.06464  -0.00223   0.05184  -0.23585  -0.18303  -0.11839
         Item               Value     Threshold  Converged?
 Maximum Force            0.017637     0.000450     NO 
 RMS     Force            0.003406     0.000300     NO 
 Maximum Displacement     0.242020     0.001800     NO 
 RMS     Displacement     0.099452     0.001200     NO 
 Predicted change in Energy=-2.457194D-03
 Lowest energy point so far.  Saving SCF results.
 GradGradGradGradGradGradGradGradGradGradGradGradGradGradGradGradGradGrad

 Leave Link  103 at Fri Mar 14 14:22:45 2025, MaxMem=  8589934592 cpu:               1.0 elap:               0.3
 (Enter /home/enzo/gaussian_versions/gdv.j21/gdv/l202.exe)
                          Input orientation:                          
 ---------------------------------------------------------------------
 Center     Atomic      Atomic             Coordinates (Angstroms)
 Number     Number       Type             X           Y           Z
 ---------------------------------------------------------------------
      1          6           0       -2.014095    1.727068   -0.878396
      2          6           0       -1.790183    0.668423    0.211098
      3         16           0       -3.301924   -0.332745    0.576692
      4          6           0       -0.634157   -0.261167   -0.205192
      5          8           0       -0.743902   -1.063934   -1.120384
      6          7           0        0.490819   -0.145363    0.555747
      7          6           0        1.704338   -0.856732    0.242126
      8          6           0        2.910223    0.073275    0.280435
      9          8           0        2.930866    1.185303    0.748314
     10          8           0        4.017886   -0.593876   -0.118702
     11          1           0       -2.836203    2.391357   -0.603381
     12          1           0       -1.106590    2.325991   -1.021552
     13          1           0       -2.255419    1.241547   -1.827219
     14          1           0       -1.571302    1.152329    1.167877
     15          1           0       -3.180779   -1.123635   -0.508560
     16          1           0        0.539627    0.550043    1.285103
     17          1           0        1.900669   -1.683001    0.940908
     18          1           0        1.589864   -1.305774   -0.746942
     19          1           0        4.757342    0.038768   -0.050138
 ---------------------------------------------------------------------
                    Distance matrix (angstroms):
                    1          2          3          4          5
     1  C    0.000000
     2  C    1.535533   0.000000
     3  S    2.831716   1.849692   0.000000
     4  C    2.512073   1.540724   2.780908   0.000000
     5  O    3.075978   2.422521   3.155659   1.222316   0.000000
     6  N    3.440547   2.446222   3.797427   1.363088   2.275461
     7  C    4.664584   3.812969   5.044716   2.454251   2.809492
     8  C    5.322296   4.738441   6.232447   3.593093   4.075313
     9  O    5.233769   4.779547   6.417289   3.963690   4.696277
    10  O    6.507589   5.952800   7.357403   4.664727   4.888655
    11  H    1.092142   2.173945   3.005029   3.470367   4.072352
    12  H    1.096708   2.175834   3.800362   2.753729   3.410704
    13  H    1.092809   2.167868   3.058163   2.741826   2.845970
    14  H    2.171088   1.094304   2.355844   2.182093   3.291284
    15  H    3.102327   2.379734   1.348316   2.705765   2.513217
    16  H    3.547903   2.568174   4.004832   2.063204   3.168397
    17  H    5.501256   4.436688   5.387283   3.124180   3.409681
    18  H    4.712105   4.029890   5.160270   2.516141   2.375797
    19  H    7.027711   6.582916   8.092138   5.402061   5.711835
                    6          7          8          9         10
     6  N    0.000000
     7  C    1.441191   0.000000
     8  C    2.444814   1.523332   0.000000
     9  O    2.785962   2.435262   1.206624   0.000000
    10  O    3.618874   2.356225   1.353262   2.258054   0.000000
    11  H    4.341383   5.646369   6.259077   6.044893   7.491667
    12  H    3.338740   4.430342   4.785885   4.553532   5.966659
    13  H    3.891513   4.936055   5.700081   5.790862   6.755898
    14  H    2.512181   3.952614   4.694249   4.521796   5.995293
    15  H    3.945935   4.949660   6.257429   6.653054   7.228652
    16  H    1.008926   2.103181   2.618471   2.531743   3.921416
    17  H    2.121404   1.099801   2.130711   3.053779   2.606065
    18  H    2.061905   1.092245   2.168094   3.199929   2.607063
    19  H    4.313260   3.195022   1.876783   2.299583   0.975568
                   11         12         13         14         15
    11  H    0.000000
    12  H    1.780646   0.000000
    13  H    1.776838   1.773393   0.000000
    14  H    2.504500   2.527260   3.073528   0.000000
    15  H    3.533113   4.057750   2.861685   3.252825   0.000000
    16  H    4.284045   3.344351   4.239930   2.198297   4.456439
    17  H    6.436084   5.382088   5.786931   4.488339   5.313658
    18  H    5.768835   4.531666   4.737303   4.438668   4.780066
    19  H    7.968856   6.368731   7.333723   6.540283   8.035862
                   16         17         18         19
    16  H    0.000000
    17  H    2.637687   0.000000
    18  H    2.945550   1.757196   0.000000
    19  H    4.453469   3.479546   3.510875   0.000000
 Stoichiometry    C5H9NO3S
 Framework group  C1[X(C5H9NO3S)]
 Deg. of freedom    51
 Full point group                 C1      NOp   1
 RotChk:  IX=0 Diff= 2.29D-02
 Largest Abelian subgroup         C1      NOp   1
 Largest concise Abelian subgroup C1      NOp   1
                         Standard orientation:                         
 ---------------------------------------------------------------------
 Center     Atomic      Atomic             Coordinates (Angstroms)
 Number     Number       Type             X           Y           Z
 ---------------------------------------------------------------------
      1          6           0        2.094155    1.609201    0.924276
      2          6           0        1.797343    0.589791   -0.185034
      3         16           0        3.259094   -0.454327   -0.626008
      4          6           0        0.621732   -0.309002    0.243848
      5          8           0        0.730796   -1.140193    1.133389
      6          7           0       -0.521685   -0.132015   -0.476764
      7          6           0       -1.749963   -0.807913   -0.142805
      8          6           0       -2.921563    0.165348   -0.117213
      9          8           0       -2.916186    1.289920   -0.554536
     10          8           0       -4.039791   -0.472531    0.299915
     11          1           0        2.930971    2.251004    0.640372
     12          1           0        1.214176    2.236020    1.112695
     13          1           0        2.347330    1.089294    1.851547
     14          1           0        1.566274    1.107503   -1.121027
     15          1           0        3.143337   -1.270096    0.441267
     16          1           0       -0.567956    0.584604   -1.185459
     17          1           0       -1.998385   -1.606980   -0.856487
     18          1           0       -1.620882   -1.287954    0.829768
     19          1           0       -4.757359    0.187819    0.272228
 ---------------------------------------------------------------------
 Rotational constants (GHZ):           2.7346643           0.4569721           0.4343232
 Leave Link  202 at Fri Mar 14 14:22:46 2025, MaxMem=  8589934592 cpu:               0.8 elap:               0.3
 (Enter /home/enzo/gaussian_versions/gdv.j21/gdv/l301.exe)
 Standard basis: 6-31G(d) (6D, 7F)
 Ernie: Thresh=  0.10000D-02 Tol=  0.10000D-05 Strict=F.
 There are   172 symmetry adapted cartesian basis functions of A   symmetry.
 There are   172 symmetry adapted basis functions of A   symmetry.
   172 basis functions,   340 primitive gaussians,   172 cartesian basis functions
    43 alpha electrons       43 beta electrons
       nuclear repulsion energy       609.7362328429 Hartrees.
 IExCor=      4002 DFT=T Ex+Corr=B3LYP ScaHFX=  0.200000
 ScaDFX=  0.800000  0.720000  1.000000  0.810000  1.000000  0.000000
 ScaDFX=  0.000000  0.000000  0.000000  0.000000  0.000000  0.000000
 IRadAn=      5 IRanWt=     -1 IRanGd=            0 ICorTp=0 IEmpDi=  4
 NAtoms=   19 NActive=   19 NUniq=   19 SFac= 1.00D+00 NAtFMM=   60 NAOKFM=F Big=F
 Integral buffers will be    131072 words long.
 Raffenetti 2 integral format.
 Two-electron integral symmetry is turned on.
 Leave Link  301 at Fri Mar 14 14:22:46 2025, MaxMem=  8589934592 cpu:               0.7 elap:               0.3
 (Enter /home/enzo/gaussian_versions/gdv.j21/gdv/l302.exe)
 NPDir=0 NMtPBC=     1 NCelOv=     1 NCel=       1 NClECP=     1 NCelD=      1
         NCelK=      1 NCelE2=     1 NClLst=     1 CellRange=     0.0.
 One-electron integrals computed using PRISM.
 One-electron integral symmetry used in STVInt
 NBasis=   172 RedAO= T EigKep=  2.78D-03  NBF=   172
 NBsUse=   172 1.00D-06 EigRej= -1.00D+00 NBFU=   172
 Precomputing XC quadrature grid using
 IXCGrd= 4 IRadAn=           5 IRanWt=          -1 IRanGd=           0 AccXCQ= 0.00D+00.
 Generated NRdTot=       0 NPtTot=      408492 NUsed=           0 NTot=          64
 NSgBfM=   171   171   171   171   171 MxSgAt=    19 MxSgA2=    19 SizInc=   0.000
 NMBTot=     3495 MaxBatPerAtom=       85 MaxMicBPerAtom=      201 NBfPt=            50630932.
 Leave Link  302 at Fri Mar 14 14:22:47 2025, MaxMem=  8589934592 cpu:               6.6 elap:               1.0
 (Enter /home/enzo/gaussian_versions/gdv.j21/gdv/l303.exe)
 DipDrv:  MaxL=1.
 Leave Link  303 at Fri Mar 14 14:22:47 2025, MaxMem=  8589934592 cpu:               0.8 elap:               0.3
 (Enter /home/enzo/gaussian_versions/gdv.j21/gdv/l401.exe)
 Initial guess from the checkpoint file:  "/local/home/enzo/scratch/Gau-2270961.chk"
 B after Tr=    -0.000000   -0.000000   -0.000000
         Rot=    0.999981    0.003213   -0.003715    0.003636 Ang=   0.70 deg.
 AO Guess basis will be translated and rotated to current coordinates.
 JPrj=2 DoOrth=T DoCkMO=T.
 Generating alternative initial guess.
 ExpMin= 1.17D-01 ExpMax= 2.19D+04 ExpMxC= 3.30D+03 IAcc=3 IRadAn=         5 AccDes= 0.00D+00
 Harris functional with IExCor= 4002 and IRadAn=       5 diagonalized for initial guess.
 HarFok:  IExCor=    4002 AccDes= 0.00D+00 IRadAn=         5 IDoV= 1 UseB2=F ITyADJ=14 ICtDFT=  3500011
 FoFCou: FMM=F IPFlag=           0 FMFlag=      100000 FMFlg1=           0
         NFxFlg=           0 DoJE=T BraDBF=F KetDBF=T FulRan=T
         wScrn=  0.000000 ICntrl=       500 IOpCl=  0 I1Cent=   200000004 NGrid=           0
         NMat0=    1 NMatS0=      1 NMatT0=    0 NMatD0=    1 NMtDS0=    0 NMtDT0=    0
 Petite list used in FoFCou.
 Harris En= -874.547174200641    
 Leave Link  401 at Fri Mar 14 14:22:49 2025, MaxMem=  8589934592 cpu:               8.4 elap:               1.4
 (Enter /home/enzo/gaussian_versions/gdv.j21/gdv/l502.exe)
 Integral symmetry usage will be decided dynamically.
 Closed shell SCF:
 Using DIIS extrapolation, IDIIS=  1040.
 NGot=  8589934592 LenX=  8589843591 LenY=  8589813566
 Requested convergence on RMS density matrix=1.00D-08 within 128 cycles.
 Requested convergence on MAX density matrix=1.00D-06.
 Requested convergence on             energy=1.00D-06.
 No special actions if energy rises.
 Fock matrices will be formed incrementally for  20 cycles.
 Integral accuracy reduced to 1.0D-05 until final iterations.

 Cycle   1  Pass 0  IDiag  1:
 FoFJK:  IHMeth= 1 ICntrl=       0 DoSepK=F KAlg= 0 I1Cent=           0 FoldK=F
 IRaf= 890000000 NMat=       1 IRICut=       1 DoRegI=T DoRafI=F ISym2E= 0 IDoP0=0 IntGTp=1.
 FoFCou: FMM=F IPFlag=           0 FMFlag=      100000 FMFlg1=           0
         NFxFlg=           0 DoJE=F BraDBF=F KetDBF=F FulRan=T
         wScrn=  0.000000 ICntrl=         0 IOpCl=  0 I1Cent=           0 NGrid=           0
         NMat0=    1 NMatS0=      1 NMatT0=    0 NMatD0=    1 NMtDS0=    0 NMtDT0=    0
 Symmetry not used in FoFCou.
 E= -874.566310742412    
 DIIS: error= 4.01D-03 at cycle   1 NSaved=   1.
 NSaved= 1 IEnMin= 1 EnMin= -874.566310742412     IErMin= 1 ErrMin= 4.01D-03
 ErrMax= 4.01D-03  0.00D+00 EMaxC= 1.00D-01 BMatC= 9.99D-03 BMatP= 9.99D-03
 IDIUse=3 WtCom= 9.60D-01 WtEn= 4.01D-02
 Coeff-Com:  0.100D+01
 Coeff-En:   0.100D+01
 Coeff:      0.100D+01
 Gap=     1.595 Goal=   None    Shift=    0.000
 GapD=    1.595 DampG=2.000 DampE=1.000 DampFc=2.0000 IDamp=-1.
 RMSDP=1.22D-03 MaxDP=2.82D-02              OVMax= 3.81D-02

 Cycle   2  Pass 0  IDiag  1:
 RMSU=  1.22D-03    CP:  9.98D-01
 E= -874.585820717023     Delta-E=       -0.019509974611 Rises=F Damp=F
 DIIS: error= 6.54D-04 at cycle   2 NSaved=   2.
 NSaved= 2 IEnMin= 2 EnMin= -874.585820717023     IErMin= 2 ErrMin= 6.54D-04
 ErrMax= 6.54D-04  0.00D+00 EMaxC= 1.00D-01 BMatC= 2.62D-04 BMatP= 9.99D-03
 IDIUse=3 WtCom= 9.93D-01 WtEn= 6.54D-03
 Coeff-Com: -0.489D-01 0.105D+01
 Coeff-En:   0.000D+00 0.100D+01
 Coeff:     -0.486D-01 0.105D+01
 Gap=     0.226 Goal=   None    Shift=    0.000
 RMSDP=2.08D-04 MaxDP=6.00D-03 DE=-1.95D-02 OVMax= 7.62D-03

 Cycle   3  Pass 0  IDiag  1:
 RMSU=  1.91D-04    CP:  9.98D-01  1.07D+00
 E= -874.585827528602     Delta-E=       -0.000006811578 Rises=F Damp=F
 DIIS: error= 1.17D-03 at cycle   3 NSaved=   3.
 NSaved= 3 IEnMin= 3 EnMin= -874.585827528602     IErMin= 2 ErrMin= 6.54D-04
 ErrMax= 1.17D-03  0.00D+00 EMaxC= 1.00D-01 BMatC= 4.72D-04 BMatP= 2.62D-04
 IDIUse=3 WtCom= 2.27D-01 WtEn= 7.73D-01
 Coeff-Com: -0.489D-01 0.635D+00 0.414D+00
 Coeff-En:   0.000D+00 0.493D+00 0.507D+00
 Coeff:     -0.111D-01 0.525D+00 0.486D+00
 Gap=     0.226 Goal=   None    Shift=    0.000
 RMSDP=1.39D-04 MaxDP=6.59D-03 DE=-6.81D-06 OVMax= 8.96D-03

 Cycle   4  Pass 0  IDiag  1:
 RMSU=  8.72D-05    CP:  9.98D-01  1.08D+00  4.38D-01
 E= -874.586093978444     Delta-E=       -0.000266449842 Rises=F Damp=F
 DIIS: error= 5.53D-04 at cycle   4 NSaved=   4.
 NSaved= 4 IEnMin= 4 EnMin= -874.586093978444     IErMin= 4 ErrMin= 5.53D-04
 ErrMax= 5.53D-04  0.00D+00 EMaxC= 1.00D-01 BMatC= 1.20D-04 BMatP= 2.62D-04
 IDIUse=3 WtCom= 9.94D-01 WtEn= 5.53D-03
 Coeff-Com: -0.171D-01 0.177D+00 0.340D+00 0.500D+00
 Coeff-En:   0.000D+00 0.000D+00 0.244D+00 0.756D+00
 Coeff:     -0.171D-01 0.176D+00 0.340D+00 0.501D+00
 Gap=     0.225 Goal=   None    Shift=    0.000
 RMSDP=5.32D-05 MaxDP=2.45D-03 DE=-2.66D-04 OVMax= 3.94D-03

 Cycle   5  Pass 0  IDiag  1:
 RMSU=  2.68D-05    CP:  9.98D-01  1.09D+00  6.02D-01  6.21D-01
 E= -874.586182105773     Delta-E=       -0.000088127329 Rises=F Damp=F
 DIIS: error= 1.27D-04 at cycle   5 NSaved=   5.
 NSaved= 5 IEnMin= 5 EnMin= -874.586182105773     IErMin= 5 ErrMin= 1.27D-04
 ErrMax= 1.27D-04  0.00D+00 EMaxC= 1.00D-01 BMatC= 5.30D-06 BMatP= 1.20D-04
 IDIUse=3 WtCom= 9.99D-01 WtEn= 1.27D-03
 Coeff-Com: -0.548D-02 0.432D-01 0.169D+00 0.312D+00 0.482D+00
 Coeff-En:   0.000D+00 0.000D+00 0.000D+00 0.000D+00 0.100D+01
 Coeff:     -0.547D-02 0.431D-01 0.168D+00 0.311D+00 0.482D+00
 Gap=     0.226 Goal=   None    Shift=    0.000
 RMSDP=1.19D-05 MaxDP=4.76D-04 DE=-8.81D-05 OVMax= 6.68D-04

 Cycle   6  Pass 0  IDiag  1:
 RMSU=  7.68D-06    CP:  9.98D-01  1.09D+00  6.15D-01  6.75D-01  7.29D-01
 E= -874.586186272987     Delta-E=       -0.000004167215 Rises=F Damp=F
 DIIS: error= 1.85D-05 at cycle   6 NSaved=   6.
 NSaved= 6 IEnMin= 6 EnMin= -874.586186272987     IErMin= 6 ErrMin= 1.85D-05
 ErrMax= 1.85D-05  0.00D+00 EMaxC= 1.00D-01 BMatC= 1.64D-07 BMatP= 5.30D-06
 IDIUse=1 WtCom= 1.00D+00 WtEn= 0.00D+00
 Coeff-Com:  0.412D-03-0.116D-01 0.162D-01 0.518D-01 0.179D+00 0.764D+00
 Coeff:      0.412D-03-0.116D-01 0.162D-01 0.518D-01 0.179D+00 0.764D+00
 Gap=     0.226 Goal=   None    Shift=    0.000
 RMSDP=3.69D-06 MaxDP=8.61D-05 DE=-4.17D-06 OVMax= 1.53D-04

 Initial convergence to 1.0D-05 achieved.  Increase integral accuracy.
 Cycle   7  Pass 1  IDiag  1:
 E= -874.586187416650     Delta-E=       -0.000001143663 Rises=F Damp=F
 DIIS: error= 1.72D-05 at cycle   1 NSaved=   1.
 NSaved= 1 IEnMin= 1 EnMin= -874.586187416650     IErMin= 1 ErrMin= 1.72D-05
 ErrMax= 1.72D-05  0.00D+00 EMaxC= 1.00D-01 BMatC= 4.91D-08 BMatP= 4.91D-08
 IDIUse=1 WtCom= 1.00D+00 WtEn= 0.00D+00
 Coeff-Com:  0.100D+01
 Coeff:      0.100D+01
 Gap=     0.226 Goal=   None    Shift=    0.000
 RMSDP=3.69D-06 MaxDP=8.61D-05 DE=-1.14D-06 OVMax= 9.36D-05

 Cycle   8  Pass 1  IDiag  1:
 RMSU=  6.15D-06    CP:  1.00D+00
 E= -874.586187417752     Delta-E=       -0.000000001102 Rises=F Damp=F
 DIIS: error= 1.33D-05 at cycle   2 NSaved=   2.
 NSaved= 2 IEnMin= 2 EnMin= -874.586187417752     IErMin= 2 ErrMin= 1.33D-05
 ErrMax= 1.33D-05  0.00D+00 EMaxC= 1.00D-01 BMatC= 5.66D-08 BMatP= 4.91D-08
 IDIUse=1 WtCom= 1.00D+00 WtEn= 0.00D+00
 Coeff-Com:  0.522D+00 0.478D+00
 Coeff:      0.522D+00 0.478D+00
 Gap=     0.226 Goal=   None    Shift=    0.000
 RMSDP=1.94D-06 MaxDP=4.78D-05 DE=-1.10D-09 OVMax= 8.03D-05

 Cycle   9  Pass 1  IDiag  1:
 RMSU=  1.80D-06    CP:  1.00D+00  8.85D-01
 E= -874.586187459509     Delta-E=       -0.000000041758 Rises=F Damp=F
 DIIS: error= 7.38D-06 at cycle   3 NSaved=   3.
 NSaved= 3 IEnMin= 3 EnMin= -874.586187459509     IErMin= 3 ErrMin= 7.38D-06
 ErrMax= 7.38D-06  0.00D+00 EMaxC= 1.00D-01 BMatC= 1.14D-08 BMatP= 4.91D-08
 IDIUse=1 WtCom= 1.00D+00 WtEn= 0.00D+00
 Coeff-Com:  0.124D+00 0.305D+00 0.571D+00
 Coeff:      0.124D+00 0.305D+00 0.571D+00
 Gap=     0.226 Goal=   None    Shift=    0.000
 RMSDP=7.03D-07 MaxDP=2.11D-05 DE=-4.18D-08 OVMax= 3.80D-05

 Cycle  10  Pass 1  IDiag  1:
 RMSU=  5.61D-07    CP:  1.00D+00  9.09D-01  7.80D-01
 E= -874.586187466577     Delta-E=       -0.000000007068 Rises=F Damp=F
 DIIS: error= 2.27D-06 at cycle   4 NSaved=   4.
 NSaved= 4 IEnMin= 4 EnMin= -874.586187466577     IErMin= 4 ErrMin= 2.27D-06
 ErrMax= 2.27D-06  0.00D+00 EMaxC= 1.00D-01 BMatC= 2.07D-09 BMatP= 1.14D-08
 IDIUse=1 WtCom= 1.00D+00 WtEn= 0.00D+00
 Coeff-Com: -0.198D-02 0.124D+00 0.369D+00 0.510D+00
 Coeff:     -0.198D-02 0.124D+00 0.369D+00 0.510D+00
 Gap=     0.226 Goal=   None    Shift=    0.000
 RMSDP=2.61D-07 MaxDP=6.89D-06 DE=-7.07D-09 OVMax= 1.19D-05

 Cycle  11  Pass 1  IDiag  1:
 RMSU=  9.28D-08    CP:  1.00D+00  9.17D-01  7.87D-01  5.74D-01
 E= -874.586187468328     Delta-E=       -0.000000001751 Rises=F Damp=F
 DIIS: error= 3.04D-07 at cycle   5 NSaved=   5.
 NSaved= 5 IEnMin= 5 EnMin= -874.586187468328     IErMin= 5 ErrMin= 3.04D-07
 ErrMax= 3.04D-07  0.00D+00 EMaxC= 1.00D-01 BMatC= 4.55D-11 BMatP= 2.07D-09
 IDIUse=1 WtCom= 1.00D+00 WtEn= 0.00D+00
 Coeff-Com: -0.421D-02 0.586D-01 0.182D+00 0.274D+00 0.490D+00
 Coeff:     -0.421D-02 0.586D-01 0.182D+00 0.274D+00 0.490D+00
 Gap=     0.226 Goal=   None    Shift=    0.000
 RMSDP=4.48D-08 MaxDP=1.83D-06 DE=-1.75D-09 OVMax= 1.65D-06

 Cycle  12  Pass 1  IDiag  1:
 RMSU=  3.33D-08    CP:  1.00D+00  9.19D-01  7.82D-01  5.64D-01  7.11D-01
 E= -874.586187468373     Delta-E=       -0.000000000045 Rises=F Damp=F
 DIIS: error= 5.73D-08 at cycle   6 NSaved=   6.
 NSaved= 6 IEnMin= 6 EnMin= -874.586187468373     IErMin= 6 ErrMin= 5.73D-08
 ErrMax= 5.73D-08  0.00D+00 EMaxC= 1.00D-01 BMatC= 1.78D-12 BMatP= 4.55D-11
 IDIUse=1 WtCom= 1.00D+00 WtEn= 0.00D+00
 Coeff-Com: -0.145D-02 0.121D-01 0.382D-01 0.629D-01 0.193D+00 0.695D+00
 Coeff:     -0.145D-02 0.121D-01 0.382D-01 0.629D-01 0.193D+00 0.695D+00
 Gap=     0.226 Goal=   None    Shift=    0.000
 RMSDP=1.24D-08 MaxDP=2.35D-07 DE=-4.50D-11 OVMax= 5.52D-07

 Cycle  13  Pass 1  IDiag  1:
 RMSU=  1.14D-08    CP:  1.00D+00  9.19D-01  7.83D-01  5.66D-01  7.53D-01
                    CP:  9.94D-01
 E= -874.586187468376     Delta-E=       -0.000000000003 Rises=F Damp=F
 DIIS: error= 3.11D-08 at cycle   7 NSaved=   7.
 NSaved= 7 IEnMin= 7 EnMin= -874.586187468376     IErMin= 7 ErrMin= 3.11D-08
 ErrMax= 3.11D-08  0.00D+00 EMaxC= 1.00D-01 BMatC= 3.11D-13 BMatP= 1.78D-12
 IDIUse=1 WtCom= 1.00D+00 WtEn= 0.00D+00
 Coeff-Com:  0.753D-04-0.515D-02-0.154D-01-0.207D-01-0.264D-02 0.313D+00
 Coeff-Com:  0.731D+00
 Coeff:      0.753D-04-0.515D-02-0.154D-01-0.207D-01-0.264D-02 0.313D+00
 Coeff:      0.731D+00
 Gap=     0.226 Goal=   None    Shift=    0.000
 RMSDP=5.07D-09 MaxDP=1.08D-07 DE=-2.96D-12 OVMax= 3.16D-07

 SCF Done:  E(RB3LYP) =  -874.586187468     A.U. after   13 cycles
            NFock= 13  Conv=0.51D-08     -V/T= 2.0064
 KE= 8.690302501569D+02 PE=-3.279224062593D+03 EE= 9.258713921252D+02
 Leave Link  502 at Fri Mar 14 14:22:59 2025, MaxMem=  8589934592 cpu:              80.4 elap:              10.6
 (Enter /home/enzo/gaussian_versions/gdv.j21/gdv/l701.exe)
 ... and contract with generalized density number  0.
 Compute integral first derivatives.
 Leave Link  701 at Fri Mar 14 14:23:00 2025, MaxMem=  8589934592 cpu:               2.9 elap:               0.6
 (Enter /home/enzo/gaussian_versions/gdv.j21/gdv/l702.exe)
 L702 exits ... SP integral derivatives will be done elsewhere.
 Leave Link  702 at Fri Mar 14 14:23:00 2025, MaxMem=  8589934592 cpu:               0.1 elap:               0.2
 (Enter /home/enzo/gaussian_versions/gdv.j21/gdv/l703.exe)
 Integral derivatives from FoFJK, PRISM(SPDF).
 Compute integral first derivatives, UseDBF=F ICtDFT=           0.
 Calling FoFJK, ICntrl=      2127 FMM=F ISym2X=0 I1Cent= 0 IOpClX= 0 NMat=1 NMatS=1 NMatT=0.
 FoFJK:  IHMeth= 1 ICntrl=    2127 DoSepK=F KAlg= 0 I1Cent=           0 FoldK=F
 IRaf=         0 NMat=       1 IRICut=       1 DoRegI=T DoRafI=F ISym2E= 0 IDoP0=0 IntGTp=1.
 FoFCou: FMM=F IPFlag=           0 FMFlag=      100000 FMFlg1=         800
         NFxFlg=           0 DoJE=F BraDBF=F KetDBF=F FulRan=T
         wScrn=  0.000000 ICntrl=      2127 IOpCl=  0 I1Cent=           0 NGrid=           0
         NMat0=    1 NMatS0=      1 NMatT0=    0 NMatD0=    1 NMtDS0=    0 NMtDT0=    0
 Symmetry not used in FoFCou.
 Leave Link  703 at Fri Mar 14 14:23:03 2025, MaxMem=  8589934592 cpu:              15.9 elap:               2.3
 (Enter /home/enzo/gaussian_versions/gdv.j21/gdv/l716.exe)
 Dipole        =-1.15823826D+00 4.59662353D-01-2.50448995D-01
 ***** Axes restored to original set *****
 -------------------------------------------------------------------
 Center     Atomic                   Forces (Hartrees/Bohr)
 Number     Number              X              Y              Z
 -------------------------------------------------------------------
      1        6          -0.000891838   -0.001638224    0.000885673
      2        6           0.001800570    0.000129139   -0.003079821
      3       16           0.000694069    0.000467775    0.000153434
      4        6          -0.007183034   -0.002762436    0.010755436
      5        8           0.001232560    0.000970900   -0.005892388
      6        7           0.002020661   -0.000114156    0.000119966
      7        6           0.000174886    0.003441054   -0.004223307
      8        6           0.002558130   -0.015856857    0.011199818
      9        8          -0.002513955    0.007341987   -0.003634474
     10        8          -0.001143452    0.004450767   -0.005297493
     11        1          -0.000489981    0.000578016   -0.000049072
     12        1           0.000336972    0.000604991    0.000198965
     13        1          -0.000243143   -0.000244880   -0.000622067
     14        1           0.001529920    0.000882356   -0.000170714
     15        1           0.000117042   -0.000355502   -0.001146401
     16        1           0.000625841    0.002315764   -0.000105232
     17        1           0.000129743    0.000646643    0.000467358
     18        1          -0.000048131   -0.000194164   -0.000743042
     19        1           0.001293141   -0.000663175    0.001183361
 -------------------------------------------------------------------
 Cartesian Forces:  Max     0.015856857 RMS     0.003714364
 Leave Link  716 at Fri Mar 14 14:23:03 2025, MaxMem=  8589934592 cpu:               0.2 elap:               0.2
 (Enter /home/enzo/gaussian_versions/gdv.j21/gdv/l103.exe)

 GradGradGradGradGradGradGradGradGradGradGradGradGradGradGradGradGradGrad
 Berny optimization.
 Using GEDIIS/GDIIS optimizer.
 FormGI is forming the generalized inverse of G from B-inverse, IUseBI=4.
 Internal  Forces:  Max     0.005314044 RMS     0.001603184
 Search for a local minimum.
 Step number   5 out of a maximum of   93
 All quantities printed in internal units (Hartrees-Bohrs-Radians)
 RMS Force = .16032D-02 SwitMx=.10000D-02 MixMth= 1
 Mixed Optimization -- RFO/linear search
 Update second derivatives using D2CorX and points    4    5
 DE= -7.01D-04 DEPred=-2.46D-03 R= 2.85D-01
 Trust test= 2.85D-01 RLast= 4.22D-01 DXMaxT set to 1.43D+00
 ITU=  0  1  1  1  0
 Use linear search instead of GDIIS.
     Eigenvalues ---    0.00238   0.00448   0.00719   0.00863   0.00885
     Eigenvalues ---    0.01032   0.01095   0.01281   0.01658   0.04222
     Eigenvalues ---    0.04912   0.05192   0.05486   0.05667   0.05748
     Eigenvalues ---    0.06611   0.07846   0.09888   0.13272   0.15556
     Eigenvalues ---    0.15881   0.16000   0.16007   0.16035   0.16082
     Eigenvalues ---    0.17658   0.20146   0.21806   0.21908   0.22212
     Eigenvalues ---    0.23050   0.24724   0.24911   0.25163   0.26313
     Eigenvalues ---    0.30005   0.31797   0.32580   0.32587   0.32600
     Eigenvalues ---    0.32613   0.32645   0.32775   0.33090   0.37288
     Eigenvalues ---    0.40653   0.41484   0.45905   0.49464   0.77277
     Eigenvalues ---    0.80400
 RFO step:  Lambda=-1.78265480D-03 EMin= 2.37691398D-03
 Quartic linear search produced a step of -0.40023.
 Iteration  1 RMS(Cart)=  0.02696738 RMS(Int)=  0.00128004
 Iteration  2 RMS(Cart)=  0.00150818 RMS(Int)=  0.00026896
 Iteration  3 RMS(Cart)=  0.00000484 RMS(Int)=  0.00026892
 Iteration  4 RMS(Cart)=  0.00000000 RMS(Int)=  0.00026892
 Variable       Old X    -DE/DX   Delta X   Delta X   Delta X     New X
                                 (Linear)    (Quad)   (Total)
    R1        2.90174  -0.00059   0.00215  -0.00580  -0.00365   2.89809
    R2        2.06385   0.00071  -0.00121   0.00436   0.00315   2.06699
    R3        2.07248   0.00058  -0.00135   0.00388   0.00253   2.07501
    R4        2.06511   0.00070  -0.00122   0.00434   0.00312   2.06823
    R5        3.49541  -0.00092  -0.00043  -0.00416  -0.00459   3.49082
    R6        2.91155  -0.00292   0.00165  -0.01503  -0.01338   2.89817
    R7        2.06794   0.00055  -0.00159   0.00503   0.00344   2.07138
    R8        2.54795   0.00114  -0.00507   0.01311   0.00803   2.55598
    R9        2.30984   0.00366  -0.00347   0.01168   0.00821   2.31805
   R10        2.57586   0.00210  -0.00532   0.01610   0.01077   2.58664
   R11        2.72346   0.00102  -0.00059   0.00368   0.00309   2.72655
   R12        1.90659   0.00155  -0.00308   0.00892   0.00584   1.91243
   R13        2.87868  -0.00265   0.00051  -0.00945  -0.00895   2.86973
   R14        2.07832  -0.00017  -0.00146   0.00361   0.00215   2.08048
   R15        2.06404   0.00076  -0.00053   0.00275   0.00222   2.06626
   R16        2.28019   0.00531  -0.00682   0.01801   0.01120   2.29138
   R17        2.55729  -0.00053   0.00224  -0.00166   0.00058   2.55787
   R18        1.84356   0.00063  -0.00538   0.00987   0.00450   1.84806
    A1        1.92884   0.00032   0.00091  -0.00192  -0.00101   1.92783
    A2        1.92672  -0.00004  -0.00082   0.00111   0.00029   1.92701
    A3        1.91977   0.00009  -0.00020   0.00240   0.00220   1.92197
    A4        1.90031  -0.00027   0.00044  -0.00266  -0.00222   1.89809
    A5        1.89931  -0.00020  -0.00008  -0.00038  -0.00046   1.89886
    A6        1.88812   0.00010  -0.00025   0.00145   0.00119   1.88931
    A7        1.97602  -0.00128   0.00098  -0.00893  -0.00795   1.96807
    A8        1.91099   0.00213  -0.00041   0.00466   0.00422   1.91521
    A9        1.92266  -0.00039  -0.00027   0.00049   0.00024   1.92291
   A10        1.91778  -0.00115   0.00059  -0.00658  -0.00600   1.91178
   A11        1.80288   0.00138  -0.00225   0.01607   0.01384   1.81672
   A12        1.93153  -0.00083   0.00134  -0.00559  -0.00424   1.92729
   A13        1.65587  -0.00058   0.00165  -0.00459  -0.00295   1.65292
   A14        2.13080  -0.00101  -0.00000  -0.00660  -0.00563   2.12517
   A15        2.00111   0.00189  -0.00699   0.01722   0.01121   2.01231
   A16        2.15062  -0.00077   0.00497  -0.01093  -0.00499   2.14563
   A17        2.13119  -0.00007   0.00283  -0.00714  -0.00437   2.12682
   A18        2.09675  -0.00000   0.00033  -0.00232  -0.00205   2.09471
   A19        2.04518   0.00002  -0.00181   0.00446   0.00259   2.04777
   A20        1.93878  -0.00069   0.00274  -0.00698  -0.00424   1.93454
   A21        1.96371  -0.00008   0.00408  -0.01262  -0.00855   1.95516
   A22        1.88781   0.00043  -0.00176   0.00692   0.00519   1.89300
   A23        1.87693  -0.00046  -0.00643   0.01032   0.00385   1.88078
   A24        1.93556   0.00061   0.00410  -0.00675  -0.00264   1.93292
   A25        1.86000   0.00024  -0.00278   0.00943   0.00665   1.86665
   A26        2.19684  -0.00320   0.00278  -0.01530  -0.01352   2.18331
   A27        1.91723   0.00437  -0.00859   0.03991   0.03032   1.94756
   A28        2.15881  -0.00040   0.00981  -0.01538  -0.00658   2.15223
   A29        1.85457   0.00165  -0.00602   0.03181   0.02578   1.88036
    D1        0.98771   0.00049   0.00317  -0.00501  -0.00184   0.98587
    D2        3.13413  -0.00032   0.00432  -0.01634  -0.01202   3.12212
    D3       -1.02106  -0.00020   0.00555  -0.01993  -0.01439  -1.03544
    D4        3.09102   0.00033   0.00377  -0.00886  -0.00509   3.08594
    D5       -1.04574  -0.00048   0.00492  -0.02019  -0.01527  -1.06101
    D6        1.08225  -0.00037   0.00615  -0.02378  -0.01763   1.06462
    D7       -1.10984   0.00047   0.00282  -0.00486  -0.00204  -1.11188
    D8        1.03658  -0.00033   0.00397  -0.01619  -0.01222   1.02436
    D9       -3.11861  -0.00022   0.00519  -0.01979  -0.01459  -3.13320
   D10        1.36504   0.00016  -0.03162   0.03995   0.00836   1.37340
   D11       -0.77762  -0.00085  -0.03222   0.04511   0.01285  -0.76477
   D12       -2.83900  -0.00010  -0.03284   0.04600   0.01316  -2.82584
   D13       -1.22756   0.00225   0.01394   0.04972   0.06376  -1.16380
   D14        1.95191  -0.00063  -0.04548   0.05864   0.01306   1.96497
   D15        0.95301   0.00131   0.01530   0.03712   0.05252   1.00554
   D16       -2.15070  -0.00157  -0.04412   0.04605   0.00183  -2.14887
   D17        2.93296   0.00186   0.01368   0.04964   0.06342   2.99638
   D18       -0.17076  -0.00102  -0.04575   0.05857   0.01272  -0.15803
   D19       -3.05094   0.00108   0.02185   0.00604   0.02774  -3.02320
   D20       -0.06561   0.00067   0.03320  -0.03212   0.00094  -0.06466
   D21        0.12902  -0.00184  -0.03871   0.01496  -0.02361   0.10541
   D22        3.11435  -0.00225  -0.02736  -0.02320  -0.05041   3.06394
   D23        2.30245   0.00068  -0.00399   0.01791   0.01391   2.31636
   D24       -1.87541  -0.00046  -0.00748   0.01747   0.01000  -1.86541
   D25        0.17439   0.00007  -0.00965   0.02610   0.01645   0.19083
   D26       -0.68726   0.00108  -0.01515   0.05555   0.04039  -0.64687
   D27        1.41807  -0.00006  -0.01865   0.05511   0.03648   1.45455
   D28       -2.81532   0.00047  -0.02082   0.06374   0.04293  -2.77239
   D29        0.23306  -0.00331  -0.03560  -0.04611  -0.08170   0.15136
   D30       -3.05841   0.00231   0.03486   0.01988   0.05476  -3.00365
   D31       -1.92276  -0.00247  -0.03806  -0.03290  -0.07096  -1.99373
   D32        1.06895   0.00315   0.03239   0.03309   0.06550   1.13445
   D33        2.33307  -0.00282  -0.03318  -0.04655  -0.07975   2.25332
   D34       -0.95840   0.00280   0.03727   0.01944   0.05671  -0.90169
   D35       -3.11404  -0.00124   0.00453   0.03400   0.03854  -3.07549
   D36       -0.11839   0.00393   0.07326   0.09811   0.17135   0.05296
         Item               Value     Threshold  Converged?
 Maximum Force            0.005314     0.000450     NO 
 RMS     Force            0.001603     0.000300     NO 
 Maximum Displacement     0.087647     0.001800     NO 
 RMS     Displacement     0.026580     0.001200     NO 
 Predicted change in Energy=-1.494488D-03
 Lowest energy point so far.  Saving SCF results.
 GradGradGradGradGradGradGradGradGradGradGradGradGradGradGradGradGradGrad

 Leave Link  103 at Fri Mar 14 14:23:03 2025, MaxMem=  8589934592 cpu:               0.2 elap:               0.2
 (Enter /home/enzo/gaussian_versions/gdv.j21/gdv/l202.exe)
                          Input orientation:                          
 ---------------------------------------------------------------------
 Center     Atomic      Atomic             Coordinates (Angstroms)
 Number     Number       Type             X           Y           Z
 ---------------------------------------------------------------------
      1          6           0       -2.008936    1.719150   -0.887577
      2          6           0       -1.786191    0.677927    0.216135
      3         16           0       -3.302267   -0.312448    0.580891
      4          6           0       -0.642627   -0.262944   -0.182729
      5          8           0       -0.743333   -1.036620   -1.129291
      6          7           0        0.490032   -0.162706    0.579257
      7          6           0        1.699527   -0.873877    0.242950
      8          6           0        2.904790    0.047423    0.311412
      9          8           0        2.893765    1.178474    0.748307
     10          8           0        4.019520   -0.554633   -0.165083
     11          1           0       -2.835868    2.384792   -0.623918
     12          1           0       -1.103038    2.322281   -1.033478
     13          1           0       -2.244962    1.220962   -1.833061
     14          1           0       -1.558144    1.176207    1.165453
     15          1           0       -3.165079   -1.124555   -0.492002
     16          1           0        0.549976    0.537471    1.307499
     17          1           0        1.884044   -1.719405    0.923469
     18          1           0        1.587748   -1.291497   -0.761371
     19          1           0        4.768126    0.061876   -0.039029
 ---------------------------------------------------------------------
                    Distance matrix (angstroms):
                    1          2          3          4          5
     1  C    0.000000
     2  C    1.533604   0.000000
     3  S    2.820726   1.847262   0.000000
     4  C    2.508447   1.533646   2.767535   0.000000
     5  O    3.042112   2.416070   3.161849   1.226660   0.000000
     6  N    3.455116   2.453510   3.795255   1.368790   2.281238
     7  C    4.664181   3.815632   5.044537   2.457667   2.806617
     8  C    5.327002   4.734122   6.223318   3.595090   4.069346
     9  O    5.196626   4.736638   6.375083   3.930723   4.654084
    10  O    6.483392   5.947336   7.363674   4.671296   4.883316
    11  H    1.093806   2.172764   2.990685   3.466333   4.042297
    12  H    1.098046   2.175346   3.792703   2.760279   3.379465
    13  H    1.094459   2.169001   3.049001   2.737344   2.801224
    14  H    2.170929   1.096127   2.366384   2.174148   3.290345
    15  H    3.095126   2.377337   1.352567   2.683428   2.505738
    16  H    3.572500   2.582340   4.011247   2.069721   3.176217
    17  H    5.500804   4.440512   5.384674   3.119138   3.403400
    18  H    4.692127   4.027109   5.164538   2.523355   2.373661
    19  H    7.028169   6.588148   8.102819   5.422399   5.724644
                    6          7          8          9         10
     6  N    0.000000
     7  C    1.442826   0.000000
     8  C    2.438637   1.518598   0.000000
     9  O    2.757766   2.427701   1.212549   0.000000
    10  O    3.628352   2.377136   1.353567   2.259483   0.000000
    11  H    4.358783   5.651566   6.268436   6.013892   7.473092
    12  H    3.363621   4.438363   4.800665   4.522995   5.938968
    13  H    3.900514   4.925157   5.700518   5.750807   6.721505
    14  H    2.516215   3.958065   4.682020   4.471410   5.989696
    15  H    3.928433   4.926194   6.233965   6.599386   7.214579
    16  H    1.012017   2.108704   2.603360   2.493376   3.924146
    17  H    2.117797   1.100940   2.130309   3.073746   2.664938
    18  H    2.067954   1.093418   2.162908   3.175777   2.609989
    19  H    4.328372   3.220473   1.896059   2.319465   0.977949
                   11         12         13         14         15
    11  H    0.000000
    12  H    1.781670   0.000000
    13  H    1.779241   1.776578   0.000000
    14  H    2.509006   2.521092   3.076493   0.000000
    15  H    3.527223   4.052887   2.854208   3.259280   0.000000
    16  H    4.313573   3.376118   4.259338   2.207336   4.449963
    17  H    6.443323   5.393285   5.770001   4.504640   5.277410
    18  H    5.753466   4.513730   4.706446   4.438338   4.763381
    19  H    7.972376   6.369374   7.331129   6.535610   8.034212
                   16         17         18         19
    16  H    0.000000
    17  H    2.649661   0.000000
    18  H    2.949969   1.763401   0.000000
    19  H    4.453326   3.523817   3.531034   0.000000
 Stoichiometry    C5H9NO3S
 Framework group  C1[X(C5H9NO3S)]
 Deg. of freedom    51
 Full point group                 C1      NOp   1
 RotChk:  IX=0 Diff= 6.73D-03
 Largest Abelian subgroup         C1      NOp   1
 Largest concise Abelian subgroup C1      NOp   1
                         Standard orientation:                         
 ---------------------------------------------------------------------
 Center     Atomic      Atomic             Coordinates (Angstroms)
 Number     Number       Type             X           Y           Z
 ---------------------------------------------------------------------
      1          6           0        2.086540    1.595745    0.933061
      2          6           0        1.791539    0.590612   -0.187038
      3         16           0        3.256886   -0.447521   -0.619952
      4          6           0        0.624611   -0.315509    0.224415
      5          8           0        0.722968   -1.115023    1.149509
      6          7           0       -0.525120   -0.154028   -0.500586
      7          6           0       -1.750852   -0.826672   -0.144387
      8          6           0       -2.921087    0.141093   -0.155334
      9          8           0       -2.879128    1.281104   -0.566292
     10          8           0       -4.043848   -0.429520    0.340601
     11          1           0        2.930522    2.235678    0.659944
     12          1           0        1.209286    2.229136    1.120001
     13          1           0        2.330676    1.066329    1.859321
     14          1           0        1.555265    1.119909   -1.117368
     15          1           0        3.119836   -1.279441    0.437670
     16          1           0       -0.579221    0.565256   -1.210432
     17          1           0       -1.987733   -1.647951   -0.838258
     18          1           0       -1.625983   -1.272302    0.846261
     19          1           0       -4.771429    0.217816    0.251347
 ---------------------------------------------------------------------
 Rotational constants (GHZ):           2.7428764           0.4580629           0.4367280
 Leave Link  202 at Fri Mar 14 14:23:03 2025, MaxMem=  8589934592 cpu:               0.2 elap:               0.2
 (Enter /home/enzo/gaussian_versions/gdv.j21/gdv/l301.exe)
 Standard basis: 6-31G(d) (6D, 7F)
 Ernie: Thresh=  0.10000D-02 Tol=  0.10000D-05 Strict=F.
 There are   172 symmetry adapted cartesian basis functions of A   symmetry.
 There are   172 symmetry adapted basis functions of A   symmetry.
   172 basis functions,   340 primitive gaussians,   172 cartesian basis functions
    43 alpha electrons       43 beta electrons
       nuclear repulsion energy       610.0822462477 Hartrees.
 IExCor=      4002 DFT=T Ex+Corr=B3LYP ScaHFX=  0.200000
 ScaDFX=  0.800000  0.720000  1.000000  0.810000  1.000000  0.000000
 ScaDFX=  0.000000  0.000000  0.000000  0.000000  0.000000  0.000000
 IRadAn=      5 IRanWt=     -1 IRanGd=            0 ICorTp=0 IEmpDi=  4
 NAtoms=   19 NActive=   19 NUniq=   19 SFac= 1.00D+00 NAtFMM=   60 NAOKFM=F Big=F
 Integral buffers will be    131072 words long.
 Raffenetti 2 integral format.
 Two-electron integral symmetry is turned on.
 Leave Link  301 at Fri Mar 14 14:23:04 2025, MaxMem=  8589934592 cpu:               0.8 elap:               0.3
 (Enter /home/enzo/gaussian_versions/gdv.j21/gdv/l302.exe)
 NPDir=0 NMtPBC=     1 NCelOv=     1 NCel=       1 NClECP=     1 NCelD=      1
         NCelK=      1 NCelE2=     1 NClLst=     1 CellRange=     0.0.
 One-electron integrals computed using PRISM.
 One-electron integral symmetry used in STVInt
 NBasis=   172 RedAO= T EigKep=  2.77D-03  NBF=   172
 NBsUse=   172 1.00D-06 EigRej= -1.00D+00 NBFU=   172
 Precomputing XC quadrature grid using
 IXCGrd= 4 IRadAn=           5 IRanWt=          -1 IRanGd=           0 AccXCQ= 0.00D+00.
 Generated NRdTot=       0 NPtTot=      408449 NUsed=           0 NTot=          64
 NSgBfM=   171   171   171   171   171 MxSgAt=    19 MxSgA2=    19 SizInc=   0.000
 NMBTot=     3488 MaxBatPerAtom=       85 MaxMicBPerAtom=      205 NBfPt=            50644119.
 Leave Link  302 at Fri Mar 14 14:23:05 2025, MaxMem=  8589934592 cpu:               7.6 elap:               1.3
 (Enter /home/enzo/gaussian_versions/gdv.j21/gdv/l303.exe)
 DipDrv:  MaxL=1.
 Leave Link  303 at Fri Mar 14 14:23:05 2025, MaxMem=  8589934592 cpu:               1.0 elap:               0.4
 (Enter /home/enzo/gaussian_versions/gdv.j21/gdv/l401.exe)
 Initial guess from the checkpoint file:  "/local/home/enzo/scratch/Gau-2270961.chk"
 B after Tr=     0.000000    0.000000   -0.000000
         Rot=    0.999995    0.003182    0.000485    0.000581 Ang=   0.37 deg.
 AO Guess basis will be translated and rotated to current coordinates.
 JPrj=2 DoOrth=T DoCkMO=T.
 Generating alternative initial guess.
 ExpMin= 1.17D-01 ExpMax= 2.19D+04 ExpMxC= 3.30D+03 IAcc=3 IRadAn=         5 AccDes= 0.00D+00
 Harris functional with IExCor= 4002 and IRadAn=       5 diagonalized for initial guess.
 HarFok:  IExCor=    4002 AccDes= 0.00D+00 IRadAn=         5 IDoV= 1 UseB2=F ITyADJ=14 ICtDFT=  3500011
 FoFCou: FMM=F IPFlag=           0 FMFlag=      100000 FMFlg1=           0
         NFxFlg=           0 DoJE=T BraDBF=F KetDBF=T FulRan=T
         wScrn=  0.000000 ICntrl=       500 IOpCl=  0 I1Cent=   200000004 NGrid=           0
         NMat0=    1 NMatS0=      1 NMatT0=    0 NMatD0=    1 NMtDS0=    0 NMtDT0=    0
 Petite list used in FoFCou.
 Harris En= -874.548001671663    
 Leave Link  401 at Fri Mar 14 14:23:06 2025, MaxMem=  8589934592 cpu:               6.7 elap:               1.0
 (Enter /home/enzo/gaussian_versions/gdv.j21/gdv/l502.exe)
 Integral symmetry usage will be decided dynamically.
 Closed shell SCF:
 Using DIIS extrapolation, IDIIS=  1040.
 NGot=  8589934592 LenX=  8589843591 LenY=  8589813566
 Requested convergence on RMS density matrix=1.00D-08 within 128 cycles.
 Requested convergence on MAX density matrix=1.00D-06.
 Requested convergence on             energy=1.00D-06.
 No special actions if energy rises.
 Fock matrices will be formed incrementally for  20 cycles.
 Integral accuracy reduced to 1.0D-05 until final iterations.

 Cycle   1  Pass 0  IDiag  1:
 FoFJK:  IHMeth= 1 ICntrl=       0 DoSepK=F KAlg= 0 I1Cent=           0 FoldK=F
 IRaf= 890000000 NMat=       1 IRICut=       1 DoRegI=T DoRafI=F ISym2E= 0 IDoP0=0 IntGTp=1.
 FoFCou: FMM=F IPFlag=           0 FMFlag=      100000 FMFlg1=           0
         NFxFlg=           0 DoJE=F BraDBF=F KetDBF=F FulRan=T
         wScrn=  0.000000 ICntrl=         0 IOpCl=  0 I1Cent=           0 NGrid=           0
         NMat0=    1 NMatS0=      1 NMatT0=    0 NMatD0=    1 NMtDS0=    0 NMtDT0=    0
 Symmetry not used in FoFCou.
 E= -874.582322920942    
 DIIS: error= 2.74D-03 at cycle   1 NSaved=   1.
 NSaved= 1 IEnMin= 1 EnMin= -874.582322920942     IErMin= 1 ErrMin= 2.74D-03
 ErrMax= 2.74D-03  0.00D+00 EMaxC= 1.00D-01 BMatC= 2.88D-03 BMatP= 2.88D-03
 IDIUse=3 WtCom= 9.73D-01 WtEn= 2.74D-02
 Coeff-Com:  0.100D+01
 Coeff-En:   0.100D+01
 Coeff:      0.100D+01
 Gap=     1.601 Goal=   None    Shift=    0.000
 GapD=    1.601 DampG=2.000 DampE=1.000 DampFc=2.0000 IDamp=-1.
 RMSDP=6.34D-04 MaxDP=1.79D-02              OVMax= 2.00D-02

 Cycle   2  Pass 0  IDiag  1:
 RMSU=  6.34D-04    CP:  1.00D+00
 E= -874.587259576073     Delta-E=       -0.004936655132 Rises=F Damp=F
 DIIS: error= 4.08D-04 at cycle   2 NSaved=   2.
 NSaved= 2 IEnMin= 2 EnMin= -874.587259576073     IErMin= 2 ErrMin= 4.08D-04
 ErrMax= 4.08D-04  0.00D+00 EMaxC= 1.00D-01 BMatC= 7.55D-05 BMatP= 2.88D-03
 IDIUse=3 WtCom= 9.96D-01 WtEn= 4.08D-03
 Coeff-Com: -0.424D-01 0.104D+01
 Coeff-En:   0.000D+00 0.100D+01
 Coeff:     -0.422D-01 0.104D+01
 Gap=     0.226 Goal=   None    Shift=    0.000
 RMSDP=1.03D-04 MaxDP=3.71D-03 DE=-4.94D-03 OVMax= 4.43D-03

 Cycle   3  Pass 0  IDiag  1:
 RMSU=  9.50D-05    CP:  1.00D+00  1.06D+00
 E= -874.587233487919     Delta-E=        0.000026088155 Rises=F Damp=F
 DIIS: error= 6.61D-04 at cycle   3 NSaved=   3.
 NSaved= 3 IEnMin= 2 EnMin= -874.587259576073     IErMin= 2 ErrMin= 4.08D-04
 ErrMax= 6.61D-04  0.00D+00 EMaxC= 1.00D-01 BMatC= 1.53D-04 BMatP= 7.55D-05
 IDIUse=3 WtCom= 2.80D-01 WtEn= 7.20D-01
 Coeff-Com: -0.479D-01 0.643D+00 0.405D+00
 Coeff-En:   0.000D+00 0.579D+00 0.421D+00
 Coeff:     -0.134D-01 0.597D+00 0.417D+00
 Gap=     0.227 Goal=   None    Shift=    0.000
 RMSDP=6.59D-05 MaxDP=2.96D-03 DE= 2.61D-05 OVMax= 3.94D-03

 Cycle   4  Pass 0  IDiag  1:
 RMSU=  3.31D-05    CP:  1.00D+00  1.07D+00  4.06D-01
 E= -874.587339339172     Delta-E=       -0.000105851254 Rises=F Damp=F
 DIIS: error= 2.31D-04 at cycle   4 NSaved=   4.
 NSaved= 4 IEnMin= 4 EnMin= -874.587339339172     IErMin= 4 ErrMin= 2.31D-04
 ErrMax= 2.31D-04  0.00D+00 EMaxC= 1.00D-01 BMatC= 1.21D-05 BMatP= 7.55D-05
 IDIUse=3 WtCom= 9.98D-01 WtEn= 2.31D-03
 Coeff-Com: -0.208D-01 0.240D+00 0.260D+00 0.522D+00
 Coeff-En:   0.000D+00 0.000D+00 0.434D-01 0.957D+00
 Coeff:     -0.208D-01 0.239D+00 0.259D+00 0.523D+00
 Gap=     0.227 Goal=   None    Shift=    0.000
 RMSDP=1.88D-05 MaxDP=8.54D-04 DE=-1.06D-04 OVMax= 1.46D-03

 Cycle   5  Pass 0  IDiag  1:
 RMSU=  1.24D-05    CP:  1.00D+00  1.08D+00  5.14D-01  7.15D-01
 E= -874.587347868080     Delta-E=       -0.000008528908 Rises=F Damp=F
 DIIS: error= 5.75D-05 at cycle   5 NSaved=   5.
 NSaved= 5 IEnMin= 5 EnMin= -874.587347868080     IErMin= 5 ErrMin= 5.75D-05
 ErrMax= 5.75D-05  0.00D+00 EMaxC= 1.00D-01 BMatC= 1.34D-06 BMatP= 1.21D-05
 IDIUse=1 WtCom= 1.00D+00 WtEn= 0.00D+00
 Coeff-Com: -0.459D-02 0.399D-01 0.943D-01 0.328D+00 0.542D+00
 Coeff:     -0.459D-02 0.399D-01 0.943D-01 0.328D+00 0.542D+00
 Gap=     0.227 Goal=   None    Shift=    0.000
 RMSDP=5.69D-06 MaxDP=2.27D-04 DE=-8.53D-06 OVMax= 3.66D-04

 Initial convergence to 1.0D-05 achieved.  Increase integral accuracy.
 Cycle   6  Pass 1  IDiag  1:
 E= -874.587348522722     Delta-E=       -0.000000654642 Rises=F Damp=F
 DIIS: error= 1.57D-05 at cycle   1 NSaved=   1.
 NSaved= 1 IEnMin= 1 EnMin= -874.587348522722     IErMin= 1 ErrMin= 1.57D-05
 ErrMax= 1.57D-05  0.00D+00 EMaxC= 1.00D-01 BMatC= 8.10D-08 BMatP= 8.10D-08
 IDIUse=1 WtCom= 1.00D+00 WtEn= 0.00D+00
 Coeff-Com:  0.100D+01
 Coeff:      0.100D+01
 Gap=     0.227 Goal=   None    Shift=    0.000
 RMSDP=5.69D-06 MaxDP=2.27D-04 DE=-6.55D-07 OVMax= 1.22D-04

 Cycle   7  Pass 1  IDiag  1:
 RMSU=  5.87D-06    CP:  1.00D+00
 E= -874.587348499207     Delta-E=        0.000000023515 Rises=F Damp=F
 DIIS: error= 1.90D-05 at cycle   2 NSaved=   2.
 NSaved= 2 IEnMin= 1 EnMin= -874.587348522722     IErMin= 1 ErrMin= 1.57D-05
 ErrMax= 1.90D-05  0.00D+00 EMaxC= 1.00D-01 BMatC= 1.27D-07 BMatP= 8.10D-08
 IDIUse=1 WtCom= 1.00D+00 WtEn= 0.00D+00
 Coeff-Com:  0.563D+00 0.437D+00
 Coeff:      0.563D+00 0.437D+00
 Gap=     0.227 Goal=   None    Shift=    0.000
 RMSDP=1.95D-06 MaxDP=7.38D-05 DE= 2.35D-08 OVMax= 1.10D-04

 Cycle   8  Pass 1  IDiag  1:
 RMSU=  1.78D-06    CP:  1.00D+00  8.64D-01
 E= -874.587348596818     Delta-E=       -0.000000097611 Rises=F Damp=F
 DIIS: error= 5.09D-06 at cycle   3 NSaved=   3.
 NSaved= 3 IEnMin= 3 EnMin= -874.587348596818     IErMin= 3 ErrMin= 5.09D-06
 ErrMax= 5.09D-06  0.00D+00 EMaxC= 1.00D-01 BMatC= 8.35D-09 BMatP= 8.10D-08
 IDIUse=1 WtCom= 1.00D+00 WtEn= 0.00D+00
 Coeff-Com:  0.149D+00 0.223D+00 0.628D+00
 Coeff:      0.149D+00 0.223D+00 0.628D+00
 Gap=     0.227 Goal=   None    Shift=    0.000
 RMSDP=6.07D-07 MaxDP=2.29D-05 DE=-9.76D-08 OVMax= 4.40D-05

 Cycle   9  Pass 1  IDiag  1:
 RMSU=  5.19D-07    CP:  1.00D+00  8.88D-01  8.41D-01
 E= -874.587348600976     Delta-E=       -0.000000004158 Rises=F Damp=F
 DIIS: error= 3.24D-06 at cycle   4 NSaved=   4.
 NSaved= 4 IEnMin= 4 EnMin= -874.587348600976     IErMin= 4 ErrMin= 3.24D-06
 ErrMax= 3.24D-06  0.00D+00 EMaxC= 1.00D-01 BMatC= 3.05D-09 BMatP= 8.35D-09
 IDIUse=1 WtCom= 1.00D+00 WtEn= 0.00D+00
 Coeff-Com:  0.153D-01 0.865D-01 0.430D+00 0.469D+00
 Coeff:      0.153D-01 0.865D-01 0.430D+00 0.469D+00
 Gap=     0.227 Goal=   None    Shift=    0.000
 RMSDP=2.85D-07 MaxDP=1.15D-05 DE=-4.16D-09 OVMax= 1.74D-05

 Cycle  10  Pass 1  IDiag  1:
 RMSU=  1.55D-07    CP:  1.00D+00  8.92D-01  8.72D-01  5.52D-01
 E= -874.587348603281     Delta-E=       -0.000000002305 Rises=F Damp=F
 DIIS: error= 8.04D-07 at cycle   5 NSaved=   5.
 NSaved= 5 IEnMin= 5 EnMin= -874.587348603281     IErMin= 5 ErrMin= 8.04D-07
 ErrMax= 8.04D-07  0.00D+00 EMaxC= 1.00D-01 BMatC= 1.61D-10 BMatP= 3.05D-09
 IDIUse=1 WtCom= 1.00D+00 WtEn= 0.00D+00
 Coeff-Com: -0.667D-02 0.273D-01 0.182D+00 0.260D+00 0.537D+00
 Coeff:     -0.667D-02 0.273D-01 0.182D+00 0.260D+00 0.537D+00
 Gap=     0.227 Goal=   None    Shift=    0.000
 RMSDP=7.14D-08 MaxDP=2.45D-06 DE=-2.30D-09 OVMax= 2.96D-06

 Cycle  11  Pass 1  IDiag  1:
 RMSU=  5.40D-08    CP:  1.00D+00  8.94D-01  8.68D-01  5.78D-01  7.32D-01
 E= -874.587348603406     Delta-E=       -0.000000000125 Rises=F Damp=F
 DIIS: error= 1.03D-07 at cycle   6 NSaved=   6.
 NSaved= 6 IEnMin= 6 EnMin= -874.587348603406     IErMin= 6 ErrMin= 1.03D-07
 ErrMax= 1.03D-07  0.00D+00 EMaxC= 1.00D-01 BMatC= 4.46D-12 BMatP= 1.61D-10
 IDIUse=1 WtCom= 1.00D+00 WtEn= 0.00D+00
 Coeff-Com: -0.350D-02 0.358D-02 0.343D-01 0.580D-01 0.185D+00 0.723D+00
 Coeff:     -0.350D-02 0.358D-02 0.343D-01 0.580D-01 0.185D+00 0.723D+00
 Gap=     0.227 Goal=   None    Shift=    0.000
 RMSDP=1.94D-08 MaxDP=4.56D-07 DE=-1.25D-10 OVMax= 1.27D-06

 Cycle  12  Pass 1  IDiag  1:
 RMSU=  1.65D-08    CP:  1.00D+00  8.95D-01  8.70D-01  5.82D-01  7.91D-01
                    CP:  1.01D+00
 E= -874.587348603411     Delta-E=       -0.000000000006 Rises=F Damp=F
 DIIS: error= 7.48D-08 at cycle   7 NSaved=   7.
 NSaved= 7 IEnMin= 7 EnMin= -874.587348603411     IErMin= 7 ErrMin= 7.48D-08
 ErrMax= 7.48D-08  0.00D+00 EMaxC= 1.00D-01 BMatC= 1.75D-12 BMatP= 4.46D-12
 IDIUse=1 WtCom= 1.00D+00 WtEn= 0.00D+00
 Coeff-Com: -0.102D-02-0.180D-02-0.638D-02-0.425D-02 0.277D-01 0.410D+00
 Coeff-Com:  0.575D+00
 Coeff:     -0.102D-02-0.180D-02-0.638D-02-0.425D-02 0.277D-01 0.410D+00
 Coeff:      0.575D+00
 Gap=     0.227 Goal=   None    Shift=    0.000
 RMSDP=1.05D-08 MaxDP=3.19D-07 DE=-5.91D-12 OVMax= 6.33D-07

 Cycle  13  Pass 1  IDiag  1:
 RMSU=  7.57D-09    CP:  1.00D+00  8.95D-01  8.70D-01  5.87D-01  8.06D-01
                    CP:  1.08D+00  6.87D-01
 E= -874.587348603426     Delta-E=       -0.000000000014 Rises=F Damp=F
 DIIS: error= 4.94D-08 at cycle   8 NSaved=   8.
 NSaved= 8 IEnMin= 8 EnMin= -874.587348603426     IErMin= 8 ErrMin= 4.94D-08
 ErrMax= 4.94D-08  0.00D+00 EMaxC= 1.00D-01 BMatC= 5.88D-13 BMatP= 1.75D-12
 IDIUse=1 WtCom= 1.00D+00 WtEn= 0.00D+00
 Coeff-Com:  0.934D-04-0.202D-02-0.121D-01-0.162D-01-0.238D-01 0.123D+00
 Coeff-Com:  0.408D+00 0.523D+00
 Coeff:      0.934D-04-0.202D-02-0.121D-01-0.162D-01-0.238D-01 0.123D+00
 Coeff:      0.408D+00 0.523D+00
 Gap=     0.227 Goal=   None    Shift=    0.000
 RMSDP=4.97D-09 MaxDP=1.42D-07 DE=-1.41D-11 OVMax= 2.71D-07

 SCF Done:  E(RB3LYP) =  -874.587348603     A.U. after   13 cycles
            NFock= 13  Conv=0.50D-08     -V/T= 2.0065
 KE= 8.689654423903D+02 PE=-3.279898051369D+03 EE= 9.262630141276D+02
 Leave Link  502 at Fri Mar 14 14:23:17 2025, MaxMem=  8589934592 cpu:              77.4 elap:              10.3
 (Enter /home/enzo/gaussian_versions/gdv.j21/gdv/l701.exe)
 ... and contract with generalized density number  0.
 Compute integral first derivatives.
 Leave Link  701 at Fri Mar 14 14:23:17 2025, MaxMem=  8589934592 cpu:               4.3 elap:               0.8
 (Enter /home/enzo/gaussian_versions/gdv.j21/gdv/l702.exe)
 L702 exits ... SP integral derivatives will be done elsewhere.
 Leave Link  702 at Fri Mar 14 14:23:18 2025, MaxMem=  8589934592 cpu:               0.1 elap:               0.2
 (Enter /home/enzo/gaussian_versions/gdv.j21/gdv/l703.exe)
 Integral derivatives from FoFJK, PRISM(SPDF).
 Compute integral first derivatives, UseDBF=F ICtDFT=           0.
 Calling FoFJK, ICntrl=      2127 FMM=F ISym2X=0 I1Cent= 0 IOpClX= 0 NMat=1 NMatS=1 NMatT=0.
 FoFJK:  IHMeth= 1 ICntrl=    2127 DoSepK=F KAlg= 0 I1Cent=           0 FoldK=F
 IRaf=         0 NMat=       1 IRICut=       1 DoRegI=T DoRafI=F ISym2E= 0 IDoP0=0 IntGTp=1.
 FoFCou: FMM=F IPFlag=           0 FMFlag=      100000 FMFlg1=         800
         NFxFlg=           0 DoJE=F BraDBF=F KetDBF=F FulRan=T
         wScrn=  0.000000 ICntrl=      2127 IOpCl=  0 I1Cent=           0 NGrid=           0
         NMat0=    1 NMatS0=      1 NMatT0=    0 NMatD0=    1 NMtDS0=    0 NMtDT0=    0
 Symmetry not used in FoFCou.
 Leave Link  703 at Fri Mar 14 14:23:20 2025, MaxMem=  8589934592 cpu:              15.9 elap:               2.2
 (Enter /home/enzo/gaussian_versions/gdv.j21/gdv/l716.exe)
 Dipole        =-1.18783151D+00 4.13335221D-01-3.18328901D-01
 ***** Axes restored to original set *****
 -------------------------------------------------------------------
 Center     Atomic                   Forces (Hartrees/Bohr)
 Number     Number              X              Y              Z
 -------------------------------------------------------------------
      1        6          -0.000491704    0.000138797   -0.000535328
      2        6           0.001479085    0.000518225   -0.000107435
      3       16          -0.000266371   -0.001499083   -0.000163980
      4        6           0.001062326   -0.002932669    0.001910368
      5        8           0.001054244    0.002369067    0.000877130
      6        7          -0.003133024    0.000391883   -0.000637681
      7        6           0.001598459   -0.000578291    0.000754804
      8        6           0.004332318    0.004935495   -0.002007222
      9        8          -0.000896638   -0.003357666    0.000577350
     10        8          -0.002002097   -0.001688033    0.002051658
     11        1           0.000319481   -0.000175596   -0.000162047
     12        1          -0.000293553    0.000049767    0.000072436
     13        1           0.000146859    0.000124969    0.000560520
     14        1           0.000068791    0.000136151   -0.000744241
     15        1          -0.000149470    0.001044822    0.000480746
     16        1           0.000822857    0.000154239   -0.001840381
     17        1          -0.000122851   -0.000004204   -0.000834496
     18        1          -0.000073233    0.000037902    0.000002847
     19        1          -0.003455481    0.000334223   -0.000255047
 -------------------------------------------------------------------
 Cartesian Forces:  Max     0.004935495 RMS     0.001511088
 Leave Link  716 at Fri Mar 14 14:23:20 2025, MaxMem=  8589934592 cpu:               0.4 elap:               0.3
 (Enter /home/enzo/gaussian_versions/gdv.j21/gdv/l103.exe)

 GradGradGradGradGradGradGradGradGradGradGradGradGradGradGradGradGradGrad
 Berny optimization.
 Using GEDIIS/GDIIS optimizer.
 FormGI is forming the generalized inverse of G from B-inverse, IUseBI=4.
 Internal  Forces:  Max     0.004524327 RMS     0.001112272
 Search for a local minimum.
 Step number   6 out of a maximum of   93
 All quantities printed in internal units (Hartrees-Bohrs-Radians)
 RMS Force = .11123D-02 SwitMx=.10000D-02 MixMth= 1
 Mixed Optimization -- RFO/linear search
 Update second derivatives using D2CorX and points    4    5    6
 DE= -1.16D-03 DEPred=-1.49D-03 R= 7.77D-01
 TightC=F SS=  1.41D+00  RLast= 2.91D-01 DXNew= 2.4000D+00 8.7399D-01
 Trust test= 7.77D-01 RLast= 2.91D-01 DXMaxT set to 1.43D+00
 ITU=  1  0  1  1  1  0
 Use linear search instead of GDIIS.
     Eigenvalues ---    0.00255   0.00446   0.00640   0.00848   0.00865
     Eigenvalues ---    0.01051   0.01089   0.01285   0.01980   0.04290
     Eigenvalues ---    0.04946   0.05169   0.05536   0.05674   0.05727
     Eigenvalues ---    0.06613   0.07846   0.09839   0.13187   0.15832
     Eigenvalues ---    0.15943   0.16001   0.16010   0.16025   0.16968
     Eigenvalues ---    0.17645   0.19241   0.21421   0.22069   0.22214
     Eigenvalues ---    0.23487   0.24728   0.25104   0.26022   0.26594
     Eigenvalues ---    0.29979   0.31494   0.32582   0.32595   0.32611
     Eigenvalues ---    0.32627   0.32644   0.32765   0.33146   0.37265
     Eigenvalues ---    0.40619   0.42231   0.45789   0.52964   0.80167
     Eigenvalues ---    0.80639
 RFO step:  Lambda=-5.93343601D-04 EMin= 2.55047804D-03
 Quartic linear search produced a step of -0.15941.
 Iteration  1 RMS(Cart)=  0.03923698 RMS(Int)=  0.00165145
 Iteration  2 RMS(Cart)=  0.00157038 RMS(Int)=  0.00005470
 Iteration  3 RMS(Cart)=  0.00000360 RMS(Int)=  0.00005468
 Iteration  4 RMS(Cart)=  0.00000000 RMS(Int)=  0.00005468
 Variable       Old X    -DE/DX   Delta X   Delta X   Delta X     New X
                                 (Linear)    (Quad)   (Total)
    R1        2.89809   0.00019   0.00058  -0.00229  -0.00171   2.89638
    R2        2.06699  -0.00039  -0.00050   0.00088   0.00038   2.06737
    R3        2.07501  -0.00022  -0.00040   0.00100   0.00060   2.07560
    R4        2.06823  -0.00057  -0.00050   0.00047  -0.00003   2.06820
    R5        3.49082   0.00065   0.00073   0.00059   0.00132   3.49214
    R6        2.89817  -0.00055   0.00213  -0.00625  -0.00412   2.89405
    R7        2.07138  -0.00057  -0.00055   0.00051  -0.00004   2.07134
    R8        2.55598  -0.00102  -0.00128   0.00213   0.00085   2.55683
    R9        2.31805  -0.00226  -0.00131   0.00216   0.00085   2.31890
   R10        2.58664  -0.00363  -0.00172  -0.00047  -0.00219   2.58445
   R11        2.72655  -0.00043  -0.00049   0.00107   0.00057   2.72712
   R12        1.91243  -0.00117  -0.00093   0.00156   0.00062   1.91306
   R13        2.86973  -0.00145   0.00143  -0.00654  -0.00512   2.86462
   R14        2.08048  -0.00053  -0.00034   0.00012  -0.00022   2.08025
   R15        2.06626  -0.00001  -0.00035   0.00102   0.00066   2.06692
   R16        2.29138  -0.00292  -0.00178   0.00398   0.00220   2.29358
   R17        2.55787  -0.00452  -0.00009  -0.00816  -0.00826   2.54961
   R18        1.84806  -0.00247  -0.00072   0.00031  -0.00041   1.84765
    A1        1.92783   0.00013   0.00016   0.00003   0.00019   1.92802
    A2        1.92701   0.00018  -0.00005   0.00075   0.00070   1.92771
    A3        1.92197  -0.00026  -0.00035  -0.00039  -0.00074   1.92123
    A4        1.89809  -0.00017   0.00035  -0.00183  -0.00147   1.89662
    A5        1.89886   0.00004   0.00007   0.00001   0.00009   1.89894
    A6        1.88931   0.00007  -0.00019   0.00142   0.00123   1.89054
    A7        1.96807  -0.00012   0.00127  -0.00460  -0.00333   1.96474
    A8        1.91521   0.00072  -0.00067   0.00452   0.00384   1.91906
    A9        1.92291  -0.00022  -0.00004   0.00115   0.00111   1.92402
   A10        1.91178  -0.00052   0.00096  -0.00679  -0.00583   1.90595
   A11        1.81672   0.00026  -0.00221   0.00829   0.00609   1.82281
   A12        1.92729  -0.00016   0.00068  -0.00268  -0.00200   1.92529
   A13        1.65292  -0.00066   0.00047  -0.00484  -0.00437   1.64855
   A14        2.12517   0.00049   0.00090  -0.00207  -0.00124   2.12392
   A15        2.01231  -0.00017  -0.00179   0.00577   0.00391   2.01622
   A16        2.14563  -0.00033   0.00080  -0.00415  -0.00343   2.14220
   A17        2.12682  -0.00012   0.00070  -0.00320  -0.00265   2.12417
   A18        2.09471   0.00046   0.00033  -0.00023  -0.00006   2.09464
   A19        2.04777  -0.00040  -0.00041  -0.00246  -0.00302   2.04475
   A20        1.93454  -0.00127   0.00068  -0.00815  -0.00748   1.92706
   A21        1.95516   0.00063   0.00136  -0.00222  -0.00086   1.95430
   A22        1.89300   0.00014  -0.00083   0.00415   0.00332   1.89632
   A23        1.88078   0.00027  -0.00061   0.00377   0.00315   1.88394
   A24        1.93292   0.00063   0.00042   0.00009   0.00052   1.93344
   A25        1.86665  -0.00034  -0.00106   0.00270   0.00164   1.86829
   A26        2.18331  -0.00022   0.00216  -0.00739  -0.00503   2.17828
   A27        1.94756  -0.00248  -0.00483   0.00600   0.00137   1.94892
   A28        2.15223   0.00268   0.00105   0.00115   0.00240   2.15463
   A29        1.88036  -0.00418  -0.00411  -0.00930  -0.01341   1.86695
    D1        0.98587   0.00007   0.00029  -0.00589  -0.00560   0.98028
    D2        3.12212  -0.00016   0.00192  -0.01452  -0.01260   3.10951
    D3       -1.03544  -0.00004   0.00229  -0.01415  -0.01185  -1.04729
    D4        3.08594   0.00006   0.00081  -0.00766  -0.00685   3.07908
    D5       -1.06101  -0.00017   0.00243  -0.01629  -0.01386  -1.07487
    D6        1.06462  -0.00005   0.00281  -0.01592  -0.01311   1.05151
    D7       -1.11188   0.00010   0.00033  -0.00568  -0.00535  -1.11723
    D8        1.02436  -0.00013   0.00195  -0.01430  -0.01236   1.01200
    D9       -3.13320  -0.00001   0.00233  -0.01393  -0.01161   3.13838
   D10        1.37340  -0.00020  -0.00133  -0.11507  -0.11640   1.25700
   D11       -0.76477  -0.00066  -0.00205  -0.11281  -0.11486  -0.87963
   D12       -2.82584  -0.00036  -0.00210  -0.11093  -0.11302  -2.93886
   D13       -1.16380   0.00057  -0.01016   0.06626   0.05610  -1.10770
   D14        1.96497  -0.00001  -0.00208   0.02804   0.02595   1.99092
   D15        1.00554   0.00056  -0.00837   0.05893   0.05057   1.05610
   D16       -2.14887  -0.00003  -0.00029   0.02071   0.02041  -2.12846
   D17        2.99638   0.00048  -0.01011   0.06358   0.05348   3.04986
   D18       -0.15803  -0.00010  -0.00203   0.02536   0.02333  -0.13471
   D19       -3.02320   0.00012  -0.00442   0.01083   0.00641  -3.01679
   D20       -0.06466  -0.00029  -0.00015  -0.02792  -0.02810  -0.09276
   D21        0.10541  -0.00047   0.00376  -0.02787  -0.02408   0.08133
   D22        3.06394  -0.00087   0.00804  -0.06662  -0.05858   3.00536
   D23        2.31636   0.00027  -0.00222   0.02738   0.02518   2.34154
   D24       -1.86541   0.00015  -0.00159   0.02503   0.02346  -1.84195
   D25        0.19083   0.00019  -0.00262   0.02967   0.02707   0.21790
   D26       -0.64687   0.00057  -0.00644   0.06491   0.05845  -0.58842
   D27        1.45455   0.00046  -0.00582   0.06256   0.05673   1.51128
   D28       -2.77239   0.00050  -0.00684   0.06720   0.06034  -2.71205
   D29        0.15136   0.00065   0.01302   0.00399   0.01698   0.16834
   D30       -3.00365  -0.00033  -0.00873  -0.01519  -0.02388  -3.02753
   D31       -1.99373   0.00049   0.01131   0.00938   0.02066  -1.97307
   D32        1.13445  -0.00049  -0.01044  -0.00980  -0.02020   1.11424
   D33        2.25332   0.00040   0.01271   0.00387   0.01655   2.26987
   D34       -0.90169  -0.00058  -0.00904  -0.01531  -0.02431  -0.92600
   D35       -3.07549  -0.00035  -0.00614  -0.01394  -0.01996  -3.09545
   D36        0.05296  -0.00134  -0.02732  -0.03279  -0.06023  -0.00727
         Item               Value     Threshold  Converged?
 Maximum Force            0.004524     0.000450     NO 
 RMS     Force            0.001112     0.000300     NO 
 Maximum Displacement     0.153180     0.001800     NO 
 RMS     Displacement     0.039594     0.001200     NO 
 Predicted change in Energy=-3.629505D-04
 Lowest energy point so far.  Saving SCF results.
 GradGradGradGradGradGradGradGradGradGradGradGradGradGradGradGradGradGrad

 Leave Link  103 at Fri Mar 14 14:23:21 2025, MaxMem=  8589934592 cpu:               2.8 elap:               0.6
 (Enter /home/enzo/gaussian_versions/gdv.j21/gdv/l202.exe)
                          Input orientation:                          
 ---------------------------------------------------------------------
 Center     Atomic      Atomic             Coordinates (Angstroms)
 Number     Number       Type             X           Y           Z
 ---------------------------------------------------------------------
      1          6           0       -2.029109    1.696394   -0.895661
      2          6           0       -1.773415    0.680960    0.223570
      3         16           0       -3.274170   -0.316727    0.632606
      4          6           0       -0.635154   -0.262266   -0.176521
      5          8           0       -0.731906   -1.017561   -1.138795
      6          7           0        0.502965   -0.164501    0.575501
      7          6           0        1.707659   -0.877235    0.224294
      8          6           0        2.911255    0.039318    0.320271
      9          8           0        2.897168    1.153165    0.802183
     10          8           0        4.030596   -0.558823   -0.137593
     11          1           0       -2.862688    2.354159   -0.632334
     12          1           0       -1.135797    2.312167   -1.066593
     13          1           0       -2.271394    1.175651   -1.827292
     14          1           0       -1.527265    1.199730    1.157238
     15          1           0       -3.231265   -1.043496   -0.507839
     16          1           0        0.581076    0.553513    1.284868
     17          1           0        1.884102   -1.739080    0.886036
     18          1           0        1.598648   -1.269506   -0.790876
     19          1           0        4.765774    0.072014   -0.005230
 ---------------------------------------------------------------------
                    Distance matrix (angstroms):
                    1          2          3          4          5
     1  C    0.000000
     2  C    1.532698   0.000000
     3  S    2.817523   1.847960   0.000000
     4  C    2.509307   1.531466   2.760807   0.000000
     5  O    3.017846   2.413659   3.176812   1.227111   0.000000
     6  N    3.469675   2.453685   3.780633   1.367630   2.278471
     7  C    4.673467   3.813902   5.029862   2.455120   2.798067
     8  C    5.350849   4.729397   6.203532   3.593713   4.064295
     9  O    5.238891   4.729918   6.346240   3.929200   4.652916
    10  O    6.510046   5.945927   7.349247   4.675328   4.888177
    11  H    1.094006   2.172253   2.983794   3.466317   4.020600
    12  H    1.098363   2.175297   3.790911   2.769581   3.354911
    13  H    1.094446   2.167657   3.046941   2.733117   2.766627
    14  H    2.170925   1.096106   2.372037   2.170762   3.289489
    15  H    3.017048   2.373612   1.353015   2.731279   2.577901
    16  H    3.588028   2.585773   4.005706   2.068905   3.172749
    17  H    5.503648   4.435413   5.356779   3.107517   3.385857
    18  H    4.687021   4.025448   5.165118   2.526230   2.369812
    19  H    7.042862   6.571466   8.074568   5.413974   5.718097
                    6          7          8          9         10
     6  N    0.000000
     7  C    1.443130   0.000000
     8  C    2.430338   1.515890   0.000000
     9  O    2.742232   2.423099   1.213710   0.000000
    10  O    3.620521   2.372422   1.349198   2.258039   0.000000
    11  H    4.373801   5.662490   6.293200   6.056085   7.499840
    12  H    3.393509   4.463622   4.844364   4.593519   5.983080
    13  H    3.907236   4.925059   5.723909   5.799024   6.751190
    14  H    2.514235   3.955869   4.663425   4.438901   5.971509
    15  H    3.986319   4.995662   6.291964   6.640721   7.287429
    16  H    1.012347   2.107379   2.573826   2.440666   3.893569
    17  H    2.117373   1.100823   2.130219   3.065683   2.654855
    18  H    2.070880   1.093768   2.161158   3.177000   2.616528
    19  H    4.308680   3.210268   1.883152   2.304884   0.977733
                   11         12         13         14         15
    11  H    0.000000
    12  H    1.781150   0.000000
    13  H    1.779447   1.777615   0.000000
    14  H    2.513688   2.517179   3.075992   0.000000
    15  H    3.419855   3.995456   2.754436   3.272333   0.000000
    16  H    4.333301   3.401454   4.267221   2.208843   4.505350
    17  H    6.449191   5.417117   5.755515   4.510829   5.347309
    18  H    5.749748   4.514598   4.693632   4.434367   4.843476
    19  H    7.987169   6.401041   7.352528   6.498109   8.090094
                   16         17         18         19
    16  H    0.000000
    17  H    2.667007   0.000000
    18  H    2.944073   1.764657   0.000000
    19  H    4.405439   3.518302   3.528116   0.000000
 Stoichiometry    C5H9NO3S
 Framework group  C1[X(C5H9NO3S)]
 Deg. of freedom    51
 Full point group                 C1      NOp   1
 RotChk:  IX=0 Diff= 9.43D-03
 Largest Abelian subgroup         C1      NOp   1
 Largest concise Abelian subgroup C1      NOp   1
                         Standard orientation:                         
 ---------------------------------------------------------------------
 Center     Atomic      Atomic             Coordinates (Angstroms)
 Number     Number       Type             X           Y           Z
 ---------------------------------------------------------------------
      1          6           0        2.119316    1.563988    0.963235
      2          6           0        1.789301    0.594102   -0.176754
      3         16           0        3.235188   -0.450030   -0.660648
      4          6           0        0.625660   -0.314477    0.230445
      5          8           0        0.719754   -1.101939    1.166849
      6          7           0       -0.529205   -0.148372   -0.483072
      7          6           0       -1.751194   -0.822603   -0.115948
      8          6           0       -2.918536    0.143939   -0.148113
      9          8           0       -2.873060    1.270458   -0.597534
     10          8           0       -4.047437   -0.422506    0.326291
     11          1           0        2.971006    2.195520    0.693714
     12          1           0        1.257419    2.209584    1.179430
     13          1           0        2.367463    1.005880    1.871393
     14          1           0        1.537152    1.150456   -1.086885
     15          1           0        3.196232   -1.208821    0.458892
     16          1           0       -0.598742    0.593423   -1.168457
     17          1           0       -1.982260   -1.656174   -0.796814
     18          1           0       -1.628422   -1.249600    0.883516
     19          1           0       -4.759739    0.241017    0.235043
 ---------------------------------------------------------------------
 Rotational constants (GHZ):           2.7362741           0.4577561           0.4386139
 Leave Link  202 at Fri Mar 14 14:23:21 2025, MaxMem=  8589934592 cpu:               0.7 elap:               0.3
 (Enter /home/enzo/gaussian_versions/gdv.j21/gdv/l301.exe)
 Standard basis: 6-31G(d) (6D, 7F)
 Ernie: Thresh=  0.10000D-02 Tol=  0.10000D-05 Strict=F.
 There are   172 symmetry adapted cartesian basis functions of A   symmetry.
 There are   172 symmetry adapted basis functions of A   symmetry.
   172 basis functions,   340 primitive gaussians,   172 cartesian basis functions
    43 alpha electrons       43 beta electrons
       nuclear repulsion energy       610.5369466257 Hartrees.
 IExCor=      4002 DFT=T Ex+Corr=B3LYP ScaHFX=  0.200000
 ScaDFX=  0.800000  0.720000  1.000000  0.810000  1.000000  0.000000
 ScaDFX=  0.000000  0.000000  0.000000  0.000000  0.000000  0.000000
 IRadAn=      5 IRanWt=     -1 IRanGd=            0 ICorTp=0 IEmpDi=  4
 NAtoms=   19 NActive=   19 NUniq=   19 SFac= 1.00D+00 NAtFMM=   60 NAOKFM=F Big=F
 Integral buffers will be    131072 words long.
 Raffenetti 2 integral format.
 Two-electron integral symmetry is turned on.
 Leave Link  301 at Fri Mar 14 14:23:21 2025, MaxMem=  8589934592 cpu:               0.5 elap:               0.2
 (Enter /home/enzo/gaussian_versions/gdv.j21/gdv/l302.exe)
 NPDir=0 NMtPBC=     1 NCelOv=     1 NCel=       1 NClECP=     1 NCelD=      1
         NCelK=      1 NCelE2=     1 NClLst=     1 CellRange=     0.0.
 One-electron integrals computed using PRISM.
 One-electron integral symmetry used in STVInt
 NBasis=   172 RedAO= T EigKep=  2.76D-03  NBF=   172
 NBsUse=   172 1.00D-06 EigRej= -1.00D+00 NBFU=   172
 Precomputing XC quadrature grid using
 IXCGrd= 4 IRadAn=           5 IRanWt=          -1 IRanGd=           0 AccXCQ= 0.00D+00.
 Generated NRdTot=       0 NPtTot=      408430 NUsed=           0 NTot=          64
 NSgBfM=   171   171   171   171   171 MxSgAt=    19 MxSgA2=    19 SizInc=   0.000
 NMBTot=     3503 MaxBatPerAtom=       85 MaxMicBPerAtom=      209 NBfPt=            50606930.
 Leave Link  302 at Fri Mar 14 14:23:22 2025, MaxMem=  8589934592 cpu:               4.5 elap:               0.8
 (Enter /home/enzo/gaussian_versions/gdv.j21/gdv/l303.exe)
 DipDrv:  MaxL=1.
 Leave Link  303 at Fri Mar 14 14:23:23 2025, MaxMem=  8589934592 cpu:               0.7 elap:               0.3
 (Enter /home/enzo/gaussian_versions/gdv.j21/gdv/l401.exe)
 Initial guess from the checkpoint file:  "/local/home/enzo/scratch/Gau-2270961.chk"
 B after Tr=    -0.000000    0.000000    0.000000
         Rot=    0.999998   -0.001496   -0.000994    0.001092 Ang=  -0.24 deg.
 AO Guess basis will be translated and rotated to current coordinates.
 JPrj=2 DoOrth=T DoCkMO=T.
 Generating alternative initial guess.
 ExpMin= 1.17D-01 ExpMax= 2.19D+04 ExpMxC= 3.30D+03 IAcc=3 IRadAn=         5 AccDes= 0.00D+00
 Harris functional with IExCor= 4002 and IRadAn=       5 diagonalized for initial guess.
 HarFok:  IExCor=    4002 AccDes= 0.00D+00 IRadAn=         5 IDoV= 1 UseB2=F ITyADJ=14 ICtDFT=  3500011
 FoFCou: FMM=F IPFlag=           0 FMFlag=      100000 FMFlg1=           0
         NFxFlg=           0 DoJE=T BraDBF=F KetDBF=T FulRan=T
         wScrn=  0.000000 ICntrl=       500 IOpCl=  0 I1Cent=   200000004 NGrid=           0
         NMat0=    1 NMatS0=      1 NMatT0=    0 NMatD0=    1 NMtDS0=    0 NMtDT0=    0
 Petite list used in FoFCou.
 Harris En= -874.548146735297    
 Leave Link  401 at Fri Mar 14 14:23:24 2025, MaxMem=  8589934592 cpu:               9.2 elap:               1.4
 (Enter /home/enzo/gaussian_versions/gdv.j21/gdv/l502.exe)
 Integral symmetry usage will be decided dynamically.
 Closed shell SCF:
 Using DIIS extrapolation, IDIIS=  1040.
 NGot=  8589934592 LenX=  8589843591 LenY=  8589813566
 Requested convergence on RMS density matrix=1.00D-08 within 128 cycles.
 Requested convergence on MAX density matrix=1.00D-06.
 Requested convergence on             energy=1.00D-06.
 No special actions if energy rises.
 Fock matrices will be formed incrementally for  20 cycles.
 Integral accuracy reduced to 1.0D-05 until final iterations.

 Cycle   1  Pass 0  IDiag  1:
 FoFJK:  IHMeth= 1 ICntrl=       0 DoSepK=F KAlg= 0 I1Cent=           0 FoldK=F
 IRaf= 890000000 NMat=       1 IRICut=       1 DoRegI=T DoRafI=F ISym2E= 0 IDoP0=0 IntGTp=1.
 FoFCou: FMM=F IPFlag=           0 FMFlag=      100000 FMFlg1=           0
         NFxFlg=           0 DoJE=F BraDBF=F KetDBF=F FulRan=T
         wScrn=  0.000000 ICntrl=         0 IOpCl=  0 I1Cent=           0 NGrid=           0
         NMat0=    1 NMatS0=      1 NMatT0=    0 NMatD0=    1 NMtDS0=    0 NMtDT0=    0
 Symmetry not used in FoFCou.
 E= -874.583985113756    
 DIIS: error= 1.79D-03 at cycle   1 NSaved=   1.
 NSaved= 1 IEnMin= 1 EnMin= -874.583985113756     IErMin= 1 ErrMin= 1.79D-03
 ErrMax= 1.79D-03  0.00D+00 EMaxC= 1.00D-01 BMatC= 1.70D-03 BMatP= 1.70D-03
 IDIUse=3 WtCom= 9.82D-01 WtEn= 1.79D-02
 Coeff-Com:  0.100D+01
 Coeff-En:   0.100D+01
 Coeff:      0.100D+01
 Gap=     1.603 Goal=   None    Shift=    0.000
 GapD=    1.603 DampG=2.000 DampE=1.000 DampFc=2.0000 IDamp=-1.
 RMSDP=5.33D-04 MaxDP=1.46D-02              OVMax= 3.02D-02

 Cycle   2  Pass 0  IDiag  1:
 RMSU=  5.33D-04    CP:  1.00D+00
 E= -874.587600685838     Delta-E=       -0.003615572082 Rises=F Damp=F
 DIIS: error= 2.19D-04 at cycle   2 NSaved=   2.
 NSaved= 2 IEnMin= 2 EnMin= -874.587600685838     IErMin= 2 ErrMin= 2.19D-04
 ErrMax= 2.19D-04  0.00D+00 EMaxC= 1.00D-01 BMatC= 3.29D-05 BMatP= 1.70D-03
 IDIUse=3 WtCom= 9.98D-01 WtEn= 2.19D-03
 Coeff-Com: -0.648D-01 0.106D+01
 Coeff-En:   0.000D+00 0.100D+01
 Coeff:     -0.646D-01 0.106D+01
 Gap=     0.228 Goal=   None    Shift=    0.000
 RMSDP=9.03D-05 MaxDP=2.51D-03 DE=-3.62D-03 OVMax= 4.57D-03

 Cycle   3  Pass 0  IDiag  1:
 RMSU=  7.15D-05    CP:  1.00D+00  1.10D+00
 E= -874.587638049601     Delta-E=       -0.000037363762 Rises=F Damp=F
 DIIS: error= 3.23D-04 at cycle   3 NSaved=   3.
 NSaved= 3 IEnMin= 3 EnMin= -874.587638049601     IErMin= 2 ErrMin= 2.19D-04
 ErrMax= 3.23D-04  0.00D+00 EMaxC= 1.00D-01 BMatC= 2.49D-05 BMatP= 3.29D-05
 IDIUse=3 WtCom= 9.97D-01 WtEn= 3.23D-03
 Coeff-Com: -0.432D-01 0.528D+00 0.515D+00
 Coeff-En:   0.000D+00 0.000D+00 0.100D+01
 Coeff:     -0.431D-01 0.527D+00 0.517D+00
 Gap=     0.226 Goal=   None    Shift=    0.000
 RMSDP=3.75D-05 MaxDP=1.13D-03 DE=-3.74D-05 OVMax= 1.36D-03

 Cycle   4  Pass 0  IDiag  1:
 RMSU=  2.80D-05    CP:  1.00D+00  1.12D+00  6.73D-01
 E= -874.587654887732     Delta-E=       -0.000016838131 Rises=F Damp=F
 DIIS: error= 1.97D-04 at cycle   4 NSaved=   4.
 NSaved= 4 IEnMin= 4 EnMin= -874.587654887732     IErMin= 4 ErrMin= 1.97D-04
 ErrMax= 1.97D-04  0.00D+00 EMaxC= 1.00D-01 BMatC= 5.98D-06 BMatP= 2.49D-05
 IDIUse=3 WtCom= 9.98D-01 WtEn= 1.97D-03
 Coeff-Com: -0.185D-01 0.200D+00 0.341D+00 0.477D+00
 Coeff-En:   0.000D+00 0.000D+00 0.172D+00 0.828D+00
 Coeff:     -0.184D-01 0.200D+00 0.341D+00 0.478D+00
 Gap=     0.226 Goal=   None    Shift=    0.000
 RMSDP=1.57D-05 MaxDP=4.91D-04 DE=-1.68D-05 OVMax= 8.56D-04

 Cycle   5  Pass 0  IDiag  1:
 RMSU=  1.18D-05    CP:  1.00D+00  1.12D+00  7.19D-01  6.55D-01
 E= -874.587659275465     Delta-E=       -0.000004387733 Rises=F Damp=F
 DIIS: error= 4.10D-05 at cycle   5 NSaved=   5.
 NSaved= 5 IEnMin= 5 EnMin= -874.587659275465     IErMin= 5 ErrMin= 4.10D-05
 ErrMax= 4.10D-05  0.00D+00 EMaxC= 1.00D-01 BMatC= 4.65D-07 BMatP= 5.98D-06
 IDIUse=1 WtCom= 1.00D+00 WtEn= 0.00D+00
 Coeff-Com: -0.437D-02 0.410D-01 0.124D+00 0.274D+00 0.565D+00
 Coeff:     -0.437D-02 0.410D-01 0.124D+00 0.274D+00 0.565D+00
 Gap=     0.227 Goal=   None    Shift=    0.000
 RMSDP=5.29D-06 MaxDP=1.41D-04 DE=-4.39D-06 OVMax= 2.98D-04

 Initial convergence to 1.0D-05 achieved.  Increase integral accuracy.
 Cycle   6  Pass 1  IDiag  1:
 E= -874.587657910475     Delta-E=        0.000001364991 Rises=F Damp=F
 DIIS: error= 1.71D-05 at cycle   1 NSaved=   1.
 NSaved= 1 IEnMin= 1 EnMin= -874.587657910475     IErMin= 1 ErrMin= 1.71D-05
 ErrMax= 1.71D-05  0.00D+00 EMaxC= 1.00D-01 BMatC= 7.67D-08 BMatP= 7.67D-08
 IDIUse=1 WtCom= 1.00D+00 WtEn= 0.00D+00
 Coeff-Com:  0.100D+01
 Coeff:      0.100D+01
 Gap=     0.227 Goal=   None    Shift=    0.000
 RMSDP=5.29D-06 MaxDP=1.41D-04 DE= 1.36D-06 OVMax= 1.86D-04

 Cycle   7  Pass 1  IDiag  1:
 RMSU=  6.50D-06    CP:  1.00D+00
 E= -874.587657852909     Delta-E=        0.000000057566 Rises=F Damp=F
 DIIS: error= 2.09D-05 at cycle   2 NSaved=   2.
 NSaved= 2 IEnMin= 1 EnMin= -874.587657910475     IErMin= 1 ErrMin= 1.71D-05
 ErrMax= 2.09D-05  0.00D+00 EMaxC= 1.00D-01 BMatC= 1.50D-07 BMatP= 7.67D-08
 IDIUse=1 WtCom= 1.00D+00 WtEn= 0.00D+00
 Coeff-Com:  0.593D+00 0.407D+00
 Coeff:      0.593D+00 0.407D+00
 Gap=     0.227 Goal=   None    Shift=    0.000
 RMSDP=2.47D-06 MaxDP=7.26D-05 DE= 5.76D-08 OVMax= 1.61D-04

 Cycle   8  Pass 1  IDiag  1:
 RMSU=  2.18D-06    CP:  1.00D+00  8.25D-01
 E= -874.587657978554     Delta-E=       -0.000000125645 Rises=F Damp=F
 DIIS: error= 5.49D-06 at cycle   3 NSaved=   3.
 NSaved= 3 IEnMin= 3 EnMin= -874.587657978554     IErMin= 3 ErrMin= 5.49D-06
 ErrMax= 5.49D-06  0.00D+00 EMaxC= 1.00D-01 BMatC= 7.59D-09 BMatP= 7.67D-08
 IDIUse=1 WtCom= 1.00D+00 WtEn= 0.00D+00
 Coeff-Com:  0.133D+00 0.199D+00 0.668D+00
 Coeff:      0.133D+00 0.199D+00 0.668D+00
 Gap=     0.227 Goal=   None    Shift=    0.000
 RMSDP=7.14D-07 MaxDP=2.03D-05 DE=-1.26D-07 OVMax= 4.00D-05

 Cycle   9  Pass 1  IDiag  1:
 RMSU=  5.83D-07    CP:  1.00D+00  8.58D-01  8.39D-01
 E= -874.587657981652     Delta-E=       -0.000000003098 Rises=F Damp=F
 DIIS: error= 4.63D-06 at cycle   4 NSaved=   4.
 NSaved= 4 IEnMin= 4 EnMin= -874.587657981652     IErMin= 4 ErrMin= 4.63D-06
 ErrMax= 4.63D-06  0.00D+00 EMaxC= 1.00D-01 BMatC= 3.88D-09 BMatP= 7.59D-09
 IDIUse=1 WtCom= 1.00D+00 WtEn= 0.00D+00
 Coeff-Com:  0.607D-02 0.820D-01 0.481D+00 0.431D+00
 Coeff:      0.607D-02 0.820D-01 0.481D+00 0.431D+00
 Gap=     0.227 Goal=   None    Shift=    0.000
 RMSDP=3.24D-07 MaxDP=9.57D-06 DE=-3.10D-09 OVMax= 1.18D-05

 Cycle  10  Pass 1  IDiag  1:
 RMSU=  1.31D-07    CP:  1.00D+00  8.60D-01  8.61D-01  5.01D-01
 E= -874.587657984765     Delta-E=       -0.000000003112 Rises=F Damp=F
 DIIS: error= 2.93D-07 at cycle   5 NSaved=   5.
 NSaved= 5 IEnMin= 5 EnMin= -874.587657984765     IErMin= 5 ErrMin= 2.93D-07
 ErrMax= 2.93D-07  0.00D+00 EMaxC= 1.00D-01 BMatC= 4.44D-11 BMatP= 3.88D-09
 IDIUse=1 WtCom= 1.00D+00 WtEn= 0.00D+00
 Coeff-Com: -0.383D-02 0.274D-01 0.187D+00 0.193D+00 0.597D+00
 Coeff:     -0.383D-02 0.274D-01 0.187D+00 0.193D+00 0.597D+00
 Gap=     0.227 Goal=   None    Shift=    0.000
 RMSDP=5.41D-08 MaxDP=1.87D-06 DE=-3.11D-09 OVMax= 1.39D-06

 Cycle  11  Pass 1  IDiag  1:
 RMSU=  3.90D-08    CP:  1.00D+00  8.62D-01  8.63D-01  4.99D-01  7.23D-01
 E= -874.587657984798     Delta-E=       -0.000000000033 Rises=F Damp=F
 DIIS: error= 6.24D-08 at cycle   6 NSaved=   6.
 NSaved= 6 IEnMin= 6 EnMin= -874.587657984798     IErMin= 6 ErrMin= 6.24D-08
 ErrMax= 6.24D-08  0.00D+00 EMaxC= 1.00D-01 BMatC= 2.42D-12 BMatP= 4.44D-11
 IDIUse=1 WtCom= 1.00D+00 WtEn= 0.00D+00
 Coeff-Com: -0.215D-02 0.868D-02 0.626D-01 0.672D-01 0.261D+00 0.603D+00
 Coeff:     -0.215D-02 0.868D-02 0.626D-01 0.672D-01 0.261D+00 0.603D+00
 Gap=     0.227 Goal=   None    Shift=    0.000
 RMSDP=1.29D-08 MaxDP=3.67D-07 DE=-3.32D-11 OVMax= 4.25D-07

 Cycle  12  Pass 1  IDiag  1:
 RMSU=  1.12D-08    CP:  1.00D+00  8.62D-01  8.64D-01  5.03D-01  7.57D-01
                    CP:  9.11D-01
 E= -874.587657984798     Delta-E=        0.000000000000 Rises=F Damp=F
 DIIS: error= 3.05D-08 at cycle   7 NSaved=   7.
 NSaved= 7 IEnMin= 6 EnMin= -874.587657984798     IErMin= 7 ErrMin= 3.05D-08
 ErrMax= 3.05D-08  0.00D+00 EMaxC= 1.00D-01 BMatC= 3.70D-13 BMatP= 2.42D-12
 IDIUse=1 WtCom= 1.00D+00 WtEn= 0.00D+00
 Coeff-Com: -0.260D-03-0.995D-03-0.609D-02-0.507D-02 0.431D-02 0.271D+00
 Coeff-Com:  0.737D+00
 Coeff:     -0.260D-03-0.995D-03-0.609D-02-0.507D-02 0.431D-02 0.271D+00
 Coeff:      0.737D+00
 Gap=     0.227 Goal=   None    Shift=    0.000
 RMSDP=4.78D-09 MaxDP=1.40D-07 DE= 0.00D+00 OVMax= 2.98D-07

 SCF Done:  E(RB3LYP) =  -874.587657985     A.U. after   12 cycles
            NFock= 12  Conv=0.48D-08     -V/T= 2.0064
 KE= 8.689827208073D+02 PE=-3.280823528798D+03 EE= 9.267162033805D+02
 Leave Link  502 at Fri Mar 14 14:23:32 2025, MaxMem=  8589934592 cpu:              66.2 elap:               8.2
 (Enter /home/enzo/gaussian_versions/gdv.j21/gdv/l701.exe)
 ... and contract with generalized density number  0.
 Compute integral first derivatives.
 Leave Link  701 at Fri Mar 14 14:23:33 2025, MaxMem=  8589934592 cpu:               3.2 elap:               0.7
 (Enter /home/enzo/gaussian_versions/gdv.j21/gdv/l702.exe)
 L702 exits ... SP integral derivatives will be done elsewhere.
 Leave Link  702 at Fri Mar 14 14:23:33 2025, MaxMem=  8589934592 cpu:               0.3 elap:               0.3
 (Enter /home/enzo/gaussian_versions/gdv.j21/gdv/l703.exe)
 Integral derivatives from FoFJK, PRISM(SPDF).
 Compute integral first derivatives, UseDBF=F ICtDFT=           0.
 Calling FoFJK, ICntrl=      2127 FMM=F ISym2X=0 I1Cent= 0 IOpClX= 0 NMat=1 NMatS=1 NMatT=0.
 FoFJK:  IHMeth= 1 ICntrl=    2127 DoSepK=F KAlg= 0 I1Cent=           0 FoldK=F
 IRaf=         0 NMat=       1 IRICut=       1 DoRegI=T DoRafI=F ISym2E= 0 IDoP0=0 IntGTp=1.
 FoFCou: FMM=F IPFlag=           0 FMFlag=      100000 FMFlg1=         800
         NFxFlg=           0 DoJE=F BraDBF=F KetDBF=F FulRan=T
         wScrn=  0.000000 ICntrl=      2127 IOpCl=  0 I1Cent=           0 NGrid=           0
         NMat0=    1 NMatS0=      1 NMatT0=    0 NMatD0=    1 NMtDS0=    0 NMtDT0=    0
 Symmetry not used in FoFCou.
 Leave Link  703 at Fri Mar 14 14:23:36 2025, MaxMem=  8589934592 cpu:              17.4 elap:               2.6
 (Enter /home/enzo/gaussian_versions/gdv.j21/gdv/l716.exe)
 Dipole        =-1.15214734D+00 4.54155022D-01-2.50976524D-01
 ***** Axes restored to original set *****
 -------------------------------------------------------------------
 Center     Atomic                   Forces (Hartrees/Bohr)
 Number     Number              X              Y              Z
 -------------------------------------------------------------------
      1        6          -0.000417434    0.000667204   -0.000332075
      2        6           0.000930837   -0.000251879    0.000506815
      3       16          -0.000425246   -0.000654096   -0.000411176
      4        6           0.003237488   -0.000402002   -0.003024548
      5        8          -0.000376389    0.000905910    0.002120521
      6        7          -0.003632872   -0.000081183    0.000601936
      7        6           0.000164714    0.000218813   -0.000569668
      8        6           0.002470956    0.003366798    0.004839349
      9        8          -0.000463826   -0.002754086   -0.002267986
     10        8          -0.000138950    0.000111939   -0.000803071
     11        1           0.000412627   -0.000287306   -0.000045815
     12        1          -0.000390436   -0.000310058   -0.000088836
     13        1           0.000388258    0.000235487    0.000469768
     14        1          -0.000795541   -0.000116757   -0.000303653
     15        1           0.000083417    0.000477978    0.001246482
     16        1           0.000883936   -0.000505504   -0.001302623
     17        1           0.000316655    0.000111962   -0.000884225
     18        1          -0.000406092   -0.000112610    0.000212838
     19        1          -0.001842100   -0.000620608    0.000035968
 -------------------------------------------------------------------
 Cartesian Forces:  Max     0.004839349 RMS     0.001373229
 Leave Link  716 at Fri Mar 14 14:23:36 2025, MaxMem=  8589934592 cpu:               0.3 elap:               0.3
 (Enter /home/enzo/gaussian_versions/gdv.j21/gdv/l103.exe)

 GradGradGradGradGradGradGradGradGradGradGradGradGradGradGradGradGradGrad
 Berny optimization.
 Using GEDIIS/GDIIS optimizer.
 FormGI is forming the generalized inverse of G from B-inverse, IUseBI=4.
 Internal  Forces:  Max     0.003422558 RMS     0.000773067
 Search for a local minimum.
 Step number   7 out of a maximum of   93
 All quantities printed in internal units (Hartrees-Bohrs-Radians)
 RMS Force = .77307D-03 SwitMx=.10000D-02 MixMth= 2
 Mixed Optimization -- En-DIIS/RFO-DIIS
 Update second derivatives using D2CorX and points    4    5    6    7
 DE= -3.09D-04 DEPred=-3.63D-04 R= 8.52D-01
 TightC=F SS=  1.41D+00  RLast= 2.74D-01 DXNew= 2.4000D+00 8.2150D-01
 Trust test= 8.52D-01 RLast= 2.74D-01 DXMaxT set to 1.43D+00
 ITU=  1  1  0  1  1  1  0
 Use linear search instead of GDIIS.
     Eigenvalues ---    0.00223   0.00370   0.00466   0.00821   0.00865
     Eigenvalues ---    0.01093   0.01248   0.01680   0.02606   0.04290
     Eigenvalues ---    0.04968   0.05430   0.05570   0.05675   0.05756
     Eigenvalues ---    0.06710   0.07873   0.09779   0.13545   0.15679
     Eigenvalues ---    0.15999   0.16001   0.16014   0.16107   0.16573
     Eigenvalues ---    0.17640   0.20023   0.21572   0.22101   0.22307
     Eigenvalues ---    0.24165   0.24817   0.25135   0.25882   0.26833
     Eigenvalues ---    0.29980   0.31514   0.32583   0.32595   0.32612
     Eigenvalues ---    0.32634   0.32645   0.32976   0.33006   0.37250
     Eigenvalues ---    0.40640   0.42663   0.46291   0.51079   0.80250
     Eigenvalues ---    0.84812
 RFO step:  Lambda=-5.12347619D-04 EMin= 2.23359938D-03
 Quartic linear search produced a step of -0.08963.
 Iteration  1 RMS(Cart)=  0.08021738 RMS(Int)=  0.00197796
 Iteration  2 RMS(Cart)=  0.00298302 RMS(Int)=  0.00011678
 Iteration  3 RMS(Cart)=  0.00000307 RMS(Int)=  0.00011677
 Iteration  4 RMS(Cart)=  0.00000000 RMS(Int)=  0.00011677
 Variable       Old X    -DE/DX   Delta X   Delta X   Delta X     New X
                                 (Linear)    (Quad)   (Total)
    R1        2.89638   0.00020   0.00015  -0.00273  -0.00257   2.89381
    R2        2.06737  -0.00050  -0.00003   0.00025   0.00022   2.06759
    R3        2.07560  -0.00048  -0.00005   0.00042   0.00036   2.07597
    R4        2.06820  -0.00060   0.00000  -0.00040  -0.00039   2.06781
    R5        3.49214   0.00056  -0.00012   0.00232   0.00221   3.49434
    R6        2.89405   0.00028   0.00037  -0.00576  -0.00539   2.88866
    R7        2.07134  -0.00049   0.00000  -0.00014  -0.00014   2.07120
    R8        2.55683  -0.00131  -0.00008   0.00006  -0.00002   2.55681
    R9        2.31890  -0.00219  -0.00008   0.00118   0.00110   2.32000
   R10        2.58445  -0.00230   0.00020  -0.00271  -0.00251   2.58193
   R11        2.72712  -0.00021  -0.00005   0.00119   0.00114   2.72826
   R12        1.91306  -0.00120  -0.00006   0.00066   0.00061   1.91367
   R13        2.86462   0.00020   0.00046  -0.00628  -0.00583   2.85879
   R14        2.08025  -0.00057   0.00002  -0.00081  -0.00079   2.07947
   R15        2.06692  -0.00012  -0.00006   0.00116   0.00110   2.06802
   R16        2.29358  -0.00342  -0.00020   0.00303   0.00283   2.29641
   R17        2.54961  -0.00116   0.00074  -0.01072  -0.00998   2.53963
   R18        1.84765  -0.00178   0.00004  -0.00042  -0.00038   1.84726
    A1        1.92802  -0.00004  -0.00002   0.00007   0.00005   1.92807
    A2        1.92771   0.00013  -0.00006   0.00109   0.00102   1.92874
    A3        1.92123  -0.00010   0.00007  -0.00106  -0.00099   1.92024
    A4        1.89662  -0.00000   0.00013  -0.00175  -0.00161   1.89500
    A5        1.89894   0.00014  -0.00001   0.00133   0.00132   1.90027
    A6        1.89054  -0.00014  -0.00011   0.00032   0.00021   1.89075
    A7        1.96474   0.00051   0.00030  -0.00329  -0.00299   1.96175
    A8        1.91906  -0.00026  -0.00034   0.00561   0.00526   1.92432
    A9        1.92402  -0.00011  -0.00010   0.00030   0.00019   1.92421
   A10        1.90595   0.00000   0.00052  -0.00676  -0.00624   1.89972
   A11        1.82281  -0.00058  -0.00055   0.00304   0.00250   1.82530
   A12        1.92529   0.00044   0.00018   0.00085   0.00102   1.92631
   A13        1.64855   0.00013   0.00039  -0.00508  -0.00469   1.64386
   A14        2.12392   0.00007   0.00011  -0.00176  -0.00210   2.12182
   A15        2.01622  -0.00082  -0.00035   0.00649   0.00569   2.02191
   A16        2.14220   0.00078   0.00031  -0.00267  -0.00281   2.13939
   A17        2.12417   0.00017   0.00024  -0.00374  -0.00378   2.12039
   A18        2.09464   0.00070   0.00001   0.00220   0.00190   2.09654
   A19        2.04475  -0.00089   0.00027  -0.00738  -0.00738   2.03737
   A20        1.92706  -0.00002   0.00067  -0.00924  -0.00857   1.91849
   A21        1.95430   0.00063   0.00008  -0.00035  -0.00029   1.95401
   A22        1.89632  -0.00048  -0.00030   0.00350   0.00321   1.89953
   A23        1.88394  -0.00059  -0.00028   0.00135   0.00106   1.88499
   A24        1.93344   0.00073  -0.00005   0.00405   0.00401   1.93745
   A25        1.86829  -0.00025  -0.00015   0.00109   0.00094   1.86923
   A26        2.17828   0.00048   0.00045  -0.00575  -0.00557   2.17271
   A27        1.94892  -0.00156  -0.00012   0.00485   0.00446   1.95338
   A28        2.15463   0.00114  -0.00021   0.00289   0.00241   2.15704
   A29        1.86695  -0.00144   0.00120  -0.01467  -0.01347   1.85348
    D1        0.98028  -0.00021   0.00050  -0.01065  -0.01015   0.97013
    D2        3.10951  -0.00005   0.00113  -0.01757  -0.01644   3.09307
    D3       -1.04729   0.00026   0.00106  -0.01261  -0.01154  -1.05884
    D4        3.07908  -0.00016   0.00061  -0.01209  -0.01147   3.06761
    D5       -1.07487   0.00001   0.00124  -0.01900  -0.01776  -1.09263
    D6        1.05151   0.00032   0.00118  -0.01404  -0.01286   1.03864
    D7       -1.11723  -0.00031   0.00048  -0.01168  -0.01119  -1.12842
    D8        1.01200  -0.00014   0.00111  -0.01859  -0.01749   0.99452
    D9        3.13838   0.00017   0.00104  -0.01363  -0.01259   3.12580
   D10        1.25700   0.00032   0.01043  -0.03949  -0.02905   1.22795
   D11       -0.87963   0.00031   0.01030  -0.03961  -0.02932  -0.90895
   D12       -2.93886   0.00010   0.01013  -0.03898  -0.02885  -2.96771
   D13       -1.10770  -0.00032  -0.00503   0.05211   0.04709  -1.06062
   D14        1.99092   0.00060  -0.00233   0.10438   0.10207   2.09299
   D15        1.05610   0.00015  -0.00453   0.04717   0.04263   1.09873
   D16       -2.12846   0.00107  -0.00183   0.09944   0.09761  -2.03085
   D17        3.04986  -0.00030  -0.00479   0.04747   0.04267   3.09253
   D18       -0.13471   0.00062  -0.00209   0.09974   0.09765  -0.03705
   D19       -3.01679  -0.00030  -0.00057  -0.02902  -0.02953  -3.04632
   D20       -0.09276  -0.00056   0.00252  -0.07867  -0.07620  -0.16896
   D21        0.08133   0.00062   0.00216   0.02389   0.02609   0.10742
   D22        3.00536   0.00036   0.00525  -0.02577  -0.02058   2.98478
   D23        2.34154   0.00064  -0.00226   0.05781   0.05560   2.39714
   D24       -1.84195   0.00030  -0.00210   0.05296   0.05092  -1.79103
   D25        0.21790   0.00006  -0.00243   0.05632   0.05395   0.27186
   D26       -0.58842   0.00071  -0.00524   0.10498   0.09968  -0.48874
   D27        1.51128   0.00037  -0.00508   0.10013   0.09499   1.60627
   D28       -2.71205   0.00013  -0.00541   0.10350   0.09803  -2.61402
   D29        0.16834  -0.00033  -0.00152  -0.02616  -0.02765   0.14069
   D30       -3.02753   0.00070   0.00214   0.01415   0.01627  -3.01127
   D31       -1.97307  -0.00071  -0.00185  -0.02084  -0.02266  -1.99574
   D32        1.11424   0.00031   0.00181   0.01947   0.02125   1.13549
   D33        2.26987  -0.00047  -0.00148  -0.02521  -0.02666   2.24321
   D34       -0.92600   0.00056   0.00218   0.01511   0.01725  -0.90875
   D35       -3.09545  -0.00053   0.00179  -0.06264  -0.06095   3.12678
   D36       -0.00727   0.00046   0.00540  -0.02329  -0.01779  -0.02506
         Item               Value     Threshold  Converged?
 Maximum Force            0.003423     0.000450     NO 
 RMS     Force            0.000773     0.000300     NO 
 Maximum Displacement     0.225937     0.001800     NO 
 RMS     Displacement     0.080480     0.001200     NO 
 Predicted change in Energy=-2.843851D-04
 Lowest energy point so far.  Saving SCF results.
 GradGradGradGradGradGradGradGradGradGradGradGradGradGradGradGradGradGrad

 Leave Link  103 at Fri Mar 14 14:23:37 2025, MaxMem=  8589934592 cpu:               1.3 elap:               0.3
 (Enter /home/enzo/gaussian_versions/gdv.j21/gdv/l202.exe)
                          Input orientation:                          
 ---------------------------------------------------------------------
 Center     Atomic      Atomic             Coordinates (Angstroms)
 Number     Number       Type             X           Y           Z
 ---------------------------------------------------------------------
      1          6           0       -2.097699    1.685478   -0.920899
      2          6           0       -1.751096    0.714090    0.211030
      3         16           0       -3.197533   -0.319071    0.720603
      4          6           0       -0.610168   -0.209667   -0.215127
      5          8           0       -0.719629   -0.964816   -1.176895
      6          7           0        0.521802   -0.149130    0.547603
      7          6           0        1.713420   -0.880668    0.188068
      8          6           0        2.933504   -0.008952    0.388302
      9          8           0        2.919085    1.082820    0.921744
     10          8           0        4.048889   -0.590808   -0.084420
     11          1           0       -2.946372    2.315451   -0.638068
     12          1           0       -1.240514    2.334136   -1.147392
     13          1           0       -2.356547    1.128463   -1.826486
     14          1           0       -1.475592    1.268383    1.115542
     15          1           0       -3.204686   -1.048014   -0.419228
     16          1           0        0.626490    0.577696    1.244928
     17          1           0        1.839434   -1.787469    0.798584
     18          1           0        1.628767   -1.203629   -0.854107
     19          1           0        4.775524    0.043583    0.074052
 ---------------------------------------------------------------------
                    Distance matrix (angstroms):
                    1          2          3          4          5
     1  C    0.000000
     2  C    1.531336   0.000000
     3  S    2.814673   1.849127   0.000000
     4  C    2.510465   1.528612   2.753547   0.000000
     5  O    2.998111   2.410184   3.187083   1.227693   0.000000
     6  N    3.519100   2.454485   3.727233   1.366301   2.276046
     7  C    4.726472   3.814008   4.971564   2.451912   2.791045
     8  C    5.467916   4.743384   6.147863   3.600281   4.087652
     9  O    5.378350   4.738319   6.278438   3.926656   4.673044
    10  O    6.607701   5.952300   7.296063   4.676448   4.906337
    11  H    1.094123   2.171176   2.974857   3.465970   4.001108
    12  H    1.098554   2.174983   3.789306   2.781616   3.339951
    13  H    1.094238   2.165583   3.047996   2.727071   2.735560
    14  H    2.169810   1.096031   2.375094   2.168933   3.288453
    15  H    2.991500   2.369633   1.353005   2.734229   2.599325
    16  H    3.652286   2.596240   3.962608   2.069064   3.171215
    17  H    5.524400   4.415306   5.247220   3.085064   3.335877
    18  H    4.715713   4.029347   5.153187   2.531617   2.382475
    19  H    7.136311   6.562401   8.007446   5.399392   5.725246
                    6          7          8          9         10
     6  N    0.000000
     7  C    1.443734   0.000000
     8  C    2.421020   1.512808   0.000000
     9  O    2.721149   2.418097   1.215210   0.000000
    10  O    3.610385   2.369110   1.343914   2.256071   0.000000
    11  H    4.416809   5.710634   6.405406   6.193220   7.595166
    12  H    3.485021   4.565539   5.027011   4.811380   6.137019
    13  H    3.943785   4.965851   5.846678   5.948710   6.857136
    14  H    2.514255   3.955809   4.647644   4.402860   5.951167
    15  H    3.953412   4.958284   6.277669   6.621120   7.275678
    16  H    1.012669   2.103615   2.529877   2.369724   3.852971
    17  H    2.117381   1.100407   2.128014   3.069100   2.663340
    18  H    2.074158   1.094349   2.161752   3.169608   2.612462
    19  H    4.284337   3.200581   1.869371   2.290188   0.977530
                   11         12         13         14         15
    11  H    0.000000
    12  H    1.780369   0.000000
    13  H    1.780217   1.777736   0.000000
    14  H    2.516882   2.512362   3.074279   0.000000
    15  H    3.380460   3.978333   2.727044   3.272763   0.000000
    16  H    4.396682   3.506277   4.316879   2.216425   4.482216
    17  H    6.465435   5.500957   5.744555   4.519745   5.241470
    18  H    5.776027   4.564490   4.718782   4.430283   4.855472
    19  H    8.080605   6.552196   7.460258   6.454556   8.069613
                   16         17         18         19
    16  H    0.000000
    17  H    2.695266   0.000000
    18  H    2.929783   1.765400   0.000000
    19  H    4.344043   3.535297   3.509857   0.000000
 Stoichiometry    C5H9NO3S
 Framework group  C1[X(C5H9NO3S)]
 Deg. of freedom    51
 Full point group                 C1      NOp   1
 RotChk:  IX=0 Diff= 2.11D-02
 Largest Abelian subgroup         C1      NOp   1
 Largest concise Abelian subgroup C1      NOp   1
                         Standard orientation:                         
 ---------------------------------------------------------------------
 Center     Atomic      Atomic             Coordinates (Angstroms)
 Number     Number       Type             X           Y           Z
 ---------------------------------------------------------------------
      1          6           0        2.232661    1.517911    1.002333
      2          6           0        1.794934    0.608578   -0.149405
      3         16           0        3.165681   -0.477756   -0.749571
      4          6           0        0.622935   -0.270631    0.286557
      5          8           0        0.726892   -1.065811    1.216133
      6          7           0       -0.530917   -0.123576   -0.430225
      7          6           0       -1.745763   -0.805861   -0.052068
      8          6           0       -2.924605    0.134246   -0.175030
      9          8           0       -2.871817    1.243003   -0.669607
     10          8           0       -4.051420   -0.406806    0.318585
     11          1           0        3.102660    2.113586    0.710137
     12          1           0        1.419540    2.200827    1.283905
     13          1           0        2.494128    0.914892    1.877182
     14          1           0        1.516741    1.209697   -1.022646
     15          1           0        3.175310   -1.248179    0.362624
     16          1           0       -0.622112    0.633213   -1.096898
     17          1           0       -1.941230   -1.681549   -0.689140
     18          1           0       -1.640898   -1.171455    0.974063
     19          1           0       -4.748827    0.269550    0.210270
 ---------------------------------------------------------------------
 Rotational constants (GHZ):           2.6886830           0.4570565           0.4425029
 Leave Link  202 at Fri Mar 14 14:23:37 2025, MaxMem=  8589934592 cpu:               0.5 elap:               0.3
 (Enter /home/enzo/gaussian_versions/gdv.j21/gdv/l301.exe)
 Standard basis: 6-31G(d) (6D, 7F)
 Ernie: Thresh=  0.10000D-02 Tol=  0.10000D-05 Strict=F.
 There are   172 symmetry adapted cartesian basis functions of A   symmetry.
 There are   172 symmetry adapted basis functions of A   symmetry.
   172 basis functions,   340 primitive gaussians,   172 cartesian basis functions
    43 alpha electrons       43 beta electrons
       nuclear repulsion energy       611.0027073829 Hartrees.
 IExCor=      4002 DFT=T Ex+Corr=B3LYP ScaHFX=  0.200000
 ScaDFX=  0.800000  0.720000  1.000000  0.810000  1.000000  0.000000
 ScaDFX=  0.000000  0.000000  0.000000  0.000000  0.000000  0.000000
 IRadAn=      5 IRanWt=     -1 IRanGd=            0 ICorTp=0 IEmpDi=  4
 NAtoms=   19 NActive=   19 NUniq=   19 SFac= 1.00D+00 NAtFMM=   60 NAOKFM=F Big=F
 Integral buffers will be    131072 words long.
 Raffenetti 2 integral format.
 Two-electron integral symmetry is turned on.
 Leave Link  301 at Fri Mar 14 14:23:37 2025, MaxMem=  8589934592 cpu:               0.5 elap:               0.4
 (Enter /home/enzo/gaussian_versions/gdv.j21/gdv/l302.exe)
 NPDir=0 NMtPBC=     1 NCelOv=     1 NCel=       1 NClECP=     1 NCelD=      1
         NCelK=      1 NCelE2=     1 NClLst=     1 CellRange=     0.0.
 One-electron integrals computed using PRISM.
 One-electron integral symmetry used in STVInt
 NBasis=   172 RedAO= T EigKep=  2.70D-03  NBF=   172
 NBsUse=   172 1.00D-06 EigRej= -1.00D+00 NBFU=   172
 Precomputing XC quadrature grid using
 IXCGrd= 4 IRadAn=           5 IRanWt=          -1 IRanGd=           0 AccXCQ= 0.00D+00.
 Generated NRdTot=       0 NPtTot=      408404 NUsed=           0 NTot=          64
 NSgBfM=   171   171   171   171   171 MxSgAt=    19 MxSgA2=    19 SizInc=   0.000
 NMBTot=     3497 MaxBatPerAtom=       85 MaxMicBPerAtom=      209 NBfPt=            50485885.
 Leave Link  302 at Fri Mar 14 14:23:38 2025, MaxMem=  8589934592 cpu:               4.5 elap:               0.8
 (Enter /home/enzo/gaussian_versions/gdv.j21/gdv/l303.exe)
 DipDrv:  MaxL=1.
 Leave Link  303 at Fri Mar 14 14:23:38 2025, MaxMem=  8589934592 cpu:               0.5 elap:               0.2
 (Enter /home/enzo/gaussian_versions/gdv.j21/gdv/l401.exe)
 Initial guess from the checkpoint file:  "/local/home/enzo/scratch/Gau-2270961.chk"
 B after Tr=    -0.000000   -0.000000   -0.000000
         Rot=    0.999984    0.002579   -0.003465    0.003633 Ang=   0.65 deg.
 AO Guess basis will be translated and rotated to current coordinates.
 JPrj=2 DoOrth=T DoCkMO=T.
 Generating alternative initial guess.
 ExpMin= 1.17D-01 ExpMax= 2.19D+04 ExpMxC= 3.30D+03 IAcc=3 IRadAn=         5 AccDes= 0.00D+00
 Harris functional with IExCor= 4002 and IRadAn=       5 diagonalized for initial guess.
 HarFok:  IExCor=    4002 AccDes= 0.00D+00 IRadAn=         5 IDoV= 1 UseB2=F ITyADJ=14 ICtDFT=  3500011
 FoFCou: FMM=F IPFlag=           0 FMFlag=      100000 FMFlg1=           0
         NFxFlg=           0 DoJE=T BraDBF=F KetDBF=T FulRan=T
         wScrn=  0.000000 ICntrl=       500 IOpCl=  0 I1Cent=   200000004 NGrid=           0
         NMat0=    1 NMatS0=      1 NMatT0=    0 NMatD0=    1 NMtDS0=    0 NMtDT0=    0
 Petite list used in FoFCou.
 Harris En= -874.548233235555    
 Leave Link  401 at Fri Mar 14 14:23:40 2025, MaxMem=  8589934592 cpu:              11.4 elap:               1.7
 (Enter /home/enzo/gaussian_versions/gdv.j21/gdv/l502.exe)
 Integral symmetry usage will be decided dynamically.
 Closed shell SCF:
 Using DIIS extrapolation, IDIIS=  1040.
 NGot=  8589934592 LenX=  8589843591 LenY=  8589813566
 Requested convergence on RMS density matrix=1.00D-08 within 128 cycles.
 Requested convergence on MAX density matrix=1.00D-06.
 Requested convergence on             energy=1.00D-06.
 No special actions if energy rises.
 Fock matrices will be formed incrementally for  20 cycles.
 Integral accuracy reduced to 1.0D-05 until final iterations.

 Cycle   1  Pass 0  IDiag  1:
 FoFJK:  IHMeth= 1 ICntrl=       0 DoSepK=F KAlg= 0 I1Cent=           0 FoldK=F
 IRaf= 890000000 NMat=       1 IRICut=       1 DoRegI=T DoRafI=F ISym2E= 0 IDoP0=0 IntGTp=1.
 FoFCou: FMM=F IPFlag=           0 FMFlag=      100000 FMFlg1=           0
         NFxFlg=           0 DoJE=F BraDBF=F KetDBF=F FulRan=T
         wScrn=  0.000000 ICntrl=         0 IOpCl=  0 I1Cent=           0 NGrid=           0
         NMat0=    1 NMatS0=      1 NMatT0=    0 NMatD0=    1 NMtDS0=    0 NMtDT0=    0
 Symmetry not used in FoFCou.
 E= -874.580615343020    
 DIIS: error= 3.15D-03 at cycle   1 NSaved=   1.
 NSaved= 1 IEnMin= 1 EnMin= -874.580615343020     IErMin= 1 ErrMin= 3.15D-03
 ErrMax= 3.15D-03  0.00D+00 EMaxC= 1.00D-01 BMatC= 3.45D-03 BMatP= 3.45D-03
 IDIUse=3 WtCom= 9.68D-01 WtEn= 3.15D-02
 Coeff-Com:  0.100D+01
 Coeff-En:   0.100D+01
 Coeff:      0.100D+01
 Gap=     1.603 Goal=   None    Shift=    0.000
 GapD=    1.603 DampG=2.000 DampE=1.000 DampFc=2.0000 IDamp=-1.
 RMSDP=6.52D-04 MaxDP=1.05D-02              OVMax= 2.13D-02

 Cycle   2  Pass 0  IDiag  1:
 RMSU=  6.52D-04    CP:  1.00D+00
 E= -874.587751825762     Delta-E=       -0.007136482742 Rises=F Damp=F
 DIIS: error= 4.17D-04 at cycle   2 NSaved=   2.
 NSaved= 2 IEnMin= 2 EnMin= -874.587751825762     IErMin= 2 ErrMin= 4.17D-04
 ErrMax= 4.17D-04  0.00D+00 EMaxC= 1.00D-01 BMatC= 6.15D-05 BMatP= 3.45D-03
 IDIUse=3 WtCom= 9.96D-01 WtEn= 4.17D-03
 Coeff-Com: -0.636D-01 0.106D+01
 Coeff-En:   0.000D+00 0.100D+01
 Coeff:     -0.633D-01 0.106D+01
 Gap=     0.227 Goal=   None    Shift=    0.000
 RMSDP=1.08D-04 MaxDP=2.34D-03 DE=-7.14D-03 OVMax= 3.24D-03

 Cycle   3  Pass 0  IDiag  1:
 RMSU=  9.81D-05    CP:  1.00D+00  1.07D+00
 E= -874.587814954032     Delta-E=       -0.000063128270 Rises=F Damp=F
 DIIS: error= 3.86D-04 at cycle   3 NSaved=   3.
 NSaved= 3 IEnMin= 3 EnMin= -874.587814954032     IErMin= 3 ErrMin= 3.86D-04
 ErrMax= 3.86D-04  0.00D+00 EMaxC= 1.00D-01 BMatC= 4.26D-05 BMatP= 6.15D-05
 IDIUse=3 WtCom= 9.96D-01 WtEn= 3.86D-03
 Coeff-Com: -0.406D-01 0.515D+00 0.525D+00
 Coeff-En:   0.000D+00 0.000D+00 0.100D+01
 Coeff:     -0.404D-01 0.513D+00 0.527D+00
 Gap=     0.226 Goal=   None    Shift=    0.000
 RMSDP=5.23D-05 MaxDP=1.25D-03 DE=-6.31D-05 OVMax= 1.73D-03

 Cycle   4  Pass 0  IDiag  1:
 RMSU=  3.34D-05    CP:  1.00D+00  1.09D+00  6.13D-01
 E= -874.587848347859     Delta-E=       -0.000033393827 Rises=F Damp=F
 DIIS: error= 2.01D-04 at cycle   4 NSaved=   4.
 NSaved= 4 IEnMin= 4 EnMin= -874.587848347859     IErMin= 4 ErrMin= 2.01D-04
 ErrMax= 2.01D-04  0.00D+00 EMaxC= 1.00D-01 BMatC= 8.12D-06 BMatP= 4.26D-05
 IDIUse=3 WtCom= 9.98D-01 WtEn= 2.01D-03
 Coeff-Com: -0.168D-01 0.192D+00 0.325D+00 0.500D+00
 Coeff-En:   0.000D+00 0.000D+00 0.107D+00 0.893D+00
 Coeff:     -0.168D-01 0.191D+00 0.325D+00 0.501D+00
 Gap=     0.226 Goal=   None    Shift=    0.000
 RMSDP=1.81D-05 MaxDP=5.96D-04 DE=-3.34D-05 OVMax= 8.05D-04

 Cycle   5  Pass 0  IDiag  1:
 RMSU=  1.37D-05    CP:  1.00D+00  1.09D+00  6.38D-01  6.57D-01
 E= -874.587854334049     Delta-E=       -0.000005986190 Rises=F Damp=F
 DIIS: error= 6.03D-05 at cycle   5 NSaved=   5.
 NSaved= 5 IEnMin= 5 EnMin= -874.587854334049     IErMin= 5 ErrMin= 6.03D-05
 ErrMax= 6.03D-05  0.00D+00 EMaxC= 1.00D-01 BMatC= 8.73D-07 BMatP= 8.12D-06
 IDIUse=1 WtCom= 1.00D+00 WtEn= 0.00D+00
 Coeff-Com: -0.530D-02 0.547D-01 0.135D+00 0.302D+00 0.514D+00
 Coeff:     -0.530D-02 0.547D-01 0.135D+00 0.302D+00 0.514D+00
 Gap=     0.226 Goal=   None    Shift=    0.000
 RMSDP=7.07D-06 MaxDP=1.92D-04 DE=-5.99D-06 OVMax= 4.45D-04

 Initial convergence to 1.0D-05 achieved.  Increase integral accuracy.
 Cycle   6  Pass 1  IDiag  1:
 E= -874.587861906742     Delta-E=       -0.000007572694 Rises=F Damp=F
 DIIS: error= 1.63D-05 at cycle   1 NSaved=   1.
 NSaved= 1 IEnMin= 1 EnMin= -874.587861906742     IErMin= 1 ErrMin= 1.63D-05
 ErrMax= 1.63D-05  0.00D+00 EMaxC= 1.00D-01 BMatC= 1.40D-07 BMatP= 1.40D-07
 IDIUse=1 WtCom= 1.00D+00 WtEn= 0.00D+00
 Coeff-Com:  0.100D+01
 Coeff:      0.100D+01
 Gap=     0.226 Goal=   None    Shift=    0.000
 RMSDP=7.07D-06 MaxDP=1.92D-04 DE=-7.57D-06 OVMax= 3.71D-04

 Cycle   7  Pass 1  IDiag  1:
 RMSU=  7.75D-06    CP:  1.00D+00
 E= -874.587861670796     Delta-E=        0.000000235946 Rises=F Damp=F
 DIIS: error= 3.58D-05 at cycle   2 NSaved=   2.
 NSaved= 2 IEnMin= 1 EnMin= -874.587861906742     IErMin= 1 ErrMin= 1.63D-05
 ErrMax= 3.58D-05  0.00D+00 EMaxC= 1.00D-01 BMatC= 4.29D-07 BMatP= 1.40D-07
 IDIUse=1 WtCom= 1.00D+00 WtEn= 0.00D+00
 Coeff-Com:  0.645D+00 0.355D+00
 Coeff:      0.645D+00 0.355D+00
 Gap=     0.226 Goal=   None    Shift=    0.000
 RMSDP=3.93D-06 MaxDP=1.28D-04 DE= 2.36D-07 OVMax= 2.82D-04

 Cycle   8  Pass 1  IDiag  1:
 RMSU=  2.79D-06    CP:  1.00D+00  6.44D-01
 E= -874.587862026387     Delta-E=       -0.000000355591 Rises=F Damp=F
 DIIS: error= 7.58D-06 at cycle   3 NSaved=   3.
 NSaved= 3 IEnMin= 3 EnMin= -874.587862026387     IErMin= 3 ErrMin= 7.58D-06
 ErrMax= 7.58D-06  0.00D+00 EMaxC= 1.00D-01 BMatC= 1.05D-08 BMatP= 1.40D-07
 IDIUse=1 WtCom= 1.00D+00 WtEn= 0.00D+00
 Coeff-Com:  0.203D+00 0.170D+00 0.627D+00
 Coeff:      0.203D+00 0.170D+00 0.627D+00
 Gap=     0.226 Goal=   None    Shift=    0.000
 RMSDP=8.01D-07 MaxDP=2.42D-05 DE=-3.56D-07 OVMax= 3.21D-05

 Cycle   9  Pass 1  IDiag  1:
 RMSU=  7.14D-07    CP:  1.00D+00  6.72D-01  8.98D-01
 E= -874.587862031479     Delta-E=       -0.000000005091 Rises=F Damp=F
 DIIS: error= 3.90D-06 at cycle   4 NSaved=   4.
 NSaved= 4 IEnMin= 4 EnMin= -874.587862031479     IErMin= 4 ErrMin= 3.90D-06
 ErrMax= 3.90D-06  0.00D+00 EMaxC= 1.00D-01 BMatC= 3.96D-09 BMatP= 1.05D-08
 IDIUse=1 WtCom= 1.00D+00 WtEn= 0.00D+00
 Coeff-Com:  0.143D-01 0.485D-01 0.424D+00 0.513D+00
 Coeff:      0.143D-01 0.485D-01 0.424D+00 0.513D+00
 Gap=     0.226 Goal=   None    Shift=    0.000
 RMSDP=3.48D-07 MaxDP=8.95D-06 DE=-5.09D-09 OVMax= 1.30D-05

 Cycle  10  Pass 1  IDiag  1:
 RMSU=  1.74D-07    CP:  1.00D+00  6.79D-01  9.18D-01  5.91D-01
 E= -874.587862034816     Delta-E=       -0.000000003337 Rises=F Damp=F
 DIIS: error= 3.53D-07 at cycle   5 NSaved=   5.
 NSaved= 5 IEnMin= 5 EnMin= -874.587862034816     IErMin= 5 ErrMin= 3.53D-07
 ErrMax= 3.53D-07  0.00D+00 EMaxC= 1.00D-01 BMatC= 6.96D-11 BMatP= 3.96D-09
 IDIUse=1 WtCom= 1.00D+00 WtEn= 0.00D+00
 Coeff-Com: -0.423D-02 0.130D-01 0.160D+00 0.228D+00 0.603D+00
 Coeff:     -0.423D-02 0.130D-01 0.160D+00 0.228D+00 0.603D+00
 Gap=     0.226 Goal=   None    Shift=    0.000
 RMSDP=6.19D-08 MaxDP=1.08D-06 DE=-3.34D-09 OVMax= 1.43D-06

 Cycle  11  Pass 1  IDiag  1:
 RMSU=  4.14D-08    CP:  1.00D+00  6.80D-01  9.18D-01  5.94D-01  7.39D-01
 E= -874.587862034890     Delta-E=       -0.000000000075 Rises=F Damp=F
 DIIS: error= 1.22D-07 at cycle   6 NSaved=   6.
 NSaved= 6 IEnMin= 6 EnMin= -874.587862034890     IErMin= 6 ErrMin= 1.22D-07
 ErrMax= 1.22D-07  0.00D+00 EMaxC= 1.00D-01 BMatC= 5.07D-12 BMatP= 6.96D-11
 IDIUse=1 WtCom= 1.00D+00 WtEn= 0.00D+00
 Coeff-Com: -0.288D-02 0.464D-02 0.641D-01 0.951D-01 0.299D+00 0.540D+00
 Coeff:     -0.288D-02 0.464D-02 0.641D-01 0.951D-01 0.299D+00 0.540D+00
 Gap=     0.226 Goal=   None    Shift=    0.000
 RMSDP=1.64D-08 MaxDP=6.15D-07 DE=-7.46D-11 OVMax= 7.68D-07

 Cycle  12  Pass 1  IDiag  1:
 RMSU=  1.55D-08    CP:  1.00D+00  6.80D-01  9.19D-01  5.96D-01  7.48D-01
                    CP:  9.00D-01
 E= -874.587862034886     Delta-E=        0.000000000004 Rises=F Damp=F
 DIIS: error= 5.98D-08 at cycle   7 NSaved=   7.
 NSaved= 7 IEnMin= 6 EnMin= -874.587862034890     IErMin= 7 ErrMin= 5.98D-08
 ErrMax= 5.98D-08  0.00D+00 EMaxC= 1.00D-01 BMatC= 1.07D-12 BMatP= 5.07D-12
 IDIUse=1 WtCom= 1.00D+00 WtEn= 0.00D+00
 Coeff-Com: -0.749D-03 0.265D-04 0.342D-02 0.666D-02 0.403D-01 0.310D+00
 Coeff-Com:  0.641D+00
 Coeff:     -0.749D-03 0.265D-04 0.342D-02 0.666D-02 0.403D-01 0.310D+00
 Coeff:      0.641D+00
 Gap=     0.226 Goal=   None    Shift=    0.000
 RMSDP=7.60D-09 MaxDP=2.88D-07 DE= 4.32D-12 OVMax= 4.92D-07

 SCF Done:  E(RB3LYP) =  -874.587862035     A.U. after   12 cycles
            NFock= 12  Conv=0.76D-08     -V/T= 2.0064
 KE= 8.690071850465D+02 PE=-3.281765174043D+03 EE= 9.271674195789D+02
 Leave Link  502 at Fri Mar 14 14:23:49 2025, MaxMem=  8589934592 cpu:              75.2 elap:               9.2
 (Enter /home/enzo/gaussian_versions/gdv.j21/gdv/l701.exe)
 ... and contract with generalized density number  0.
 Compute integral first derivatives.
 Leave Link  701 at Fri Mar 14 14:23:50 2025, MaxMem=  8589934592 cpu:               3.2 elap:               0.7
 (Enter /home/enzo/gaussian_versions/gdv.j21/gdv/l702.exe)
 L702 exits ... SP integral derivatives will be done elsewhere.
 Leave Link  702 at Fri Mar 14 14:23:50 2025, MaxMem=  8589934592 cpu:               0.2 elap:               0.3
 (Enter /home/enzo/gaussian_versions/gdv.j21/gdv/l703.exe)
 Integral derivatives from FoFJK, PRISM(SPDF).
 Compute integral first derivatives, UseDBF=F ICtDFT=           0.
 Calling FoFJK, ICntrl=      2127 FMM=F ISym2X=0 I1Cent= 0 IOpClX= 0 NMat=1 NMatS=1 NMatT=0.
 FoFJK:  IHMeth= 1 ICntrl=    2127 DoSepK=F KAlg= 0 I1Cent=           0 FoldK=F
 IRaf=         0 NMat=       1 IRICut=       1 DoRegI=T DoRafI=F ISym2E= 0 IDoP0=0 IntGTp=1.
 FoFCou: FMM=F IPFlag=           0 FMFlag=      100000 FMFlg1=         800
         NFxFlg=           0 DoJE=F BraDBF=F KetDBF=F FulRan=T
         wScrn=  0.000000 ICntrl=      2127 IOpCl=  0 I1Cent=           0 NGrid=           0
         NMat0=    1 NMatS0=      1 NMatT0=    0 NMatD0=    1 NMtDS0=    0 NMtDT0=    0
 Symmetry not used in FoFCou.
 Leave Link  703 at Fri Mar 14 14:23:53 2025, MaxMem=  8589934592 cpu:              14.9 elap:               2.3
 (Enter /home/enzo/gaussian_versions/gdv.j21/gdv/l716.exe)
 Dipole        =-1.13588480D+00 4.79925313D-01-1.74008123D-01
 ***** Axes restored to original set *****
 -------------------------------------------------------------------
 Center     Atomic                   Forces (Hartrees/Bohr)
 Number     Number              X              Y              Z
 -------------------------------------------------------------------
      1        6          -0.000666371    0.001164380   -0.000282730
      2        6           0.000982487    0.001811820   -0.000058899
      3       16          -0.000193930   -0.000555847   -0.000491170
      4        6           0.001787290   -0.005711439   -0.000456482
      5        8           0.000291068    0.002330012    0.000574019
      6        7          -0.003088251    0.001525201    0.000038193
      7        6          -0.000771974   -0.000527076    0.001054634
      8        6          -0.001938345    0.007020005    0.001513492
      9        8           0.000824255   -0.004016996   -0.001492179
     10        8           0.002605522    0.000297961   -0.000674929
     11        1           0.000454149   -0.000323410   -0.000165980
     12        1          -0.000363432   -0.000532243   -0.000119927
     13        1           0.000390936    0.000317994    0.000306093
     14        1          -0.000970397   -0.000266866   -0.000051608
     15        1          -0.000125015    0.000242054    0.001407419
     16        1           0.000765366   -0.000612919   -0.000974180
     17        1          -0.000087799   -0.000488123   -0.000933120
     18        1           0.000234798   -0.000073249    0.000437894
     19        1          -0.000130358   -0.001601262    0.000369458
 -------------------------------------------------------------------
 Cartesian Forces:  Max     0.007020005 RMS     0.001645427
 Leave Link  716 at Fri Mar 14 14:23:53 2025, MaxMem=  8589934592 cpu:               0.1 elap:               0.2
 (Enter /home/enzo/gaussian_versions/gdv.j21/gdv/l103.exe)

 GradGradGradGradGradGradGradGradGradGradGradGradGradGradGradGradGradGrad
 Berny optimization.
 Using GEDIIS/GDIIS optimizer.
 FormGI is forming the generalized inverse of G from B-inverse, IUseBI=4.
 Internal  Forces:  Max     0.004273966 RMS     0.000913999
 Search for a local minimum.
 Step number   8 out of a maximum of   93
 All quantities printed in internal units (Hartrees-Bohrs-Radians)
 RMS Force = .91400D-03 SwitMx=.10000D-02 MixMth= 2
 Mixed Optimization -- En-DIIS/RFO-DIIS
 Swapping is turned off.
 Update second derivatives using D2CorX and points    6    7    8
 DE= -2.04D-04 DEPred=-2.84D-04 R= 7.18D-01
 TightC=F SS=  1.41D+00  RLast= 3.04D-01 DXNew= 2.4000D+00 9.1156D-01
 Trust test= 7.18D-01 RLast= 3.04D-01 DXMaxT set to 1.43D+00
 ITU=  1  1  1  0  1  1  1  0
     Eigenvalues ---    0.00142   0.00359   0.00458   0.00821   0.00865
     Eigenvalues ---    0.01168   0.01316   0.02190   0.03244   0.04350
     Eigenvalues ---    0.04959   0.05456   0.05656   0.05678   0.05765
     Eigenvalues ---    0.06813   0.07917   0.09707   0.13520   0.15494
     Eigenvalues ---    0.15978   0.16001   0.16019   0.16081   0.17479
     Eigenvalues ---    0.17857   0.20161   0.21949   0.22094   0.22409
     Eigenvalues ---    0.24218   0.24743   0.25280   0.26315   0.26642
     Eigenvalues ---    0.30046   0.32224   0.32586   0.32593   0.32608
     Eigenvalues ---    0.32618   0.32644   0.32845   0.34575   0.37254
     Eigenvalues ---    0.40659   0.42167   0.46695   0.52872   0.79914
     Eigenvalues ---    0.81982
 En-DIIS/RFO-DIIS/Sim-DIIS IScMMF=       -3 using points:     8    7
 RFO step:  Lambda=-5.12419465D-04.
 NNeg= 0 NGDIIS= 2 SimSw=  2.50D-01 Rises=F DC= -2.04D-04 SmlDif=  1.00D-05
 NRisDI= 0 DoIntr=F SqrtH=F CThrHd= 10.0 CDAdj=  3.0
 RMS Error=  0.3735417244D-01 NUsed= 2 OKEnD=T EnDIS=F
 InvSVX:  RCond= 1.30D-02 Info=           0 Equed=N FErr=  6.66D-15 BErr=  2.58D-17
 DidBck=FF Rises=F RFO-DIIS coefs:    2.07450   -1.07450
 Iteration  1 RMS(Cart)=  0.11834376 RMS(Int)=  0.00415789
 Iteration  2 RMS(Cart)=  0.00661322 RMS(Int)=  0.00021090
 Iteration  3 RMS(Cart)=  0.00001440 RMS(Int)=  0.00021077
 Iteration  4 RMS(Cart)=  0.00000000 RMS(Int)=  0.00021077
 Variable       Old X    -DE/DX   Delta X   Delta X   Delta X     New X
                                 (Linear)    (Quad)   (Total)
    R1        2.89381   0.00063  -0.00277   0.00126  -0.00150   2.89230
    R2        2.06759  -0.00058   0.00024  -0.00089  -0.00066   2.06694
    R3        2.07597  -0.00057   0.00039  -0.00094  -0.00055   2.07542
    R4        2.06781  -0.00051  -0.00042  -0.00081  -0.00123   2.06658
    R5        3.49434   0.00068   0.00237   0.00149   0.00386   3.49820
    R6        2.88866   0.00164  -0.00579   0.00315  -0.00265   2.88601
    R7        2.07120  -0.00042  -0.00015  -0.00083  -0.00098   2.07022
    R8        2.55681  -0.00131  -0.00002  -0.00266  -0.00268   2.55412
    R9        2.32000  -0.00191   0.00118  -0.00124  -0.00006   2.31994
   R10        2.58193  -0.00162  -0.00270  -0.00210  -0.00480   2.57714
   R11        2.72826   0.00023   0.00123   0.00114   0.00237   2.73063
   R12        1.91367  -0.00103   0.00065  -0.00094  -0.00029   1.91337
   R13        2.85879   0.00204  -0.00626   0.00326  -0.00300   2.85579
   R14        2.07947  -0.00013  -0.00084  -0.00028  -0.00112   2.07835
   R15        2.06802  -0.00041   0.00118  -0.00022   0.00096   2.06898
   R16        2.29641  -0.00427   0.00304  -0.00306  -0.00002   2.29640
   R17        2.53963   0.00273  -0.01073   0.00409  -0.00664   2.53299
   R18        1.84726  -0.00108  -0.00041  -0.00099  -0.00140   1.84586
    A1        1.92807   0.00009   0.00005   0.00125   0.00131   1.92938
    A2        1.92874  -0.00001   0.00110  -0.00059   0.00051   1.92925
    A3        1.92024   0.00004  -0.00106  -0.00036  -0.00142   1.91882
    A4        1.89500   0.00006  -0.00173   0.00057  -0.00117   1.89384
    A5        1.90027   0.00004   0.00142   0.00088   0.00230   1.90257
    A6        1.89075  -0.00022   0.00022  -0.00178  -0.00155   1.88920
    A7        1.96175   0.00069  -0.00321   0.00191  -0.00129   1.96047
    A8        1.92432  -0.00029   0.00565   0.00260   0.00823   1.93255
    A9        1.92421  -0.00006   0.00021  -0.00128  -0.00112   1.92310
   A10        1.89972   0.00002  -0.00670   0.00054  -0.00615   1.89357
   A11        1.82530  -0.00082   0.00268  -0.00726  -0.00458   1.82072
   A12        1.92631   0.00044   0.00110   0.00314   0.00421   1.93052
   A13        1.64386   0.00114  -0.00504   0.00398  -0.00106   1.64280
   A14        2.12182   0.00029  -0.00226   0.00065  -0.00220   2.11962
   A15        2.02191  -0.00153   0.00611  -0.00263   0.00289   2.02480
   A16        2.13939   0.00125  -0.00302   0.00290  -0.00071   2.13868
   A17        2.12039   0.00011  -0.00406   0.00026  -0.00453   2.11587
   A18        2.09654   0.00073   0.00204   0.00315   0.00436   2.10090
   A19        2.03737  -0.00086  -0.00793  -0.00436  -0.01296   2.02441
   A20        1.91849   0.00112  -0.00921   0.00366  -0.00556   1.91294
   A21        1.95401  -0.00007  -0.00031   0.00063   0.00031   1.95432
   A22        1.89953  -0.00023   0.00345   0.00109   0.00455   1.90409
   A23        1.88499  -0.00030   0.00113  -0.00011   0.00100   1.88599
   A24        1.93745  -0.00025   0.00431  -0.00033   0.00399   1.94143
   A25        1.86923  -0.00032   0.00101  -0.00517  -0.00417   1.86506
   A26        2.17271   0.00137  -0.00598   0.00258  -0.00385   2.16887
   A27        1.95338  -0.00116   0.00479  -0.00336   0.00098   1.95437
   A28        2.15704  -0.00022   0.00259   0.00006   0.00220   2.15924
   A29        1.85348   0.00145  -0.01447   0.00608  -0.00839   1.84509
    D1        0.97013  -0.00030  -0.01091  -0.00430  -0.01521   0.95492
    D2        3.09307   0.00000  -0.01767  -0.00045  -0.01812   3.07495
    D3       -1.05884   0.00032  -0.01241   0.00438  -0.00802  -1.06686
    D4        3.06761  -0.00018  -0.01232  -0.00316  -0.01548   3.05213
    D5       -1.09263   0.00012  -0.01909   0.00069  -0.01840  -1.11103
    D6        1.03864   0.00045  -0.01382   0.00552  -0.00830   1.03035
    D7       -1.12842  -0.00043  -0.01203  -0.00597  -0.01799  -1.14642
    D8        0.99452  -0.00013  -0.01879  -0.00211  -0.02090   0.97361
    D9        3.12580   0.00020  -0.01353   0.00272  -0.01081   3.11499
   D10        1.22795   0.00041  -0.03121   0.04683   0.01563   1.24358
   D11       -0.90895   0.00029  -0.03151   0.04188   0.01037  -0.89859
   D12       -2.96771   0.00020  -0.03100   0.04179   0.01077  -2.95694
   D13       -1.06062   0.00052   0.05059   0.07727   0.12787  -0.93274
   D14        2.09299  -0.00028   0.10967  -0.00706   0.10265   2.19563
   D15        1.09873   0.00122   0.04580   0.08173   0.12751   1.22624
   D16       -2.03085   0.00042   0.10488  -0.00261   0.10229  -1.92857
   D17        3.09253   0.00050   0.04585   0.07504   0.12086  -3.06979
   D18       -0.03705  -0.00031   0.10493  -0.00929   0.09563   0.05858
   D19       -3.04632   0.00061  -0.03172   0.04361   0.01208  -3.03424
   D20       -0.16896   0.00044  -0.08187   0.03874  -0.04330  -0.21225
   D21        0.10742  -0.00019   0.02803  -0.04164  -0.01344   0.09398
   D22        2.98478  -0.00037  -0.02211  -0.04651  -0.06881   2.91596
   D23        2.39714   0.00036   0.05975   0.03215   0.09208   2.48922
   D24       -1.79103   0.00069   0.05471   0.03489   0.08980  -1.70123
   D25        0.27186   0.00011   0.05797   0.02958   0.08775   0.35960
   D26       -0.48874   0.00030   0.10711   0.03580   0.14271  -0.34603
   D27        1.60627   0.00064   0.10207   0.03854   0.14043   1.74670
   D28       -2.61402   0.00005   0.10533   0.03323   0.13838  -2.47565
   D29        0.14069   0.00049  -0.02971   0.03202   0.00233   0.14302
   D30       -3.01127  -0.00055   0.01748  -0.04418  -0.02671  -3.03798
   D31       -1.99574   0.00009  -0.02435   0.02907   0.00473  -1.99100
   D32        1.13549  -0.00096   0.02283  -0.04713  -0.02431   1.11118
   D33        2.24321   0.00079  -0.02865   0.03558   0.00694   2.25014
   D34       -0.90875  -0.00025   0.01854  -0.04063  -0.02211  -0.93086
   D35        3.12678   0.00137  -0.06549   0.06549  -0.00005   3.12673
   D36       -0.02506   0.00035  -0.01912  -0.00989  -0.02895  -0.05402
         Item               Value     Threshold  Converged?
 Maximum Force            0.004274     0.000450     NO 
 RMS     Force            0.000914     0.000300     NO 
 Maximum Displacement     0.344954     0.001800     NO 
 RMS     Displacement     0.118895     0.001200     NO 
 Predicted change in Energy=-2.941477D-04
 Lowest energy point so far.  Saving SCF results.
 GradGradGradGradGradGradGradGradGradGradGradGradGradGradGradGradGradGrad

 Leave Link  103 at Fri Mar 14 14:23:53 2025, MaxMem=  8589934592 cpu:               0.4 elap:               0.2
 (Enter /home/enzo/gaussian_versions/gdv.j21/gdv/l202.exe)
                          Input orientation:                          
 ---------------------------------------------------------------------
 Center     Atomic      Atomic             Coordinates (Angstroms)
 Number     Number       Type             X           Y           Z
 ---------------------------------------------------------------------
      1          6           0       -2.176286    1.660034   -0.957194
      2          6           0       -1.727891    0.757228    0.194516
      3         16           0       -3.111152   -0.281861    0.853080
      4          6           0       -0.597582   -0.167560   -0.252190
      5          8           0       -0.709342   -0.882927   -1.243609
      6          7           0        0.536529   -0.134624    0.504485
      7          6           0        1.721170   -0.862429    0.110896
      8          6           0        2.950495   -0.051669    0.450329
      9          8           0        2.935012    0.975154    1.100028
     10          8           0        4.071805   -0.624436   -0.009314
     11          1           0       -3.029951    2.273137   -0.654360
     12          1           0       -1.359574    2.326956   -1.264409
     13          1           0       -2.463167    1.050697   -1.818783
     14          1           0       -1.413834    1.364426    1.050571
     15          1           0       -3.160700   -1.079818   -0.236686
     16          1           0        0.672914    0.597088    1.190912
     17          1           0        1.798911   -1.831279    0.625556
     18          1           0        1.670585   -1.075826   -0.961771
     19          1           0        4.799141   -0.024414    0.245777
 ---------------------------------------------------------------------
                    Distance matrix (angstroms):
                    1          2          3          4          5
     1  C    0.000000
     2  C    1.530540   0.000000
     3  S    2.814608   1.851168   0.000000
     4  C    2.515838   1.527212   2.748221   0.000000
     5  O    2.949680   2.407437   3.244392   1.227661   0.000000
     6  N    3.566044   2.453381   3.667257   1.363763   2.273320
     7  C    4.763801   3.811339   4.923336   2.447710   2.782533
     8  C    5.585243   4.754687   6.079372   3.618814   4.117623
     9  O    5.552170   4.755008   6.180385   3.951393   4.714489
    10  O    6.719815   5.965485   7.242648   4.697968   4.944660
    11  H    1.093777   2.171159   2.967656   3.469173   3.961462
    12  H    1.098264   2.174435   3.789157   2.797826   3.275147
    13  H    1.093585   2.163361   3.055233   2.723743   2.673132
    14  H    2.167911   1.095514   2.372794   2.170353   3.287881
    15  H    2.999166   2.369307   1.351584   2.720667   2.657408
    16  H    3.723191   2.604287   3.899466   2.069152   3.166696
    17  H    5.522369   4.395964   5.153754   3.046568   3.268712
    18  H    4.720527   4.030723   5.175816   2.544216   2.404307
    19  H    7.276062   6.573868   7.937747   5.421538   5.770502
                    6          7          8          9         10
     6  N    0.000000
     7  C    1.444987   0.000000
     8  C    2.415999   1.511220   0.000000
     9  O    2.709059   2.414229   1.215201   0.000000
    10  O    3.605840   2.365708   1.340399   2.254246   0.000000
    11  H    4.456457   5.743740   6.510822   6.351647   7.697204
    12  H    3.575412   4.642696   5.212954   5.085411   6.307603
    13  H    3.975014   4.989228   5.972589   6.137223   6.984705
    14  H    2.519776   3.958550   4.627416   4.366513   5.930528
    15  H    3.887445   4.899054   6.235045   6.570191   7.250393
    16  H    1.012514   2.096537   2.481275   2.295274   3.805933
    17  H    2.118232   1.099814   2.126938   3.064623   2.650581
    18  H    2.078907   1.094857   2.163584   3.171169   2.622363
    19  H    4.271878   3.192861   1.860128   2.281196   0.976788
                   11         12         13         14         15
    11  H    0.000000
    12  H    1.779105   0.000000
    13  H    1.780866   1.775975   0.000000
    14  H    2.518805   2.507696   3.071273   0.000000
    15  H    3.381399   3.988280   2.743844   3.268471   0.000000
    16  H    4.463785   3.626576   4.370244   2.227783   4.421159
    17  H    6.465472   5.553280   5.696130   4.551362   5.089783
    18  H    5.779714   4.566441   4.726995   4.417917   4.885394
    19  H    8.208755   6.763089   7.626231   6.416979   8.043986
                   16         17         18         19
    16  H    0.000000
    17  H    2.735775   0.000000
    18  H    2.903108   1.762607   0.000000
    19  H    4.278469   3.522836   3.514471   0.000000
 Stoichiometry    C5H9NO3S
 Framework group  C1[X(C5H9NO3S)]
 Deg. of freedom    51
 Full point group                 C1      NOp   1
 RotChk:  IX=0 Diff= 1.03D-01
 Largest Abelian subgroup         C1      NOp   1
 Largest concise Abelian subgroup C1      NOp   1
                         Standard orientation:                         
 ---------------------------------------------------------------------
 Center     Atomic      Atomic             Coordinates (Angstroms)
 Number     Number       Type             X           Y           Z
 ---------------------------------------------------------------------
      1          6           0        2.363592    1.363333    1.144099
      2          6           0        1.804346    0.621437   -0.072203
      3         16           0        3.082139   -0.427998   -0.904522
      4          6           0        0.632254   -0.270832    0.330826
      5          8           0        0.735976   -1.094970    1.234812
      6          7           0       -0.528075   -0.082634   -0.360598
      7          6           0       -1.742811   -0.770219    0.013075
      8          6           0       -2.925804    0.150648   -0.177500
      9          8           0       -2.866325    1.238526   -0.715734
     10          8           0       -4.063755   -0.394398    0.274896
     11          1           0        3.244321    1.948822    0.865056
     12          1           0        1.609399    2.044764    1.560067
     13          1           0        2.643714    0.647041    1.921522
     14          1           0        1.497227    1.336775   -0.842995
     15          1           0        3.122286   -1.340660    0.091578
     16          1           0       -0.642163    0.726333   -0.958714
     17          1           0       -1.910043   -1.670613   -0.595952
     18          1           0       -1.661479   -1.101211    1.053527
     19          1           0       -4.757582    0.275677    0.120881
 ---------------------------------------------------------------------
 Rotational constants (GHZ):           2.6181467           0.4543993           0.4475909
 Leave Link  202 at Fri Mar 14 14:23:53 2025, MaxMem=  8589934592 cpu:               0.4 elap:               0.2
 (Enter /home/enzo/gaussian_versions/gdv.j21/gdv/l301.exe)
 Standard basis: 6-31G(d) (6D, 7F)
 Ernie: Thresh=  0.10000D-02 Tol=  0.10000D-05 Strict=F.
 There are   172 symmetry adapted cartesian basis functions of A   symmetry.
 There are   172 symmetry adapted basis functions of A   symmetry.
   172 basis functions,   340 primitive gaussians,   172 cartesian basis functions
    43 alpha electrons       43 beta electrons
       nuclear repulsion energy       611.0857726544 Hartrees.
 IExCor=      4002 DFT=T Ex+Corr=B3LYP ScaHFX=  0.200000
 ScaDFX=  0.800000  0.720000  1.000000  0.810000  1.000000  0.000000
 ScaDFX=  0.000000  0.000000  0.000000  0.000000  0.000000  0.000000
 IRadAn=      5 IRanWt=     -1 IRanGd=            0 ICorTp=0 IEmpDi=  4
 NAtoms=   19 NActive=   19 NUniq=   19 SFac= 1.00D+00 NAtFMM=   60 NAOKFM=F Big=F
 Integral buffers will be    131072 words long.
 Raffenetti 2 integral format.
 Two-electron integral symmetry is turned on.
 Leave Link  301 at Fri Mar 14 14:23:54 2025, MaxMem=  8589934592 cpu:               0.4 elap:               0.3
 (Enter /home/enzo/gaussian_versions/gdv.j21/gdv/l302.exe)
 NPDir=0 NMtPBC=     1 NCelOv=     1 NCel=       1 NClECP=     1 NCelD=      1
         NCelK=      1 NCelE2=     1 NClLst=     1 CellRange=     0.0.
 One-electron integrals computed using PRISM.
 One-electron integral symmetry used in STVInt
 NBasis=   172 RedAO= T EigKep=  2.66D-03  NBF=   172
 NBsUse=   172 1.00D-06 EigRej= -1.00D+00 NBFU=   172
 Precomputing XC quadrature grid using
 IXCGrd= 4 IRadAn=           5 IRanWt=          -1 IRanGd=           0 AccXCQ= 0.00D+00.
 Generated NRdTot=       0 NPtTot=      408468 NUsed=           0 NTot=          64
 NSgBfM=   171   171   171   171   171 MxSgAt=    19 MxSgA2=    19 SizInc=   0.000
 NMBTot=     3521 MaxBatPerAtom=       85 MaxMicBPerAtom=      211 NBfPt=            50367803.
 Leave Link  302 at Fri Mar 14 14:23:55 2025, MaxMem=  8589934592 cpu:               4.7 elap:               0.8
 (Enter /home/enzo/gaussian_versions/gdv.j21/gdv/l303.exe)
 DipDrv:  MaxL=1.
 Leave Link  303 at Fri Mar 14 14:23:55 2025, MaxMem=  8589934592 cpu:               0.8 elap:               0.3
 (Enter /home/enzo/gaussian_versions/gdv.j21/gdv/l401.exe)
 Initial guess from the checkpoint file:  "/local/home/enzo/scratch/Gau-2270961.chk"
 B after Tr=    -0.000000   -0.000000    0.000000
         Rot=    0.999582   -0.028252   -0.004469    0.004234 Ang=  -3.31 deg.
 AO Guess basis will be translated and rotated to current coordinates.
 JPrj=2 DoOrth=T DoCkMO=T.
 Generating alternative initial guess.
 ExpMin= 1.17D-01 ExpMax= 2.19D+04 ExpMxC= 3.30D+03 IAcc=3 IRadAn=         5 AccDes= 0.00D+00
 Harris functional with IExCor= 4002 and IRadAn=       5 diagonalized for initial guess.
 HarFok:  IExCor=    4002 AccDes= 0.00D+00 IRadAn=         5 IDoV= 1 UseB2=F ITyADJ=14 ICtDFT=  3500011
 FoFCou: FMM=F IPFlag=           0 FMFlag=      100000 FMFlg1=           0
         NFxFlg=           0 DoJE=T BraDBF=F KetDBF=T FulRan=T
         wScrn=  0.000000 ICntrl=       500 IOpCl=  0 I1Cent=   200000004 NGrid=           0
         NMat0=    1 NMatS0=      1 NMatT0=    0 NMatD0=    1 NMtDS0=    0 NMtDT0=    0
 Petite list used in FoFCou.
 Harris En= -874.548258138276    
 Leave Link  401 at Fri Mar 14 14:23:56 2025, MaxMem=  8589934592 cpu:               7.8 elap:               1.4
 (Enter /home/enzo/gaussian_versions/gdv.j21/gdv/l502.exe)
 Integral symmetry usage will be decided dynamically.
 Closed shell SCF:
 Using DIIS extrapolation, IDIIS=  1040.
 NGot=  8589934592 LenX=  8589843591 LenY=  8589813566
 Requested convergence on RMS density matrix=1.00D-08 within 128 cycles.
 Requested convergence on MAX density matrix=1.00D-06.
 Requested convergence on             energy=1.00D-06.
 No special actions if energy rises.
 Fock matrices will be formed incrementally for  20 cycles.
 Integral accuracy reduced to 1.0D-05 until final iterations.

 Cycle   1  Pass 0  IDiag  1:
 FoFJK:  IHMeth= 1 ICntrl=       0 DoSepK=F KAlg= 0 I1Cent=           0 FoldK=F
 IRaf= 890000000 NMat=       1 IRICut=       1 DoRegI=T DoRafI=F ISym2E= 0 IDoP0=0 IntGTp=1.
 FoFCou: FMM=F IPFlag=           0 FMFlag=      100000 FMFlg1=           0
         NFxFlg=           0 DoJE=F BraDBF=F KetDBF=F FulRan=T
         wScrn=  0.000000 ICntrl=         0 IOpCl=  0 I1Cent=           0 NGrid=           0
         NMat0=    1 NMatS0=      1 NMatT0=    0 NMatD0=    1 NMtDS0=    0 NMtDT0=    0
 Symmetry not used in FoFCou.
 E= -874.568825701954    
 DIIS: error= 5.66D-03 at cycle   1 NSaved=   1.
 NSaved= 1 IEnMin= 1 EnMin= -874.568825701954     IErMin= 1 ErrMin= 5.66D-03
 ErrMax= 5.66D-03  0.00D+00 EMaxC= 1.00D-01 BMatC= 9.27D-03 BMatP= 9.27D-03
 IDIUse=3 WtCom= 9.43D-01 WtEn= 5.66D-02
 Coeff-Com:  0.100D+01
 Coeff-En:   0.100D+01
 Coeff:      0.100D+01
 Gap=     1.605 Goal=   None    Shift=    0.000
 GapD=    1.605 DampG=2.000 DampE=1.000 DampFc=2.0000 IDamp=-1.
 RMSDP=1.01D-03 MaxDP=2.25D-02              OVMax= 3.48D-02

 Cycle   2  Pass 0  IDiag  1:
 RMSU=  1.01D-03    CP:  9.99D-01
 E= -874.587824913365     Delta-E=       -0.018999211411 Rises=F Damp=F
 DIIS: error= 7.13D-04 at cycle   2 NSaved=   2.
 NSaved= 2 IEnMin= 2 EnMin= -874.587824913365     IErMin= 2 ErrMin= 7.13D-04
 ErrMax= 7.13D-04  0.00D+00 EMaxC= 1.00D-01 BMatC= 1.55D-04 BMatP= 9.27D-03
 IDIUse=3 WtCom= 9.93D-01 WtEn= 7.13D-03
 Coeff-Com: -0.714D-01 0.107D+01
 Coeff-En:   0.000D+00 0.100D+01
 Coeff:     -0.709D-01 0.107D+01
 Gap=     0.227 Goal=   None    Shift=    0.000
 RMSDP=1.60D-04 MaxDP=2.67D-03 DE=-1.90D-02 OVMax= 5.43D-03

 Cycle   3  Pass 0  IDiag  1:
 RMSU=  1.36D-04    CP:  9.99D-01  1.08D+00
 E= -874.588043826188     Delta-E=       -0.000218912824 Rises=F Damp=F
 DIIS: error= 4.07D-04 at cycle   3 NSaved=   3.
 NSaved= 3 IEnMin= 3 EnMin= -874.588043826188     IErMin= 3 ErrMin= 4.07D-04
 ErrMax= 4.07D-04  0.00D+00 EMaxC= 1.00D-01 BMatC= 6.88D-05 BMatP= 1.55D-04
 IDIUse=3 WtCom= 9.96D-01 WtEn= 4.07D-03
 Coeff-Com: -0.379D-01 0.460D+00 0.578D+00
 Coeff-En:   0.000D+00 0.000D+00 0.100D+01
 Coeff:     -0.377D-01 0.458D+00 0.580D+00
 Gap=     0.225 Goal=   None    Shift=    0.000
 RMSDP=6.66D-05 MaxDP=1.46D-03 DE=-2.19D-04 OVMax= 1.92D-03

 Cycle   4  Pass 0  IDiag  1:
 RMSU=  4.97D-05    CP:  9.99D-01  1.10D+00  6.93D-01
 E= -874.588085279439     Delta-E=       -0.000041453251 Rises=F Damp=F
 DIIS: error= 2.53D-04 at cycle   4 NSaved=   4.
 NSaved= 4 IEnMin= 4 EnMin= -874.588085279439     IErMin= 4 ErrMin= 2.53D-04
 ErrMax= 2.53D-04  0.00D+00 EMaxC= 1.00D-01 BMatC= 2.60D-05 BMatP= 6.88D-05
 IDIUse=3 WtCom= 9.97D-01 WtEn= 2.53D-03
 Coeff-Com: -0.146D-01 0.160D+00 0.385D+00 0.469D+00
 Coeff-En:   0.000D+00 0.000D+00 0.251D+00 0.749D+00
 Coeff:     -0.146D-01 0.160D+00 0.384D+00 0.470D+00
 Gap=     0.225 Goal=   None    Shift=    0.000
 RMSDP=2.87D-05 MaxDP=8.23D-04 DE=-4.15D-05 OVMax= 1.26D-03

 Cycle   5  Pass 0  IDiag  1:
 RMSU=  2.02D-05    CP:  9.99D-01  1.10D+00  7.37D-01  6.16D-01
 E= -874.588104370548     Delta-E=       -0.000019091108 Rises=F Damp=F
 DIIS: error= 7.33D-05 at cycle   5 NSaved=   5.
 NSaved= 5 IEnMin= 5 EnMin= -874.588104370548     IErMin= 5 ErrMin= 7.33D-05
 ErrMax= 7.33D-05  0.00D+00 EMaxC= 1.00D-01 BMatC= 1.75D-06 BMatP= 2.60D-05
 IDIUse=1 WtCom= 1.00D+00 WtEn= 0.00D+00
 Coeff-Com: -0.380D-02 0.359D-01 0.152D+00 0.265D+00 0.550D+00
 Coeff:     -0.380D-02 0.359D-01 0.152D+00 0.265D+00 0.550D+00
 Gap=     0.225 Goal=   None    Shift=    0.000
 RMSDP=1.01D-05 MaxDP=2.10D-04 DE=-1.91D-05 OVMax= 5.76D-04

 Cycle   6  Pass 0  IDiag  1:
 RMSU=  6.41D-06    CP:  9.99D-01  1.10D+00  7.62D-01  6.73D-01  6.86D-01
 E= -874.588105741867     Delta-E=       -0.000001371320 Rises=F Damp=F
 DIIS: error= 2.32D-05 at cycle   6 NSaved=   6.
 NSaved= 6 IEnMin= 6 EnMin= -874.588105741867     IErMin= 6 ErrMin= 2.32D-05
 ErrMax= 2.32D-05  0.00D+00 EMaxC= 1.00D-01 BMatC= 2.41D-07 BMatP= 1.75D-06
 IDIUse=1 WtCom= 1.00D+00 WtEn= 0.00D+00
 Coeff-Com:  0.355D-03-0.857D-02 0.234D-01 0.746D-01 0.313D+00 0.597D+00
 Coeff:      0.355D-03-0.857D-02 0.234D-01 0.746D-01 0.313D+00 0.597D+00
 Gap=     0.225 Goal=   None    Shift=    0.000
 RMSDP=3.23D-06 MaxDP=8.14D-05 DE=-1.37D-06 OVMax= 1.77D-04

 Initial convergence to 1.0D-05 achieved.  Increase integral accuracy.
 Cycle   7  Pass 1  IDiag  1:
 E= -874.588083304397     Delta-E=        0.000022437471 Rises=F Damp=F
 DIIS: error= 1.46D-05 at cycle   1 NSaved=   1.
 NSaved= 1 IEnMin= 1 EnMin= -874.588083304397     IErMin= 1 ErrMin= 1.46D-05
 ErrMax= 1.46D-05  0.00D+00 EMaxC= 1.00D-01 BMatC= 3.92D-08 BMatP= 3.92D-08
 IDIUse=1 WtCom= 1.00D+00 WtEn= 0.00D+00
 Coeff-Com:  0.100D+01
 Coeff:      0.100D+01
 Gap=     0.225 Goal=   None    Shift=    0.000
 RMSDP=3.23D-06 MaxDP=8.14D-05 DE= 2.24D-05 OVMax= 9.68D-05

 Cycle   8  Pass 1  IDiag  1:
 RMSU=  5.07D-06    CP:  1.00D+00
 E= -874.588083306535     Delta-E=       -0.000000002138 Rises=F Damp=F
 DIIS: error= 7.22D-06 at cycle   2 NSaved=   2.
 NSaved= 2 IEnMin= 2 EnMin= -874.588083306535     IErMin= 2 ErrMin= 7.22D-06
 ErrMax= 7.22D-06  0.00D+00 EMaxC= 1.00D-01 BMatC= 4.02D-08 BMatP= 3.92D-08
 IDIUse=1 WtCom= 1.00D+00 WtEn= 0.00D+00
 Coeff-Com:  0.504D+00 0.496D+00
 Coeff:      0.504D+00 0.496D+00
 Gap=     0.225 Goal=   None    Shift=    0.000
 RMSDP=1.44D-06 MaxDP=4.76D-05 DE=-2.14D-09 OVMax= 9.21D-05

 Cycle   9  Pass 1  IDiag  1:
 RMSU=  1.37D-06    CP:  1.00D+00  9.16D-01
 E= -874.588083335468     Delta-E=       -0.000000028933 Rises=F Damp=F
 DIIS: error= 4.49D-06 at cycle   3 NSaved=   3.
 NSaved= 3 IEnMin= 3 EnMin= -874.588083335468     IErMin= 3 ErrMin= 4.49D-06
 ErrMax= 4.49D-06  0.00D+00 EMaxC= 1.00D-01 BMatC= 6.70D-09 BMatP= 3.92D-08
 IDIUse=1 WtCom= 1.00D+00 WtEn= 0.00D+00
 Coeff-Com:  0.874D-01 0.289D+00 0.623D+00
 Coeff:      0.874D-01 0.289D+00 0.623D+00
 Gap=     0.225 Goal=   None    Shift=    0.000
 RMSDP=5.95D-07 MaxDP=1.84D-05 DE=-2.89D-08 OVMax= 4.33D-05

 Cycle  10  Pass 1  IDiag  1:
 RMSU=  4.14D-07    CP:  1.00D+00  9.41D-01  7.03D-01
 E= -874.588083339663     Delta-E=       -0.000000004195 Rises=F Damp=F
 DIIS: error= 2.56D-06 at cycle   4 NSaved=   4.
 NSaved= 4 IEnMin= 4 EnMin= -874.588083339663     IErMin= 4 ErrMin= 2.56D-06
 ErrMax= 2.56D-06  0.00D+00 EMaxC= 1.00D-01 BMatC= 1.79D-09 BMatP= 6.70D-09
 IDIUse=1 WtCom= 1.00D+00 WtEn= 0.00D+00
 Coeff-Com:  0.138D-02 0.140D+00 0.424D+00 0.435D+00
 Coeff:      0.138D-02 0.140D+00 0.424D+00 0.435D+00
 Gap=     0.225 Goal=   None    Shift=    0.000
 RMSDP=2.47D-07 MaxDP=7.72D-06 DE=-4.20D-09 OVMax= 1.20D-05

 Cycle  11  Pass 1  IDiag  1:
 RMSU=  9.65D-08    CP:  1.00D+00  9.46D-01  7.45D-01  4.73D-01
 E= -874.588083341027     Delta-E=       -0.000000001364 Rises=F Damp=F
 DIIS: error= 4.40D-07 at cycle   5 NSaved=   5.
 NSaved= 5 IEnMin= 5 EnMin= -874.588083341027     IErMin= 5 ErrMin= 4.40D-07
 ErrMax= 4.40D-07  0.00D+00 EMaxC= 1.00D-01 BMatC= 6.19D-11 BMatP= 1.79D-09
 IDIUse=1 WtCom= 1.00D+00 WtEn= 0.00D+00
 Coeff-Com: -0.383D-02 0.638D-01 0.209D+00 0.250D+00 0.481D+00
 Coeff:     -0.383D-02 0.638D-01 0.209D+00 0.250D+00 0.481D+00
 Gap=     0.225 Goal=   None    Shift=    0.000
 RMSDP=4.78D-08 MaxDP=1.06D-06 DE=-1.36D-09 OVMax= 1.56D-06

 Cycle  12  Pass 1  IDiag  1:
 RMSU=  2.89D-08    CP:  1.00D+00  9.47D-01  7.44D-01  4.82D-01  6.11D-01
 E= -874.588083341084     Delta-E=       -0.000000000056 Rises=F Damp=F
 DIIS: error= 5.58D-08 at cycle   6 NSaved=   6.
 NSaved= 6 IEnMin= 6 EnMin= -874.588083341084     IErMin= 6 ErrMin= 5.58D-08
 ErrMax= 5.58D-08  0.00D+00 EMaxC= 1.00D-01 BMatC= 1.10D-12 BMatP= 6.19D-11
 IDIUse=1 WtCom= 1.00D+00 WtEn= 0.00D+00
 Coeff-Com: -0.142D-02 0.140D-01 0.483D-01 0.606D-01 0.169D+00 0.709D+00
 Coeff:     -0.142D-02 0.140D-01 0.483D-01 0.606D-01 0.169D+00 0.709D+00
 Gap=     0.225 Goal=   None    Shift=    0.000
 RMSDP=9.21D-09 MaxDP=3.36D-07 DE=-5.64D-11 OVMax= 4.29D-07

 SCF Done:  E(RB3LYP) =  -874.588083341     A.U. after   12 cycles
            NFock= 12  Conv=0.92D-08     -V/T= 2.0064
 KE= 8.690342086418D+02 PE=-3.281922088348D+03 EE= 9.272140237106D+02
 Leave Link  502 at Fri Mar 14 14:24:05 2025, MaxMem=  8589934592 cpu:              67.7 elap:               8.3
 (Enter /home/enzo/gaussian_versions/gdv.j21/gdv/l701.exe)
 ... and contract with generalized density number  0.
 Compute integral first derivatives.
 Leave Link  701 at Fri Mar 14 14:24:05 2025, MaxMem=  8589934592 cpu:               4.7 elap:               0.8
 (Enter /home/enzo/gaussian_versions/gdv.j21/gdv/l702.exe)
 L702 exits ... SP integral derivatives will be done elsewhere.
 Leave Link  702 at Fri Mar 14 14:24:06 2025, MaxMem=  8589934592 cpu:               0.3 elap:               0.3
 (Enter /home/enzo/gaussian_versions/gdv.j21/gdv/l703.exe)
 Integral derivatives from FoFJK, PRISM(SPDF).
 Compute integral first derivatives, UseDBF=F ICtDFT=           0.
 Calling FoFJK, ICntrl=      2127 FMM=F ISym2X=0 I1Cent= 0 IOpClX= 0 NMat=1 NMatS=1 NMatT=0.
 FoFJK:  IHMeth= 1 ICntrl=    2127 DoSepK=F KAlg= 0 I1Cent=           0 FoldK=F
 IRaf=         0 NMat=       1 IRICut=       1 DoRegI=T DoRafI=F ISym2E= 0 IDoP0=0 IntGTp=1.
 FoFCou: FMM=F IPFlag=           0 FMFlag=      100000 FMFlg1=         800
         NFxFlg=           0 DoJE=F BraDBF=F KetDBF=F FulRan=T
         wScrn=  0.000000 ICntrl=      2127 IOpCl=  0 I1Cent=           0 NGrid=           0
         NMat0=    1 NMatS0=      1 NMatT0=    0 NMatD0=    1 NMtDS0=    0 NMtDT0=    0
 Symmetry not used in FoFCou.
 Leave Link  703 at Fri Mar 14 14:24:08 2025, MaxMem=  8589934592 cpu:              13.9 elap:               2.0
 (Enter /home/enzo/gaussian_versions/gdv.j21/gdv/l716.exe)
 Dipole        =-1.13249185D+00 4.86129093D-01-7.21273558D-02
 ***** Axes restored to original set *****
 -------------------------------------------------------------------
 Center     Atomic                   Forces (Hartrees/Bohr)
 Number     Number              X              Y              Z
 -------------------------------------------------------------------
      1        6          -0.000221577    0.000619182   -0.000444881
      2        6          -0.000513935    0.001925844    0.000884364
      3       16          -0.000083512   -0.000770249   -0.000087505
      4        6           0.002900311   -0.000982690   -0.004068673
      5        8          -0.000894775   -0.000434517    0.001570806
      6        7          -0.001064330    0.001135438    0.000663706
      7        6          -0.002329269   -0.000286053   -0.000655560
      8        6          -0.004544479    0.003664332    0.005599296
      9        8           0.001147916   -0.001665779   -0.002943446
     10        8           0.003971013    0.001088889   -0.002144855
     11        1           0.000316142   -0.000336152    0.000059203
     12        1          -0.000080010   -0.000564312   -0.000061203
     13        1           0.000225295    0.000273910    0.000051082
     14        1          -0.000437709   -0.000396437    0.000402970
     15        1          -0.000578982   -0.000048156    0.000671370
     16        1           0.000052450   -0.000735668    0.000512554
     17        1           0.000113702   -0.000446603   -0.000595316
     18        1           0.000687024   -0.000204250    0.000262534
     19        1           0.001334727   -0.001836728    0.000323555
 -------------------------------------------------------------------
 Cartesian Forces:  Max     0.005599296 RMS     0.001638963
 Leave Link  716 at Fri Mar 14 14:24:08 2025, MaxMem=  8589934592 cpu:               0.3 elap:               0.3
 (Enter /home/enzo/gaussian_versions/gdv.j21/gdv/l103.exe)

 GradGradGradGradGradGradGradGradGradGradGradGradGradGradGradGradGradGrad
 Berny optimization.
 Using GEDIIS/GDIIS optimizer.
 FormGI is forming the generalized inverse of G from B-inverse, IUseBI=4.
 Internal  Forces:  Max     0.005382607 RMS     0.001028863
 Search for a local minimum.
 Step number   9 out of a maximum of   93
 All quantities printed in internal units (Hartrees-Bohrs-Radians)
 RMS Force = .10289D-02 SwitMx=.10000D-02 MixMth= 1
 Mixed Optimization -- RFO/linear search
 Update second derivatives using D2CorX and points    8    9
 DE= -2.21D-04 DEPred=-2.94D-04 R= 7.52D-01
 TightC=F SS=  1.41D+00  RLast= 4.17D-01 DXNew= 2.4000D+00 1.2506D+00
 Trust test= 7.52D-01 RLast= 4.17D-01 DXMaxT set to 1.43D+00
 ITU=  1  1  1  1  0  1  1  1  0
 Use linear search instead of GDIIS.
     Eigenvalues ---    0.00139   0.00447   0.00482   0.00824   0.00871
     Eigenvalues ---    0.01217   0.01305   0.02066   0.04173   0.04494
     Eigenvalues ---    0.04908   0.05366   0.05664   0.05733   0.05791
     Eigenvalues ---    0.06659   0.08013   0.09714   0.13493   0.15352
     Eigenvalues ---    0.15940   0.16001   0.16030   0.16062   0.17680
     Eigenvalues ---    0.17818   0.20025   0.21680   0.22065   0.22313
     Eigenvalues ---    0.23109   0.24695   0.25122   0.26158   0.26491
     Eigenvalues ---    0.30003   0.31818   0.32581   0.32599   0.32608
     Eigenvalues ---    0.32617   0.32647   0.32782   0.33447   0.37256
     Eigenvalues ---    0.40658   0.41483   0.45779   0.53495   0.77973
     Eigenvalues ---    0.80368
 RFO step:  Lambda=-4.47043153D-04 EMin= 1.39058035D-03
 Quartic linear search produced a step of -0.17647.
 Iteration  1 RMS(Cart)=  0.04854498 RMS(Int)=  0.00101613
 Iteration  2 RMS(Cart)=  0.00129671 RMS(Int)=  0.00001663
 Iteration  3 RMS(Cart)=  0.00000110 RMS(Int)=  0.00001662
 Iteration  4 RMS(Cart)=  0.00000000 RMS(Int)=  0.00001662
 Variable       Old X    -DE/DX   Delta X   Delta X   Delta X     New X
                                 (Linear)    (Quad)   (Total)
    R1        2.89230   0.00022   0.00027   0.00118   0.00145   2.89375
    R2        2.06694  -0.00042   0.00012  -0.00168  -0.00156   2.06537
    R3        2.07542  -0.00038   0.00010  -0.00143  -0.00133   2.07409
    R4        2.06658  -0.00025   0.00022  -0.00150  -0.00128   2.06530
    R5        3.49820   0.00116  -0.00068   0.00530   0.00462   3.50282
    R6        2.88601   0.00187   0.00047   0.00488   0.00535   2.89136
    R7        2.07022  -0.00003   0.00017  -0.00094  -0.00077   2.06945
    R8        2.55412  -0.00049   0.00047  -0.00389  -0.00342   2.55071
    R9        2.31994  -0.00093   0.00001  -0.00210  -0.00209   2.31785
   R10        2.57714   0.00006   0.00085  -0.00358  -0.00274   2.57440
   R11        2.73063   0.00020  -0.00042   0.00082   0.00040   2.73103
   R12        1.91337  -0.00018   0.00005  -0.00136  -0.00131   1.91206
   R13        2.85579   0.00241   0.00053   0.00510   0.00563   2.86143
   R14        2.07835   0.00012   0.00020  -0.00049  -0.00029   2.07806
   R15        2.06898  -0.00025  -0.00017  -0.00034  -0.00051   2.06847
   R16        2.29640  -0.00300   0.00000  -0.00479  -0.00479   2.29161
   R17        2.53299   0.00538   0.00117   0.00693   0.00810   2.54109
   R18        1.84586  -0.00005   0.00025  -0.00200  -0.00175   1.84411
    A1        1.92938  -0.00022  -0.00023   0.00037   0.00014   1.92952
    A2        1.92925  -0.00022  -0.00009  -0.00112  -0.00121   1.92804
    A3        1.91882   0.00026   0.00025   0.00023   0.00048   1.91930
    A4        1.89384   0.00030   0.00021   0.00151   0.00172   1.89555
    A5        1.90257   0.00007  -0.00041   0.00155   0.00114   1.90371
    A6        1.88920  -0.00018   0.00027  -0.00255  -0.00228   1.88692
    A7        1.96047   0.00064   0.00023   0.00368   0.00390   1.96437
    A8        1.93255  -0.00061  -0.00145   0.00242   0.00096   1.93351
    A9        1.92310   0.00031   0.00020   0.00059   0.00080   1.92390
   A10        1.89357   0.00020   0.00108   0.00025   0.00132   1.89489
   A11        1.82072  -0.00066   0.00081  -0.00861  -0.00780   1.81292
   A12        1.93052   0.00013  -0.00074   0.00112   0.00038   1.93090
   A13        1.64280   0.00188   0.00019   0.00898   0.00917   1.65197
   A14        2.11962   0.00032   0.00039   0.00170   0.00210   2.12172
   A15        2.02480  -0.00167  -0.00051  -0.00551  -0.00602   2.01878
   A16        2.13868   0.00136   0.00012   0.00387   0.00399   2.14268
   A17        2.11587  -0.00001   0.00080   0.00022   0.00102   2.11689
   A18        2.10090   0.00050  -0.00077   0.00692   0.00618   2.10707
   A19        2.02441  -0.00037   0.00229  -0.00379  -0.00152   2.02290
   A20        1.91294   0.00094   0.00098   0.00352   0.00449   1.91743
   A21        1.95432  -0.00019  -0.00005   0.00092   0.00087   1.95518
   A22        1.90409   0.00037  -0.00080   0.00542   0.00461   1.90870
   A23        1.88599  -0.00030  -0.00018  -0.00177  -0.00196   1.88404
   A24        1.94143  -0.00062  -0.00070  -0.00089  -0.00162   1.93982
   A25        1.86506  -0.00026   0.00074  -0.00753  -0.00681   1.85825
   A26        2.16887   0.00173   0.00068   0.00552   0.00622   2.17509
   A27        1.95437  -0.00056  -0.00017  -0.00535  -0.00550   1.94886
   A28        2.15924  -0.00115  -0.00039  -0.00033  -0.00070   2.15854
   A29        1.84509   0.00346   0.00148   0.01144   0.01292   1.85801
    D1        0.95492  -0.00012   0.00268  -0.00254   0.00014   0.95506
    D2        3.07495   0.00015   0.00320   0.00206   0.00526   3.08021
    D3       -1.06686   0.00011   0.00142   0.00553   0.00694  -1.05992
    D4        3.05213  -0.00004   0.00273  -0.00114   0.00159   3.05372
    D5       -1.11103   0.00024   0.00325   0.00346   0.00671  -1.10432
    D6        1.03035   0.00020   0.00146   0.00693   0.00839   1.03874
    D7       -1.14642  -0.00024   0.00318  -0.00486  -0.00168  -1.14810
    D8        0.97361   0.00004   0.00369  -0.00025   0.00344   0.97705
    D9        3.11499  -0.00000   0.00191   0.00321   0.00512   3.12011
   D10        1.24358  -0.00023  -0.00276  -0.05021  -0.05296   1.19062
   D11       -0.89859  -0.00003  -0.00183  -0.05589  -0.05772  -0.95630
   D12       -2.95694   0.00007  -0.00190  -0.05286  -0.05477  -3.01170
   D13       -0.93274  -0.00057  -0.02257   0.03901   0.01645  -0.91629
   D14        2.19563   0.00038  -0.01811   0.04427   0.02615   2.22178
   D15        1.22624  -0.00003  -0.02250   0.04538   0.02288   1.24912
   D16       -1.92857   0.00092  -0.01805   0.05063   0.03258  -1.89599
   D17       -3.06979  -0.00064  -0.02133   0.03583   0.01451  -3.05528
   D18        0.05858   0.00032  -0.01688   0.04109   0.02421   0.08279
   D19       -3.03424  -0.00026  -0.00213   0.00094  -0.00125  -3.03548
   D20       -0.21225   0.00013   0.00764   0.01265   0.02034  -0.19192
   D21        0.09398   0.00070   0.00237   0.00624   0.00857   0.10255
   D22        2.91596   0.00109   0.01214   0.01795   0.03015   2.94611
   D23        2.48922   0.00046  -0.01625   0.06392   0.04764   2.53686
   D24       -1.70123   0.00059  -0.01585   0.06464   0.04876  -1.65247
   D25        0.35960   0.00039  -0.01548   0.05935   0.04382   0.40342
   D26       -0.34603  -0.00006  -0.02518   0.05086   0.02572  -0.32031
   D27        1.74670   0.00007  -0.02478   0.05158   0.02684   1.77354
   D28       -2.47565  -0.00013  -0.02442   0.04629   0.02190  -2.45375
   D29        0.14302  -0.00062  -0.00041  -0.01482  -0.01523   0.12779
   D30       -3.03798  -0.00005   0.00471  -0.01942  -0.01471  -3.05269
   D31       -1.99100  -0.00077  -0.00084  -0.01698  -0.01781  -2.00881
   D32        1.11118  -0.00020   0.00429  -0.02158  -0.01729   1.09389
   D33        2.25014   0.00007  -0.00122  -0.00628  -0.00750   2.24264
   D34       -0.93086   0.00064   0.00390  -0.01088  -0.00698  -0.93784
   D35        3.12673   0.00085   0.00001   0.03869   0.03870  -3.11776
   D36       -0.05402   0.00149   0.00511   0.03428   0.03940  -0.01462
         Item               Value     Threshold  Converged?
 Maximum Force            0.005383     0.000450     NO 
 RMS     Force            0.001029     0.000300     NO 
 Maximum Displacement     0.167964     0.001800     NO 
 RMS     Displacement     0.048809     0.001200     NO 
 Predicted change in Energy=-2.433286D-04
 Lowest energy point so far.  Saving SCF results.
 GradGradGradGradGradGradGradGradGradGradGradGradGradGradGradGradGradGrad

 Leave Link  103 at Fri Mar 14 14:24:08 2025, MaxMem=  8589934592 cpu:               0.6 elap:               0.3
 (Enter /home/enzo/gaussian_versions/gdv.j21/gdv/l202.exe)
                          Input orientation:                          
 ---------------------------------------------------------------------
 Center     Atomic      Atomic             Coordinates (Angstroms)
 Number     Number       Type             X           Y           Z
 ---------------------------------------------------------------------
      1          6           0       -2.209746    1.645125   -0.966728
      2          6           0       -1.722224    0.764210    0.187053
      3         16           0       -3.075892   -0.277316    0.907255
      4          6           0       -0.591223   -0.157381   -0.273971
      5          8           0       -0.710958   -0.877070   -1.259945
      6          7           0        0.544836   -0.118460    0.476865
      7          6           0        1.732679   -0.838975    0.078760
      8          6           0        2.966439   -0.054428    0.472622
      9          8           0        2.955950    0.953212    1.147243
     10          8           0        4.090789   -0.638366    0.022028
     11          1           0       -3.058202    2.257088   -0.650247
     12          1           0       -1.406102    2.310284   -1.307844
     13          1           0       -2.514765    1.020502   -1.810090
     14          1           0       -1.394904    1.386598    1.026550
     15          1           0       -3.208979   -1.055959   -0.187229
     16          1           0        0.677418    0.599850    1.177032
     17          1           0        1.793887   -1.828289    0.554959
     18          1           0        1.705133   -1.015537   -1.001140
     19          1           0        4.832944   -0.087209    0.334660
 ---------------------------------------------------------------------
                    Distance matrix (angstroms):
                    1          2          3          4          5
     1  C    0.000000
     2  C    1.531306   0.000000
     3  S    2.820958   1.853614   0.000000
     4  C    2.519634   1.530044   2.753772   0.000000
     5  O    2.948527   2.410449   3.263339   1.226554   0.000000
     6  N    3.575180   2.450032   3.649677   1.362314   2.273547
     7  C    4.775617   3.810287   4.911642   2.447348   2.786565
     8  C    5.634989   4.768153   6.062042   3.636614   4.147503
     9  O    5.624236   4.779436   6.160756   3.979410   4.752968
    10  O    6.774120   5.982105   7.230167   4.715952   4.975662
    11  H    1.092949   2.171311   2.974782   3.472352   3.962857
    12  H    1.097560   2.173705   3.793486   2.796836   3.262628
    13  H    1.092909   2.163882   3.063195   2.728935   2.675287
    14  H    2.168862   1.095108   2.368241   2.172816   3.289383
    15  H    2.983612   2.379820   1.349775   2.769046   2.724488
    16  H    3.744866   2.601030   3.863876   2.070811   3.169817
    17  H    5.514455   4.383999   5.122927   3.027839   3.236193
    18  H    4.733559   4.040554   5.200495   2.557041   2.433855
    19  H    7.368451   6.611878   7.931815   5.458657   5.822498
                    6          7          8          9         10
     6  N    0.000000
     7  C    1.445199   0.000000
     8  C    2.422454   1.514201   0.000000
     9  O    2.722381   2.418674   1.212668   0.000000
    10  O    3.612612   2.367308   1.344686   2.255457   0.000000
    11  H    4.460436   5.750617   6.549828   6.411013   7.742331
    12  H    3.590284   4.657516   5.280250   5.186193   6.378002
    13  H    3.986045   5.006615   6.034058   6.219251   7.052790
    14  H    2.515938   3.953891   4.626522   4.374051   5.933159
    15  H    3.925692   4.953566   6.290808   6.619965   7.314697
    16  H    1.011821   2.095231   2.482718   2.305962   3.810291
    17  H    2.118902   1.099661   2.127967   3.072123   2.641154
    18  H    2.082195   1.094586   2.164855   3.171130   2.623068
    19  H    4.290579   3.200356   1.871883   2.294748   0.975861
                   11         12         13         14         15
    11  H    0.000000
    12  H    1.778959   0.000000
    13  H    1.780367   1.773392   0.000000
    14  H    2.517134   2.510521   3.071587   0.000000
    15  H    3.348641   3.979665   2.725308   3.275701   0.000000
    16  H    4.476633   3.666231   4.392025   2.221742   4.439257
    17  H    6.456438   5.553175   5.680982   4.552613   5.116249
    18  H    5.789867   4.564530   4.754724   4.414976   4.981224
    19  H    8.290715   6.882695   7.734068   6.437150   8.116857
                   16         17         18         19
    16  H    0.000000
    17  H    2.743964   0.000000
    18  H    2.900019   1.757808   0.000000
    19  H    4.295350   3.509382   3.525529   0.000000
 Stoichiometry    C5H9NO3S
 Framework group  C1[X(C5H9NO3S)]
 Deg. of freedom    51
 Full point group                 C1      NOp   1
 RotChk:  IX=0 Diff= 1.27D-01
 Largest Abelian subgroup         C1      NOp   1
 Largest concise Abelian subgroup C1      NOp   1
                         Standard orientation:                         
 ---------------------------------------------------------------------
 Center     Atomic      Atomic             Coordinates (Angstroms)
 Number     Number       Type             X           Y           Z
 ---------------------------------------------------------------------
      1          6           0        2.413182    1.227027    1.269332
      2          6           0        1.811671    0.623026   -0.002779
      3         16           0        3.052227   -0.339226   -0.988161
      4          6           0        0.638127   -0.298374    0.336118
      5          8           0        0.748894   -1.204233    1.155621
      6          7           0       -0.524431   -0.041014   -0.325791
      7          6           0       -1.742741   -0.749719   -0.006324
      8          6           0       -2.932295    0.172991   -0.168719
      9          8           0       -2.878407    1.291073   -0.635143
     10          8           0       -4.075035   -0.416414    0.224890
     11          1           0        3.289069    1.834779    1.028504
     12          1           0        1.676251    1.861139    1.778717
     13          1           0        2.709129    0.430624    1.956797
     14          1           0        1.493514    1.417883   -0.685598
     15          1           0        3.176837   -1.324976   -0.074562
     16          1           0       -0.635346    0.808012   -0.864897
     17          1           0       -1.897176   -1.620023   -0.660521
     18          1           0       -1.679994   -1.136889    1.015576
     19          1           0       -4.788194    0.231053    0.068378
 ---------------------------------------------------------------------
 Rotational constants (GHZ):           2.5839685           0.4522406           0.4469644
 Leave Link  202 at Fri Mar 14 14:24:09 2025, MaxMem=  8589934592 cpu:               0.7 elap:               0.3
 (Enter /home/enzo/gaussian_versions/gdv.j21/gdv/l301.exe)
 Standard basis: 6-31G(d) (6D, 7F)
 Ernie: Thresh=  0.10000D-02 Tol=  0.10000D-05 Strict=F.
 There are   172 symmetry adapted cartesian basis functions of A   symmetry.
 There are   172 symmetry adapted basis functions of A   symmetry.
   172 basis functions,   340 primitive gaussians,   172 cartesian basis functions
    43 alpha electrons       43 beta electrons
       nuclear repulsion energy       610.1971168160 Hartrees.
 IExCor=      4002 DFT=T Ex+Corr=B3LYP ScaHFX=  0.200000
 ScaDFX=  0.800000  0.720000  1.000000  0.810000  1.000000  0.000000
 ScaDFX=  0.000000  0.000000  0.000000  0.000000  0.000000  0.000000
 IRadAn=      5 IRanWt=     -1 IRanGd=            0 ICorTp=0 IEmpDi=  4
 NAtoms=   19 NActive=   19 NUniq=   19 SFac= 1.00D+00 NAtFMM=   60 NAOKFM=F Big=F
 Integral buffers will be    131072 words long.
 Raffenetti 2 integral format.
 Two-electron integral symmetry is turned on.
 Leave Link  301 at Fri Mar 14 14:24:09 2025, MaxMem=  8589934592 cpu:               0.5 elap:               0.3
 (Enter /home/enzo/gaussian_versions/gdv.j21/gdv/l302.exe)
 NPDir=0 NMtPBC=     1 NCelOv=     1 NCel=       1 NClECP=     1 NCelD=      1
         NCelK=      1 NCelE2=     1 NClLst=     1 CellRange=     0.0.
 One-electron integrals computed using PRISM.
 One-electron integral symmetry used in STVInt
 NBasis=   172 RedAO= T EigKep=  2.64D-03  NBF=   172
 NBsUse=   172 1.00D-06 EigRej= -1.00D+00 NBFU=   172
 Precomputing XC quadrature grid using
 IXCGrd= 4 IRadAn=           5 IRanWt=          -1 IRanGd=           0 AccXCQ= 0.00D+00.
 Generated NRdTot=       0 NPtTot=      408515 NUsed=           0 NTot=          64
 NSgBfM=   171   171   171   171   171 MxSgAt=    19 MxSgA2=    19 SizInc=   0.000
 NMBTot=     3522 MaxBatPerAtom=       85 MaxMicBPerAtom=      209 NBfPt=            50268477.
 Leave Link  302 at Fri Mar 14 14:24:10 2025, MaxMem=  8589934592 cpu:               4.8 elap:               0.9
 (Enter /home/enzo/gaussian_versions/gdv.j21/gdv/l303.exe)
 DipDrv:  MaxL=1.
 Leave Link  303 at Fri Mar 14 14:24:10 2025, MaxMem=  8589934592 cpu:               1.5 elap:               0.4
 (Enter /home/enzo/gaussian_versions/gdv.j21/gdv/l401.exe)
 Initial guess from the checkpoint file:  "/local/home/enzo/scratch/Gau-2270961.chk"
 B after Tr=     0.000000    0.000000   -0.000000
         Rot=    0.998999   -0.044668   -0.002079    0.000903 Ang=  -5.13 deg.
 AO Guess basis will be translated and rotated to current coordinates.
 JPrj=2 DoOrth=T DoCkMO=T.
 Generating alternative initial guess.
 ExpMin= 1.17D-01 ExpMax= 2.19D+04 ExpMxC= 3.30D+03 IAcc=3 IRadAn=         5 AccDes= 0.00D+00
 Harris functional with IExCor= 4002 and IRadAn=       5 diagonalized for initial guess.
 HarFok:  IExCor=    4002 AccDes= 0.00D+00 IRadAn=         5 IDoV= 1 UseB2=F ITyADJ=14 ICtDFT=  3500011
 FoFCou: FMM=F IPFlag=           0 FMFlag=      100000 FMFlg1=           0
         NFxFlg=           0 DoJE=T BraDBF=F KetDBF=T FulRan=T
         wScrn=  0.000000 ICntrl=       500 IOpCl=  0 I1Cent=   200000004 NGrid=           0
         NMat0=    1 NMatS0=      1 NMatT0=    0 NMatD0=    1 NMtDS0=    0 NMtDT0=    0
 Petite list used in FoFCou.
 Harris En= -874.549059866718    
 Leave Link  401 at Fri Mar 14 14:24:12 2025, MaxMem=  8589934592 cpu:              10.9 elap:               1.8
 (Enter /home/enzo/gaussian_versions/gdv.j21/gdv/l502.exe)
 Integral symmetry usage will be decided dynamically.
 Closed shell SCF:
 Using DIIS extrapolation, IDIIS=  1040.
 NGot=  8589934592 LenX=  8589843591 LenY=  8589813566
 Requested convergence on RMS density matrix=1.00D-08 within 128 cycles.
 Requested convergence on MAX density matrix=1.00D-06.
 Requested convergence on             energy=1.00D-06.
 No special actions if energy rises.
 Fock matrices will be formed incrementally for  20 cycles.
 Integral accuracy reduced to 1.0D-05 until final iterations.

 Cycle   1  Pass 0  IDiag  1:
 FoFJK:  IHMeth= 1 ICntrl=       0 DoSepK=F KAlg= 0 I1Cent=           0 FoldK=F
 IRaf= 890000000 NMat=       1 IRICut=       1 DoRegI=T DoRafI=F ISym2E= 0 IDoP0=0 IntGTp=1.
 FoFCou: FMM=F IPFlag=           0 FMFlag=      100000 FMFlg1=           0
         NFxFlg=           0 DoJE=F BraDBF=F KetDBF=F FulRan=T
         wScrn=  0.000000 ICntrl=         0 IOpCl=  0 I1Cent=           0 NGrid=           0
         NMat0=    1 NMatS0=      1 NMatT0=    0 NMatD0=    1 NMtDS0=    0 NMtDT0=    0
 Symmetry not used in FoFCou.
 E= -874.585055888405    
 DIIS: error= 2.46D-03 at cycle   1 NSaved=   1.
 NSaved= 1 IEnMin= 1 EnMin= -874.585055888405     IErMin= 1 ErrMin= 2.46D-03
 ErrMax= 2.46D-03  0.00D+00 EMaxC= 1.00D-01 BMatC= 1.60D-03 BMatP= 1.60D-03
 IDIUse=3 WtCom= 9.75D-01 WtEn= 2.46D-02
 Coeff-Com:  0.100D+01
 Coeff-En:   0.100D+01
 Coeff:      0.100D+01
 Gap=     1.606 Goal=   None    Shift=    0.000
 GapD=    1.606 DampG=2.000 DampE=1.000 DampFc=2.0000 IDamp=-1.
 RMSDP=4.41D-04 MaxDP=1.16D-02              OVMax= 1.63D-02

 Cycle   2  Pass 0  IDiag  1:
 RMSU=  4.41D-04    CP:  1.00D+00
 E= -874.588350185313     Delta-E=       -0.003294296908 Rises=F Damp=F
 DIIS: error= 2.70D-04 at cycle   2 NSaved=   2.
 NSaved= 2 IEnMin= 2 EnMin= -874.588350185313     IErMin= 2 ErrMin= 2.70D-04
 ErrMax= 2.70D-04  0.00D+00 EMaxC= 1.00D-01 BMatC= 2.63D-05 BMatP= 1.60D-03
 IDIUse=3 WtCom= 9.97D-01 WtEn= 2.70D-03
 Coeff-Com: -0.671D-01 0.107D+01
 Coeff-En:   0.000D+00 0.100D+01
 Coeff:     -0.669D-01 0.107D+01
 Gap=     0.226 Goal=   None    Shift=    0.000
 RMSDP=6.80D-05 MaxDP=1.44D-03 DE=-3.29D-03 OVMax= 2.67D-03

 Cycle   3  Pass 0  IDiag  1:
 RMSU=  5.40D-05    CP:  1.00D+00  1.09D+00
 E= -874.588377741287     Delta-E=       -0.000027555973 Rises=F Damp=F
 DIIS: error= 3.28D-04 at cycle   3 NSaved=   3.
 NSaved= 3 IEnMin= 3 EnMin= -874.588377741287     IErMin= 2 ErrMin= 2.70D-04
 ErrMax= 3.28D-04  0.00D+00 EMaxC= 1.00D-01 BMatC= 2.77D-05 BMatP= 2.63D-05
 IDIUse=3 WtCom= 9.97D-01 WtEn= 3.28D-03
 Coeff-Com: -0.464D-01 0.591D+00 0.455D+00
 Coeff-En:   0.000D+00 0.000D+00 0.100D+01
 Coeff:     -0.463D-01 0.589D+00 0.457D+00
 Gap=     0.226 Goal=   None    Shift=    0.000
 RMSDP=3.39D-05 MaxDP=1.27D-03 DE=-2.76D-05 OVMax= 2.15D-03

 Cycle   4  Pass 0  IDiag  1:
 RMSU=  2.62D-05    CP:  1.00D+00  1.11D+00  6.18D-01
 E= -874.588394758476     Delta-E=       -0.000017017189 Rises=F Damp=F
 DIIS: error= 1.76D-04 at cycle   4 NSaved=   4.
 NSaved= 4 IEnMin= 4 EnMin= -874.588394758476     IErMin= 4 ErrMin= 1.76D-04
 ErrMax= 1.76D-04  0.00D+00 EMaxC= 1.00D-01 BMatC= 5.69D-06 BMatP= 2.63D-05
 IDIUse=3 WtCom= 9.98D-01 WtEn= 1.76D-03
 Coeff-Com: -0.154D-01 0.164D+00 0.315D+00 0.537D+00
 Coeff-En:   0.000D+00 0.000D+00 0.204D+00 0.796D+00
 Coeff:     -0.154D-01 0.164D+00 0.314D+00 0.537D+00
 Gap=     0.226 Goal=   None    Shift=    0.000
 RMSDP=1.35D-05 MaxDP=4.35D-04 DE=-1.70D-05 OVMax= 8.35D-04

 Cycle   5  Pass 0  IDiag  1:
 RMSU=  8.41D-06    CP:  1.00D+00  1.11D+00  7.01D-01  6.44D-01
 E= -874.588399117587     Delta-E=       -0.000004359111 Rises=F Damp=F
 DIIS: error= 1.77D-05 at cycle   5 NSaved=   5.
 NSaved= 5 IEnMin= 5 EnMin= -874.588399117587     IErMin= 5 ErrMin= 1.77D-05
 ErrMax= 1.77D-05  0.00D+00 EMaxC= 1.00D-01 BMatC= 1.75D-07 BMatP= 5.69D-06
 IDIUse=1 WtCom= 1.00D+00 WtEn= 0.00D+00
 Coeff-Com: -0.358D-02 0.293D-01 0.107D+00 0.244D+00 0.624D+00
 Coeff:     -0.358D-02 0.293D-01 0.107D+00 0.244D+00 0.624D+00
 Gap=     0.226 Goal=   None    Shift=    0.000
 RMSDP=3.40D-06 MaxDP=8.77D-05 DE=-4.36D-06 OVMax= 1.05D-04

 Initial convergence to 1.0D-05 achieved.  Increase integral accuracy.
 Cycle   6  Pass 1  IDiag  1:
 E= -874.588389910177     Delta-E=        0.000009207410 Rises=F Damp=F
 DIIS: error= 1.23D-05 at cycle   1 NSaved=   1.
 NSaved= 1 IEnMin= 1 EnMin= -874.588389910177     IErMin= 1 ErrMin= 1.23D-05
 ErrMax= 1.23D-05  0.00D+00 EMaxC= 1.00D-01 BMatC= 4.31D-08 BMatP= 4.31D-08
 IDIUse=1 WtCom= 1.00D+00 WtEn= 0.00D+00
 Coeff-Com:  0.100D+01
 Coeff:      0.100D+01
 Gap=     0.226 Goal=   None    Shift=    0.000
 RMSDP=3.40D-06 MaxDP=8.77D-05 DE= 9.21D-06 OVMax= 8.66D-05

 Cycle   7  Pass 1  IDiag  1:
 RMSU=  4.74D-06    CP:  1.00D+00
 E= -874.588389899730     Delta-E=        0.000000010447 Rises=F Damp=F
 DIIS: error= 1.08D-05 at cycle   2 NSaved=   2.
 NSaved= 2 IEnMin= 1 EnMin= -874.588389910177     IErMin= 2 ErrMin= 1.08D-05
 ErrMax= 1.08D-05  0.00D+00 EMaxC= 1.00D-01 BMatC= 5.64D-08 BMatP= 4.31D-08
 IDIUse=1 WtCom= 1.00D+00 WtEn= 0.00D+00
 Coeff-Com:  0.539D+00 0.461D+00
 Coeff:      0.539D+00 0.461D+00
 Gap=     0.226 Goal=   None    Shift=    0.000
 RMSDP=1.71D-06 MaxDP=5.00D-05 DE= 1.04D-08 OVMax= 6.45D-05

 Cycle   8  Pass 1  IDiag  1:
 RMSU=  1.55D-06    CP:  1.00D+00  8.50D-01
 E= -874.588389945968     Delta-E=       -0.000000046238 Rises=F Damp=F
 DIIS: error= 4.91D-06 at cycle   3 NSaved=   3.
 NSaved= 3 IEnMin= 3 EnMin= -874.588389945968     IErMin= 3 ErrMin= 4.91D-06
 ErrMax= 4.91D-06  0.00D+00 EMaxC= 1.00D-01 BMatC= 6.03D-09 BMatP= 4.31D-08
 IDIUse=1 WtCom= 1.00D+00 WtEn= 0.00D+00
 Coeff-Com:  0.114D+00 0.252D+00 0.634D+00
 Coeff:      0.114D+00 0.252D+00 0.634D+00
 Gap=     0.226 Goal=   None    Shift=    0.000
 RMSDP=5.59D-07 MaxDP=1.88D-05 DE=-4.62D-08 OVMax= 3.19D-05

 Cycle   9  Pass 1  IDiag  1:
 RMSU=  4.05D-07    CP:  1.00D+00  8.91D-01  7.88D-01
 E= -874.588389949179     Delta-E=       -0.000000003211 Rises=F Damp=F
 DIIS: error= 2.65D-06 at cycle   4 NSaved=   4.
 NSaved= 4 IEnMin= 4 EnMin= -874.588389949179     IErMin= 4 ErrMin= 2.65D-06
 ErrMax= 2.65D-06  0.00D+00 EMaxC= 1.00D-01 BMatC= 2.11D-09 BMatP= 6.03D-09
 IDIUse=1 WtCom= 1.00D+00 WtEn= 0.00D+00
 Coeff-Com:  0.139D-02 0.110D+00 0.441D+00 0.448D+00
 Coeff:      0.139D-02 0.110D+00 0.441D+00 0.448D+00
 Gap=     0.226 Goal=   None    Shift=    0.000
 RMSDP=2.41D-07 MaxDP=7.65D-06 DE=-3.21D-09 OVMax= 1.51D-05

 Cycle  10  Pass 1  IDiag  1:
 RMSU=  9.45D-08    CP:  1.00D+00  8.92D-01  8.08D-01  4.60D-01
 E= -874.588389950841     Delta-E=       -0.000000001662 Rises=F Damp=F
 DIIS: error= 3.22D-07 at cycle   5 NSaved=   5.
 NSaved= 5 IEnMin= 5 EnMin= -874.588389950841     IErMin= 5 ErrMin= 3.22D-07
 ErrMax= 3.22D-07  0.00D+00 EMaxC= 1.00D-01 BMatC= 4.22D-11 BMatP= 2.11D-09
 IDIUse=1 WtCom= 1.00D+00 WtEn= 0.00D+00
 Coeff-Com: -0.355D-02 0.490D-01 0.212D+00 0.239D+00 0.504D+00
 Coeff:     -0.355D-02 0.490D-01 0.212D+00 0.239D+00 0.504D+00
 Gap=     0.226 Goal=   None    Shift=    0.000
 RMSDP=4.78D-08 MaxDP=1.05D-06 DE=-1.66D-09 OVMax= 2.58D-06

 Cycle  11  Pass 1  IDiag  1:
 RMSU=  3.15D-08    CP:  1.00D+00  8.93D-01  8.09D-01  4.94D-01  6.53D-01
 E= -874.588389950868     Delta-E=       -0.000000000027 Rises=F Damp=F
 DIIS: error= 7.93D-08 at cycle   6 NSaved=   6.
 NSaved= 6 IEnMin= 6 EnMin= -874.588389950868     IErMin= 6 ErrMin= 7.93D-08
 ErrMax= 7.93D-08  0.00D+00 EMaxC= 1.00D-01 BMatC= 2.70D-12 BMatP= 4.22D-11
 IDIUse=1 WtCom= 1.00D+00 WtEn= 0.00D+00
 Coeff-Com: -0.184D-02 0.103D-01 0.485D-01 0.593D-01 0.234D+00 0.649D+00
 Coeff:     -0.184D-02 0.103D-01 0.485D-01 0.593D-01 0.234D+00 0.649D+00
 Gap=     0.226 Goal=   None    Shift=    0.000
 RMSDP=1.29D-08 MaxDP=2.53D-07 DE=-2.73D-11 OVMax= 6.21D-07

 Cycle  12  Pass 1  IDiag  1:
 RMSU=  1.07D-08    CP:  1.00D+00  8.93D-01  8.10D-01  4.91D-01  7.06D-01
                    CP:  8.81D-01
 E= -874.588389950883     Delta-E=       -0.000000000015 Rises=F Damp=F
 DIIS: error= 4.68D-08 at cycle   7 NSaved=   7.
 NSaved= 7 IEnMin= 7 EnMin= -874.588389950883     IErMin= 7 ErrMin= 4.68D-08
 ErrMax= 4.68D-08  0.00D+00 EMaxC= 1.00D-01 BMatC= 4.12D-13 BMatP= 2.70D-12
 IDIUse=1 WtCom= 1.00D+00 WtEn= 0.00D+00
 Coeff-Com: -0.570D-03 0.344D-03 0.310D-02 0.598D-02 0.630D-01 0.320D+00
 Coeff-Com:  0.608D+00
 Coeff:     -0.570D-03 0.344D-03 0.310D-02 0.598D-02 0.630D-01 0.320D+00
 Coeff:      0.608D+00
 Gap=     0.226 Goal=   None    Shift=    0.000
 RMSDP=5.25D-09 MaxDP=1.70D-07 DE=-1.50D-11 OVMax= 3.58D-07

 SCF Done:  E(RB3LYP) =  -874.588389951     A.U. after   12 cycles
            NFock= 12  Conv=0.52D-08     -V/T= 2.0064
 KE= 8.690268818144D+02 PE=-3.280143502726D+03 EE= 9.263311141444D+02
 Leave Link  502 at Fri Mar 14 14:24:21 2025, MaxMem=  8589934592 cpu:              69.8 elap:               8.6
 (Enter /home/enzo/gaussian_versions/gdv.j21/gdv/l701.exe)
 ... and contract with generalized density number  0.
 Compute integral first derivatives.
 Leave Link  701 at Fri Mar 14 14:24:22 2025, MaxMem=  8589934592 cpu:               2.3 elap:               0.6
 (Enter /home/enzo/gaussian_versions/gdv.j21/gdv/l702.exe)
 L702 exits ... SP integral derivatives will be done elsewhere.
 Leave Link  702 at Fri Mar 14 14:24:22 2025, MaxMem=  8589934592 cpu:               0.2 elap:               0.3
 (Enter /home/enzo/gaussian_versions/gdv.j21/gdv/l703.exe)
 Integral derivatives from FoFJK, PRISM(SPDF).
 Compute integral first derivatives, UseDBF=F ICtDFT=           0.
 Calling FoFJK, ICntrl=      2127 FMM=F ISym2X=0 I1Cent= 0 IOpClX= 0 NMat=1 NMatS=1 NMatT=0.
 FoFJK:  IHMeth= 1 ICntrl=    2127 DoSepK=F KAlg= 0 I1Cent=           0 FoldK=F
 IRaf=         0 NMat=       1 IRICut=       1 DoRegI=T DoRafI=F ISym2E= 0 IDoP0=0 IntGTp=1.
 FoFCou: FMM=F IPFlag=           0 FMFlag=      100000 FMFlg1=         800
         NFxFlg=           0 DoJE=F BraDBF=F KetDBF=F FulRan=T
         wScrn=  0.000000 ICntrl=      2127 IOpCl=  0 I1Cent=           0 NGrid=           0
         NMat0=    1 NMatS0=      1 NMatT0=    0 NMatD0=    1 NMtDS0=    0 NMtDT0=    0
 Symmetry not used in FoFCou.
 Leave Link  703 at Fri Mar 14 14:24:24 2025, MaxMem=  8589934592 cpu:              14.8 elap:               2.1
 (Enter /home/enzo/gaussian_versions/gdv.j21/gdv/l716.exe)
 Dipole        =-1.10556785D+00 4.91684777D-01-2.74162266D-02
 ***** Axes restored to original set *****
 -------------------------------------------------------------------
 Center     Atomic                   Forces (Hartrees/Bohr)
 Number     Number              X              Y              Z
 -------------------------------------------------------------------
      1        6           0.000082045   -0.000231013    0.000442414
      2        6          -0.000721088    0.000657087   -0.000015695
      3       16           0.000036466    0.000536981    0.000265009
      4        6           0.000174826    0.000092725   -0.001829504
      5        8          -0.000242194   -0.000422168    0.000407208
      6        7           0.001673979    0.000810829    0.000100725
      7        6          -0.001222050   -0.000439471   -0.000388525
      8        6          -0.002116043    0.000132538    0.002453725
      9        8           0.000188058    0.000460592   -0.000881919
     10        8           0.001144597   -0.000161343   -0.001135219
     11        1          -0.000086168   -0.000001617    0.000150607
     12        1           0.000151728   -0.000218856   -0.000030234
     13        1           0.000059673   -0.000073970   -0.000273680
     14        1          -0.000138553   -0.000070235    0.000413772
     15        1          -0.000051882   -0.000521947   -0.000120339
     16        1          -0.000186835   -0.000067093    0.000639720
     17        1           0.000111408   -0.000344777   -0.000223197
     18        1           0.000578718    0.000130149   -0.000132209
     19        1           0.000563315   -0.000268412    0.000157341
 -------------------------------------------------------------------
 Cartesian Forces:  Max     0.002453725 RMS     0.000687151
 Leave Link  716 at Fri Mar 14 14:24:24 2025, MaxMem=  8589934592 cpu:               0.2 elap:               0.2
 (Enter /home/enzo/gaussian_versions/gdv.j21/gdv/l103.exe)

 GradGradGradGradGradGradGradGradGradGradGradGradGradGradGradGradGradGrad
 Berny optimization.
 Using GEDIIS/GDIIS optimizer.
 FormGI is forming the generalized inverse of G from B-inverse, IUseBI=4.
 Internal  Forces:  Max     0.001942373 RMS     0.000395044
 Search for a local minimum.
 Step number  10 out of a maximum of   93
 All quantities printed in internal units (Hartrees-Bohrs-Radians)
 RMS Force = .39504D-03 SwitMx=.10000D-02 MixMth= 2
 Mixed Optimization -- En-DIIS/RFO-DIIS
 Update second derivatives using D2CorX and points    8    9   10
 DE= -3.07D-04 DEPred=-2.43D-04 R= 1.26D+00
 TightC=F SS=  1.41D+00  RLast= 1.66D-01 DXNew= 2.4000D+00 4.9807D-01
 Trust test= 1.26D+00 RLast= 1.66D-01 DXMaxT set to 1.43D+00
 ITU=  1  1  1  1  1  0  1  1  1  0
 Use linear search instead of GDIIS.
     Eigenvalues ---    0.00107   0.00450   0.00489   0.00824   0.00862
     Eigenvalues ---    0.01016   0.01316   0.02041   0.04144   0.04866
     Eigenvalues ---    0.04906   0.05230   0.05662   0.05724   0.05841
     Eigenvalues ---    0.06771   0.08027   0.09656   0.13511   0.15469
     Eigenvalues ---    0.15692   0.16000   0.16026   0.16051   0.17117
     Eigenvalues ---    0.17750   0.19543   0.22025   0.22063   0.22497
     Eigenvalues ---    0.23224   0.24722   0.25229   0.26451   0.26648
     Eigenvalues ---    0.30247   0.31600   0.32583   0.32597   0.32610
     Eigenvalues ---    0.32619   0.32646   0.32903   0.34493   0.37517
     Eigenvalues ---    0.40648   0.42659   0.45795   0.50907   0.79403
     Eigenvalues ---    0.80637
 RFO step:  Lambda=-2.79400422D-04 EMin= 1.07468221D-03
 Quartic linear search produced a step of  0.42780.
 Iteration  1 RMS(Cart)=  0.12573294 RMS(Int)=  0.00440749
 Iteration  2 RMS(Cart)=  0.00739771 RMS(Int)=  0.00005398
 Iteration  3 RMS(Cart)=  0.00001484 RMS(Int)=  0.00005324
 Iteration  4 RMS(Cart)=  0.00000000 RMS(Int)=  0.00005324
 Variable       Old X    -DE/DX   Delta X   Delta X   Delta X     New X
                                 (Linear)    (Quad)   (Total)
    R1        2.89375  -0.00059   0.00062  -0.00341  -0.00279   2.89096
    R2        2.06537   0.00011  -0.00067   0.00006  -0.00061   2.06477
    R3        2.07409  -0.00001  -0.00057  -0.00022  -0.00079   2.07330
    R4        2.06530   0.00024  -0.00055   0.00031  -0.00023   2.06507
    R5        3.50282   0.00006   0.00198   0.00319   0.00517   3.50799
    R6        2.89136   0.00079   0.00229   0.00200   0.00429   2.89565
    R7        2.06945   0.00024  -0.00033   0.00048   0.00015   2.06961
    R8        2.55071   0.00040  -0.00146   0.00135  -0.00011   2.55060
    R9        2.31785  -0.00006  -0.00089  -0.00024  -0.00113   2.31672
   R10        2.57440   0.00095  -0.00117  -0.00027  -0.00144   2.57296
   R11        2.73103  -0.00033   0.00017  -0.00025  -0.00008   2.73095
   R12        1.91206   0.00037  -0.00056   0.00114   0.00058   1.91264
   R13        2.86143   0.00006   0.00241  -0.00206   0.00035   2.86177
   R14        2.07806   0.00022  -0.00012   0.00049   0.00036   2.07842
   R15        2.06847   0.00009  -0.00022   0.00096   0.00075   2.06921
   R16        2.29161  -0.00011  -0.00205  -0.00035  -0.00240   2.28921
   R17        2.54109   0.00194   0.00347   0.00166   0.00512   2.54621
   R18        1.84411   0.00033  -0.00075  -0.00028  -0.00103   1.84308
    A1        1.92952  -0.00013   0.00006   0.00032   0.00037   1.92989
    A2        1.92804  -0.00024  -0.00052  -0.00229  -0.00281   1.92523
    A3        1.91930   0.00015   0.00021   0.00033   0.00053   1.91984
    A4        1.89555   0.00022   0.00073   0.00149   0.00222   1.89778
    A5        1.90371   0.00007   0.00049   0.00245   0.00293   1.90664
    A6        1.88692  -0.00006  -0.00097  -0.00228  -0.00326   1.88366
    A7        1.96437   0.00023   0.00167   0.00046   0.00213   1.96649
    A8        1.93351  -0.00052   0.00041   0.00247   0.00287   1.93638
    A9        1.92390   0.00023   0.00034   0.00225   0.00258   1.92648
   A10        1.89489   0.00026   0.00057  -0.00221  -0.00165   1.89324
   A11        1.81292  -0.00036  -0.00334  -0.00581  -0.00914   1.80378
   A12        1.93090   0.00019   0.00016   0.00237   0.00251   1.93340
   A13        1.65197   0.00064   0.00392   0.00526   0.00918   1.66116
   A14        2.12172   0.00004   0.00090   0.00018   0.00105   2.12277
   A15        2.01878  -0.00014  -0.00257   0.00092  -0.00168   2.01710
   A16        2.14268   0.00010   0.00171  -0.00107   0.00060   2.14328
   A17        2.11689  -0.00013   0.00044  -0.00090  -0.00070   2.11618
   A18        2.10707   0.00010   0.00264   0.00822   0.01064   2.11772
   A19        2.02290   0.00015  -0.00065   0.00002  -0.00090   2.02200
   A20        1.91743  -0.00070   0.00192  -0.00888  -0.00696   1.91047
   A21        1.95518   0.00026   0.00037   0.00255   0.00291   1.95809
   A22        1.90870   0.00065   0.00197   0.01105   0.01301   1.92170
   A23        1.88404   0.00017  -0.00084   0.00233   0.00149   1.88553
   A24        1.93982  -0.00020  -0.00069  -0.00361  -0.00429   1.93552
   A25        1.85825  -0.00016  -0.00291  -0.00339  -0.00633   1.85192
   A26        2.17509   0.00051   0.00266   0.00108   0.00373   2.17882
   A27        1.94886  -0.00041  -0.00235  -0.00290  -0.00526   1.94360
   A28        2.15854  -0.00008  -0.00030   0.00215   0.00183   2.16037
   A29        1.85801   0.00085   0.00553   0.00111   0.00663   1.86464
    D1        0.95506  -0.00006   0.00006  -0.00550  -0.00544   0.94962
    D2        3.08021   0.00006   0.00225  -0.00624  -0.00399   3.07622
    D3       -1.05992   0.00010   0.00297   0.00000   0.00298  -1.05694
    D4        3.05372  -0.00003   0.00068  -0.00492  -0.00425   3.04947
    D5       -1.10432   0.00009   0.00287  -0.00566  -0.00279  -1.10711
    D6        1.03874   0.00013   0.00359   0.00058   0.00417   1.04291
    D7       -1.14810  -0.00016  -0.00072  -0.00896  -0.00969  -1.15778
    D8        0.97705  -0.00004   0.00147  -0.00971  -0.00823   0.96882
    D9        3.12011   0.00000   0.00219  -0.00346  -0.00127   3.11884
   D10        1.19062   0.00005  -0.02266   0.03756   0.01490   1.20552
   D11       -0.95630   0.00037  -0.02469   0.03568   0.01099  -0.94531
   D12       -3.01170   0.00022  -0.02343   0.03693   0.01348  -2.99822
   D13       -0.91629  -0.00018   0.00704   0.07303   0.08008  -0.83622
   D14        2.22178   0.00033   0.01119   0.08111   0.09230   2.31409
   D15        1.24912  -0.00006   0.00979   0.07374   0.08352   1.33265
   D16       -1.89599   0.00046   0.01394   0.08181   0.09575  -1.80024
   D17       -3.05528  -0.00025   0.00621   0.06683   0.07304  -2.98225
   D18        0.08279   0.00027   0.01036   0.07491   0.08526   0.16806
   D19       -3.03548  -0.00040  -0.00053  -0.02897  -0.02959  -3.06508
   D20       -0.19192   0.00010   0.00870   0.00045   0.00924  -0.18267
   D21        0.10255   0.00012   0.00367  -0.02078  -0.01721   0.08534
   D22        2.94611   0.00062   0.01290   0.00864   0.02163   2.96774
   D23        2.53686   0.00036   0.02038   0.10485   0.12518   2.66204
   D24       -1.65247   0.00027   0.02086   0.10344   0.12424  -1.52823
   D25        0.40342   0.00064   0.01875   0.10789   0.12661   0.53003
   D26       -0.32031  -0.00012   0.01100   0.07543   0.08648  -0.23383
   D27        1.77354  -0.00021   0.01148   0.07402   0.08554   1.85908
   D28       -2.45375   0.00016   0.00937   0.07847   0.08791  -2.36584
   D29        0.12779  -0.00049  -0.00652  -0.02926  -0.03578   0.09201
   D30       -3.05269   0.00014  -0.00629  -0.02006  -0.02636  -3.07905
   D31       -2.00881  -0.00048  -0.00762  -0.02841  -0.03603  -2.04483
   D32        1.09389   0.00015  -0.00739  -0.01922  -0.02661   1.06729
   D33        2.24264  -0.00028  -0.00321  -0.02370  -0.02691   2.21573
   D34       -0.93784   0.00035  -0.00299  -0.01451  -0.01749  -0.95534
   D35       -3.11776  -0.00005   0.01655   0.00398   0.02054  -3.09722
   D36       -0.01462   0.00059   0.01685   0.01304   0.02989   0.01527
         Item               Value     Threshold  Converged?
 Maximum Force            0.001942     0.000450     NO 
 RMS     Force            0.000395     0.000300     NO 
 Maximum Displacement     0.368147     0.001800     NO 
 RMS     Displacement     0.126738     0.001200     NO 
 Predicted change in Energy=-1.826529D-04
 Lowest energy point so far.  Saving SCF results.
 GradGradGradGradGradGradGradGradGradGradGradGradGradGradGradGradGradGrad

 Leave Link  103 at Fri Mar 14 14:24:25 2025, MaxMem=  8589934592 cpu:               2.1 elap:               0.6
 (Enter /home/enzo/gaussian_versions/gdv.j21/gdv/l202.exe)
                          Input orientation:                          
 ---------------------------------------------------------------------
 Center     Atomic      Atomic             Coordinates (Angstroms)
 Number     Number       Type             X           Y           Z
 ---------------------------------------------------------------------
      1          6           0       -2.303547    1.615973   -0.991307
      2          6           0       -1.706310    0.807891    0.162248
      3         16           0       -2.966742   -0.247652    1.024323
      4          6           0       -0.572016   -0.096134   -0.331815
      5          8           0       -0.700654   -0.805100   -1.323674
      6          7           0        0.570575   -0.062913    0.407916
      7          6           0        1.748683   -0.794270    0.000904
      8          6           0        2.983430   -0.101044    0.537744
      9          8           0        2.971983    0.857052    1.278966
     10          8           0        4.109760   -0.708050    0.115368
     11          1           0       -3.154004    2.208290   -0.645300
     12          1           0       -1.549996    2.293523   -1.411790
     13          1           0       -2.632950    0.943673   -1.787352
     14          1           0       -1.352918    1.477130    0.953875
     15          1           0       -3.139152   -1.099412   -0.008401
     16          1           0        0.710467    0.632977    1.129418
     17          1           0        1.747170   -1.827430    0.378071
     18          1           0        1.786541   -0.869478   -1.090834
     19          1           0        4.856762   -0.237148    0.529475
 ---------------------------------------------------------------------
                    Distance matrix (angstroms):
                    1          2          3          4          5
     1  C    0.000000
     2  C    1.529829   0.000000
     3  S    2.824127   1.856349   0.000000
     4  C    2.522784   1.532313   2.756226   0.000000
     5  O    2.922555   2.412686   3.310437   1.225955   0.000000
     6  N    3.610687   2.450073   3.595372   1.361551   2.272723
     7  C    4.818123   3.811814   4.856069   2.446168   2.784578
     8  C    5.765264   4.791745   5.971833   3.660239   4.187248
     9  O    5.793212   4.809979   6.045962   4.007880   4.798410
    10  O    6.910594   6.010569   7.149478   4.742725   5.021986
    11  H    1.092629   2.170038   2.975627   3.474953   3.944570
    12  H    1.097141   2.170053   3.794652   2.798794   3.214127
    13  H    1.092786   2.162877   3.071838   2.728962   2.647069
    14  H    2.169494   1.095189   2.363105   2.176687   3.289567
    15  H    3.006269   2.391644   1.349718   2.775131   2.786187
    16  H    3.814189   2.608989   3.782647   2.076432   3.174428
    17  H    5.490039   4.349485   5.013412   2.979924   3.151656
    18  H    4.787086   4.072320   5.239681   2.595566   2.498899
    19  H    7.550951   6.655891   7.839145   5.498485   5.885712
                    6          7          8          9         10
     6  N    0.000000
     7  C    1.445157   0.000000
     8  C    2.416646   1.514384   0.000000
     9  O    2.715110   2.420076   1.211399   0.000000
    10  O    3.609378   2.365422   1.347396   2.257884   0.000000
    11  H    4.487774   5.785264   6.663385   6.561734   7.864217
    12  H    3.655262   4.734073   5.485124   5.454531   6.585931
    13  H    4.011857   5.041529   6.167757   6.389451   7.198102
    14  H    2.523813   3.960724   4.633326   4.381204   5.942975
    15  H    3.874239   4.897359   6.227441   6.544542   7.260524
    16  H    1.012126   2.094868   2.460737   2.277505   3.792340
    17  H    2.121034   1.099853   2.129376   3.085161   2.627519
    18  H    2.091739   1.094980   2.162244   3.162614   2.622657
    19  H    4.291449   3.201551   1.878288   2.304648   0.975318
                   11         12         13         14         15
    11  H    0.000000
    12  H    1.779779   0.000000
    13  H    1.781862   1.770857   0.000000
    14  H    2.517114   2.510320   3.072032   0.000000
    15  H    3.368494   4.000866   2.755921   3.279508   0.000000
    16  H    4.534906   3.784817   4.447754   2.236284   4.372113
    17  H    6.430849   5.572895   5.617252   4.567517   4.955352
    18  H    5.837819   4.608694   4.827480   4.420815   5.048464
    19  H    8.457697   7.156770   7.928292   6.455927   8.060239
                   16         17         18         19
    16  H    0.000000
    17  H    2.773604   0.000000
    18  H    2.888742   1.754111   0.000000
    19  H    4.278880   3.495924   3.528668   0.000000
 Stoichiometry    C5H9NO3S
 Framework group  C1[X(C5H9NO3S)]
 Deg. of freedom    51
 Full point group                 C1      NOp   1
 RotChk:  IX=3 Diff= 1.50D+00
 Largest Abelian subgroup         C1      NOp   1
 Largest concise Abelian subgroup C1      NOp   1
                         Standard orientation:                         
 ---------------------------------------------------------------------
 Center     Atomic      Atomic             Coordinates (Angstroms)
 Number     Number       Type             X           Y           Z
 ---------------------------------------------------------------------
      1          6           0        2.565023   -0.642787    1.575129
      2          6           0        1.834487    0.248772    0.569238
      3         16           0        2.944274    0.850239   -0.791881
      4          6           0        0.650788   -0.492444   -0.061190
      5          8           0        0.767772   -1.627949   -0.508300
      6          7           0       -0.522508    0.197385   -0.097690
      7          6           0       -1.738706   -0.416996   -0.579228
      8          6           0       -2.932203    0.242139    0.079912
      9          8           0       -2.873468    1.202973    0.815328
     10          8           0       -4.084703   -0.353891   -0.283363
     11          1           0        3.446027   -0.132434    1.971624
     12          1           0        1.900627   -0.898795    2.409848
     13          1           0        2.874336   -1.573777    1.093708
     14          1           0        1.501282    1.174005    1.051273
     15          1           0        3.093938   -0.359851   -1.370691
     16          1           0       -0.637173    1.067912    0.405732
     17          1           0       -1.852259   -0.315576   -1.668492
     18          1           0       -1.723846   -1.492502   -0.374173
     19          1           0       -4.806896    0.144337    0.142609
 ---------------------------------------------------------------------
 Rotational constants (GHZ):           2.5048684           0.4552234           0.4471043
 Leave Link  202 at Fri Mar 14 14:24:25 2025, MaxMem=  8589934592 cpu:               0.2 elap:               0.3
 (Enter /home/enzo/gaussian_versions/gdv.j21/gdv/l301.exe)
 Standard basis: 6-31G(d) (6D, 7F)
 Ernie: Thresh=  0.10000D-02 Tol=  0.10000D-05 Strict=F.
 There are   172 symmetry adapted cartesian basis functions of A   symmetry.
 There are   172 symmetry adapted basis functions of A   symmetry.
   172 basis functions,   340 primitive gaussians,   172 cartesian basis functions
    43 alpha electrons       43 beta electrons
       nuclear repulsion energy       609.8227186474 Hartrees.
 IExCor=      4002 DFT=T Ex+Corr=B3LYP ScaHFX=  0.200000
 ScaDFX=  0.800000  0.720000  1.000000  0.810000  1.000000  0.000000
 ScaDFX=  0.000000  0.000000  0.000000  0.000000  0.000000  0.000000
 IRadAn=      5 IRanWt=     -1 IRanGd=            0 ICorTp=0 IEmpDi=  4
 NAtoms=   19 NActive=   19 NUniq=   19 SFac= 1.00D+00 NAtFMM=   60 NAOKFM=F Big=F
 Integral buffers will be    131072 words long.
 Raffenetti 2 integral format.
 Two-electron integral symmetry is turned on.
 Leave Link  301 at Fri Mar 14 14:24:25 2025, MaxMem=  8589934592 cpu:               0.4 elap:               0.2
 (Enter /home/enzo/gaussian_versions/gdv.j21/gdv/l302.exe)
 NPDir=0 NMtPBC=     1 NCelOv=     1 NCel=       1 NClECP=     1 NCelD=      1
         NCelK=      1 NCelE2=     1 NClLst=     1 CellRange=     0.0.
 One-electron integrals computed using PRISM.
 One-electron integral symmetry used in STVInt
 NBasis=   172 RedAO= T EigKep=  2.59D-03  NBF=   172
 NBsUse=   172 1.00D-06 EigRej= -1.00D+00 NBFU=   172
 Precomputing XC quadrature grid using
 IXCGrd= 4 IRadAn=           5 IRanWt=          -1 IRanGd=           0 AccXCQ= 0.00D+00.
 Generated NRdTot=       0 NPtTot=      408386 NUsed=           0 NTot=          64
 NSgBfM=   171   171   171   171   171 MxSgAt=    19 MxSgA2=    19 SizInc=   0.000
 NMBTot=     3530 MaxBatPerAtom=       85 MaxMicBPerAtom=      204 NBfPt=            50095139.
 Leave Link  302 at Fri Mar 14 14:24:26 2025, MaxMem=  8589934592 cpu:               4.5 elap:               0.8
 (Enter /home/enzo/gaussian_versions/gdv.j21/gdv/l303.exe)
 DipDrv:  MaxL=1.
 Leave Link  303 at Fri Mar 14 14:24:27 2025, MaxMem=  8589934592 cpu:               1.3 elap:               0.4
 (Enter /home/enzo/gaussian_versions/gdv.j21/gdv/l401.exe)
 Initial guess from the checkpoint file:  "/local/home/enzo/scratch/Gau-2270961.chk"
 B after Tr=    -0.000000   -0.000000   -0.000000
         Rot=    0.850268   -0.526293   -0.007785   -0.000042 Ang= -63.52 deg.
 AO Guess basis will be translated and rotated to current coordinates.
 JPrj=2 DoOrth=T DoCkMO=T.
 Generating alternative initial guess.
 ExpMin= 1.17D-01 ExpMax= 2.19D+04 ExpMxC= 3.30D+03 IAcc=3 IRadAn=         5 AccDes= 0.00D+00
 Harris functional with IExCor= 4002 and IRadAn=       5 diagonalized for initial guess.
 HarFok:  IExCor=    4002 AccDes= 0.00D+00 IRadAn=         5 IDoV= 1 UseB2=F ITyADJ=14 ICtDFT=  3500011
 FoFCou: FMM=F IPFlag=           0 FMFlag=      100000 FMFlg1=           0
         NFxFlg=           0 DoJE=T BraDBF=F KetDBF=T FulRan=T
         wScrn=  0.000000 ICntrl=       500 IOpCl=  0 I1Cent=   200000004 NGrid=           0
         NMat0=    1 NMatS0=      1 NMatT0=    0 NMatD0=    1 NMtDS0=    0 NMtDT0=    0
 Petite list used in FoFCou.
 Harris En= -874.549412168201    
 Leave Link  401 at Fri Mar 14 14:24:28 2025, MaxMem=  8589934592 cpu:              10.5 elap:               1.7
 (Enter /home/enzo/gaussian_versions/gdv.j21/gdv/l502.exe)
 Integral symmetry usage will be decided dynamically.
 Closed shell SCF:
 Using DIIS extrapolation, IDIIS=  1040.
 NGot=  8589934592 LenX=  8589843591 LenY=  8589813566
 Requested convergence on RMS density matrix=1.00D-08 within 128 cycles.
 Requested convergence on MAX density matrix=1.00D-06.
 Requested convergence on             energy=1.00D-06.
 No special actions if energy rises.
 Fock matrices will be formed incrementally for  20 cycles.
 Integral accuracy reduced to 1.0D-05 until final iterations.

 Cycle   1  Pass 0  IDiag  1:
 FoFJK:  IHMeth= 1 ICntrl=       0 DoSepK=F KAlg= 0 I1Cent=           0 FoldK=F
 IRaf= 890000000 NMat=       1 IRICut=       1 DoRegI=T DoRafI=F ISym2E= 0 IDoP0=0 IntGTp=1.
 FoFCou: FMM=F IPFlag=           0 FMFlag=      100000 FMFlg1=           0
         NFxFlg=           0 DoJE=F BraDBF=F KetDBF=F FulRan=T
         wScrn=  0.000000 ICntrl=         0 IOpCl=  0 I1Cent=           0 NGrid=           0
         NMat0=    1 NMatS0=      1 NMatT0=    0 NMatD0=    1 NMtDS0=    0 NMtDT0=    0
 Symmetry not used in FoFCou.
 E= -874.571532430884    
 DIIS: error= 4.78D-03 at cycle   1 NSaved=   1.
 NSaved= 1 IEnMin= 1 EnMin= -874.571532430884     IErMin= 1 ErrMin= 4.78D-03
 ErrMax= 4.78D-03  0.00D+00 EMaxC= 1.00D-01 BMatC= 7.91D-03 BMatP= 7.91D-03
 IDIUse=3 WtCom= 9.52D-01 WtEn= 4.78D-02
 Coeff-Com:  0.100D+01
 Coeff-En:   0.100D+01
 Coeff:      0.100D+01
 Gap=     1.605 Goal=   None    Shift=    0.000
 GapD=    1.605 DampG=2.000 DampE=1.000 DampFc=2.0000 IDamp=-1.
 RMSDP=9.45D-04 MaxDP=2.06D-02              OVMax= 3.21D-02

 Cycle   2  Pass 0  IDiag  1:
 RMSU=  9.44D-04    CP:  9.99D-01
 E= -874.588381034399     Delta-E=       -0.016848603515 Rises=F Damp=F
 DIIS: error= 6.46D-04 at cycle   2 NSaved=   2.
 NSaved= 2 IEnMin= 2 EnMin= -874.588381034399     IErMin= 2 ErrMin= 6.46D-04
 ErrMax= 6.46D-04  0.00D+00 EMaxC= 1.00D-01 BMatC= 1.18D-04 BMatP= 7.91D-03
 IDIUse=3 WtCom= 9.94D-01 WtEn= 6.46D-03
 Coeff-Com: -0.739D-01 0.107D+01
 Coeff-En:   0.000D+00 0.100D+01
 Coeff:     -0.734D-01 0.107D+01
 Gap=     0.226 Goal=   None    Shift=    0.000
 RMSDP=1.49D-04 MaxDP=3.24D-03 DE=-1.68D-02 OVMax= 5.36D-03

 Cycle   3  Pass 0  IDiag  1:
 RMSU=  1.21D-04    CP:  9.99D-01  1.09D+00
 E= -874.588580401258     Delta-E=       -0.000199366859 Rises=F Damp=F
 DIIS: error= 3.82D-04 at cycle   3 NSaved=   3.
 NSaved= 3 IEnMin= 3 EnMin= -874.588580401258     IErMin= 3 ErrMin= 3.82D-04
 ErrMax= 3.82D-04  0.00D+00 EMaxC= 1.00D-01 BMatC= 5.00D-05 BMatP= 1.18D-04
 IDIUse=3 WtCom= 9.96D-01 WtEn= 3.82D-03
 Coeff-Com: -0.376D-01 0.462D+00 0.576D+00
 Coeff-En:   0.000D+00 0.000D+00 0.100D+01
 Coeff:     -0.375D-01 0.460D+00 0.577D+00
 Gap=     0.225 Goal=   None    Shift=    0.000
 RMSDP=5.81D-05 MaxDP=1.42D-03 DE=-1.99D-04 OVMax= 3.13D-03

 Cycle   4  Pass 0  IDiag  1:
 RMSU=  4.75D-05    CP:  9.99D-01  1.11D+00  7.46D-01
 E= -874.588603861490     Delta-E=       -0.000023460232 Rises=F Damp=F
 DIIS: error= 3.32D-04 at cycle   4 NSaved=   4.
 NSaved= 4 IEnMin= 4 EnMin= -874.588603861490     IErMin= 4 ErrMin= 3.32D-04
 ErrMax= 3.32D-04  0.00D+00 EMaxC= 1.00D-01 BMatC= 2.49D-05 BMatP= 5.00D-05
 IDIUse=3 WtCom= 9.97D-01 WtEn= 3.32D-03
 Coeff-Com: -0.140D-01 0.152D+00 0.407D+00 0.456D+00
 Coeff-En:   0.000D+00 0.000D+00 0.327D+00 0.673D+00
 Coeff:     -0.140D-01 0.151D+00 0.406D+00 0.457D+00
 Gap=     0.225 Goal=   None    Shift=    0.000
 RMSDP=2.66D-05 MaxDP=8.33D-04 DE=-2.35D-05 OVMax= 1.70D-03

 Cycle   5  Pass 0  IDiag  1:
 RMSU=  1.83D-05    CP:  9.99D-01  1.11D+00  7.88D-01  6.12D-01
 E= -874.588622346946     Delta-E=       -0.000018485456 Rises=F Damp=F
 DIIS: error= 4.54D-05 at cycle   5 NSaved=   5.
 NSaved= 5 IEnMin= 5 EnMin= -874.588622346946     IErMin= 5 ErrMin= 4.54D-05
 ErrMax= 4.54D-05  0.00D+00 EMaxC= 1.00D-01 BMatC= 1.06D-06 BMatP= 2.49D-05
 IDIUse=1 WtCom= 1.00D+00 WtEn= 0.00D+00
 Coeff-Com: -0.318D-02 0.268D-01 0.146D+00 0.235D+00 0.596D+00
 Coeff:     -0.318D-02 0.268D-01 0.146D+00 0.235D+00 0.596D+00
 Gap=     0.225 Goal=   None    Shift=    0.000
 RMSDP=8.07D-06 MaxDP=1.85D-04 DE=-1.85D-05 OVMax= 3.51D-04

 Initial convergence to 1.0D-05 achieved.  Increase integral accuracy.
 Cycle   6  Pass 1  IDiag  1:
 E= -874.588601862970     Delta-E=        0.000020483976 Rises=F Damp=F
 DIIS: error= 1.69D-05 at cycle   1 NSaved=   1.
 NSaved= 1 IEnMin= 1 EnMin= -874.588601862970     IErMin= 1 ErrMin= 1.69D-05
 ErrMax= 1.69D-05  0.00D+00 EMaxC= 1.00D-01 BMatC= 1.84D-07 BMatP= 1.84D-07
 IDIUse=1 WtCom= 1.00D+00 WtEn= 0.00D+00
 Coeff-Com:  0.100D+01
 Coeff:      0.100D+01
 Gap=     0.225 Goal=   None    Shift=    0.000
 RMSDP=8.07D-06 MaxDP=1.85D-04 DE= 2.05D-05 OVMax= 2.85D-04

 Cycle   7  Pass 1  IDiag  1:
 RMSU=  6.53D-06    CP:  1.00D+00
 E= -874.588601674030     Delta-E=        0.000000188940 Rises=F Damp=F
 DIIS: error= 2.89D-05 at cycle   2 NSaved=   2.
 NSaved= 2 IEnMin= 1 EnMin= -874.588601862970     IErMin= 1 ErrMin= 1.69D-05
 ErrMax= 2.89D-05  0.00D+00 EMaxC= 1.00D-01 BMatC= 4.34D-07 BMatP= 1.84D-07
 IDIUse=1 WtCom= 1.00D+00 WtEn= 0.00D+00
 Coeff-Com:  0.611D+00 0.389D+00
 Coeff:      0.611D+00 0.389D+00
 Gap=     0.225 Goal=   None    Shift=    0.000
 RMSDP=3.60D-06 MaxDP=9.85D-05 DE= 1.89D-07 OVMax= 2.14D-04

 Cycle   8  Pass 1  IDiag  1:
 RMSU=  2.26D-06    CP:  1.00D+00  5.72D-01
 E= -874.588602017553     Delta-E=       -0.000000343522 Rises=F Damp=F
 DIIS: error= 7.95D-06 at cycle   3 NSaved=   3.
 NSaved= 3 IEnMin= 3 EnMin= -874.588602017553     IErMin= 3 ErrMin= 7.95D-06
 ErrMax= 7.95D-06  0.00D+00 EMaxC= 1.00D-01 BMatC= 1.27D-08 BMatP= 1.84D-07
 IDIUse=1 WtCom= 1.00D+00 WtEn= 0.00D+00
 Coeff-Com:  0.268D+00 0.207D+00 0.524D+00
 Coeff:      0.268D+00 0.207D+00 0.524D+00
 Gap=     0.225 Goal=   None    Shift=    0.000
 RMSDP=8.05D-07 MaxDP=2.54D-05 DE=-3.44D-07 OVMax= 3.95D-05

 Cycle   9  Pass 1  IDiag  1:
 RMSU=  6.84D-07    CP:  1.00D+00  6.12D-01  8.53D-01
 E= -874.588602025078     Delta-E=       -0.000000007525 Rises=F Damp=F
 DIIS: error= 4.38D-06 at cycle   4 NSaved=   4.
 NSaved= 4 IEnMin= 4 EnMin= -874.588602025078     IErMin= 4 ErrMin= 4.38D-06
 ErrMax= 4.38D-06  0.00D+00 EMaxC= 1.00D-01 BMatC= 3.70D-09 BMatP= 1.27D-08
 IDIUse=1 WtCom= 1.00D+00 WtEn= 0.00D+00
 Coeff-Com:  0.242D-01 0.412D-01 0.363D+00 0.571D+00
 Coeff:      0.242D-01 0.412D-01 0.363D+00 0.571D+00
 Gap=     0.225 Goal=   None    Shift=    0.000
 RMSDP=3.21D-07 MaxDP=1.05D-05 DE=-7.52D-09 OVMax= 1.22D-05

 Cycle  10  Pass 1  IDiag  1:
 RMSU=  1.94D-07    CP:  1.00D+00  6.10D-01  9.12D-01  6.83D-01
 E= -874.588602027879     Delta-E=       -0.000000002801 Rises=F Damp=F
 DIIS: error= 4.74D-07 at cycle   5 NSaved=   5.
 NSaved= 5 IEnMin= 5 EnMin= -874.588602027879     IErMin= 5 ErrMin= 4.74D-07
 ErrMax= 4.74D-07  0.00D+00 EMaxC= 1.00D-01 BMatC= 1.45D-10 BMatP= 3.70D-09
 IDIUse=1 WtCom= 1.00D+00 WtEn= 0.00D+00
 Coeff-Com: -0.674D-02 0.598D-02 0.147D+00 0.282D+00 0.573D+00
 Coeff:     -0.674D-02 0.598D-02 0.147D+00 0.282D+00 0.573D+00
 Gap=     0.225 Goal=   None    Shift=    0.000
 RMSDP=8.67D-08 MaxDP=1.95D-06 DE=-2.80D-09 OVMax= 2.44D-06

 Cycle  11  Pass 1  IDiag  1:
 RMSU=  7.09D-08    CP:  1.00D+00  6.13D-01  9.12D-01  6.95D-01  7.77D-01
 E= -874.588602028007     Delta-E=       -0.000000000128 Rises=F Damp=F
 DIIS: error= 1.19D-07 at cycle   6 NSaved=   6.
 NSaved= 6 IEnMin= 6 EnMin= -874.588602028007     IErMin= 6 ErrMin= 1.19D-07
 ErrMax= 1.19D-07  0.00D+00 EMaxC= 1.00D-01 BMatC= 9.48D-12 BMatP= 1.45D-10
 IDIUse=1 WtCom= 1.00D+00 WtEn= 0.00D+00
 Coeff-Com: -0.582D-02-0.209D-02 0.248D-01 0.594D-01 0.242D+00 0.682D+00
 Coeff:     -0.582D-02-0.209D-02 0.248D-01 0.594D-01 0.242D+00 0.682D+00
 Gap=     0.225 Goal=   None    Shift=    0.000
 RMSDP=2.79D-08 MaxDP=5.60D-07 DE=-1.28D-10 OVMax= 1.22D-06

 Cycle  12  Pass 1  IDiag  1:
 RMSU=  2.30D-08    CP:  1.00D+00  6.13D-01  9.16D-01  6.98D-01  8.33D-01
                    CP:  8.86D-01
 E= -874.588602028015     Delta-E=       -0.000000000008 Rises=F Damp=F
 DIIS: error= 2.76D-08 at cycle   7 NSaved=   7.
 NSaved= 7 IEnMin= 7 EnMin= -874.588602028015     IErMin= 7 ErrMin= 2.76D-08
 ErrMax= 2.76D-08  0.00D+00 EMaxC= 1.00D-01 BMatC= 3.63D-13 BMatP= 9.48D-12
 IDIUse=1 WtCom= 1.00D+00 WtEn= 0.00D+00
 Coeff-Com: -0.526D-03-0.892D-03-0.828D-02-0.131D-01-0.835D-02 0.138D+00
 Coeff-Com:  0.893D+00
 Coeff:     -0.526D-03-0.892D-03-0.828D-02-0.131D-01-0.835D-02 0.138D+00
 Coeff:      0.893D+00
 Gap=     0.225 Goal=   None    Shift=    0.000
 RMSDP=8.48D-09 MaxDP=1.96D-07 DE=-7.96D-12 OVMax= 6.06D-07

 SCF Done:  E(RB3LYP) =  -874.588602028     A.U. after   12 cycles
            NFock= 12  Conv=0.85D-08     -V/T= 2.0064
 KE= 8.690217749336D+02 PE=-3.279390515555D+03 EE= 9.259574199460D+02
 Leave Link  502 at Fri Mar 14 14:24:38 2025, MaxMem=  8589934592 cpu:              75.7 elap:               9.8
 (Enter /home/enzo/gaussian_versions/gdv.j21/gdv/l701.exe)
 ... and contract with generalized density number  0.
 Compute integral first derivatives.
 Leave Link  701 at Fri Mar 14 14:24:39 2025, MaxMem=  8589934592 cpu:               2.5 elap:               0.6
 (Enter /home/enzo/gaussian_versions/gdv.j21/gdv/l702.exe)
 L702 exits ... SP integral derivatives will be done elsewhere.
 Leave Link  702 at Fri Mar 14 14:24:39 2025, MaxMem=  8589934592 cpu:               0.2 elap:               0.2
 (Enter /home/enzo/gaussian_versions/gdv.j21/gdv/l703.exe)
 Integral derivatives from FoFJK, PRISM(SPDF).
 Compute integral first derivatives, UseDBF=F ICtDFT=           0.
 Calling FoFJK, ICntrl=      2127 FMM=F ISym2X=0 I1Cent= 0 IOpClX= 0 NMat=1 NMatS=1 NMatT=0.
 FoFJK:  IHMeth= 1 ICntrl=    2127 DoSepK=F KAlg= 0 I1Cent=           0 FoldK=F
 IRaf=         0 NMat=       1 IRICut=       1 DoRegI=T DoRafI=F ISym2E= 0 IDoP0=0 IntGTp=1.
 FoFCou: FMM=F IPFlag=           0 FMFlag=      100000 FMFlg1=         800
         NFxFlg=           0 DoJE=F BraDBF=F KetDBF=F FulRan=T
         wScrn=  0.000000 ICntrl=      2127 IOpCl=  0 I1Cent=           0 NGrid=           0
         NMat0=    1 NMatS0=      1 NMatT0=    0 NMatD0=    1 NMtDS0=    0 NMtDT0=    0
 Symmetry not used in FoFCou.
 Leave Link  703 at Fri Mar 14 14:24:41 2025, MaxMem=  8589934592 cpu:              16.0 elap:               2.2
 (Enter /home/enzo/gaussian_versions/gdv.j21/gdv/l716.exe)
 Dipole        =-1.08407562D+00 2.20597573D-01 4.11281754D-01
 ***** Axes restored to original set *****
 -------------------------------------------------------------------
 Center     Atomic                   Forces (Hartrees/Bohr)
 Number     Number              X              Y              Z
 -------------------------------------------------------------------
      1        6           0.000357576   -0.000458323    0.000401478
      2        6          -0.000900345   -0.000384133   -0.000200190
      3       16           0.000146483    0.000454532    0.000287876
      4        6          -0.000559410    0.001220684    0.000626975
      5        8           0.000038439   -0.000903118   -0.000185324
      6        7           0.001902163    0.000403034   -0.001110405
      7        6          -0.000785535   -0.000202451    0.000355324
      8        6          -0.000168782   -0.001973663   -0.000394656
      9        8           0.000173828    0.001219503    0.000454800
     10        8          -0.000417628   -0.000302739   -0.000010238
     11        1          -0.000213738    0.000125086    0.000056077
     12        1           0.000177113    0.000153432   -0.000065929
     13        1          -0.000132284   -0.000120731   -0.000135924
     14        1           0.000365324    0.000058748    0.000070086
     15        1           0.000034177   -0.000203519   -0.000481173
     16        1          -0.000561488   -0.000255145    0.000558942
     17        1          -0.000213110    0.000024634    0.000005505
     18        1           0.000370576    0.000514711   -0.000250138
     19        1           0.000386641    0.000629458    0.000016914
 -------------------------------------------------------------------
 Cartesian Forces:  Max     0.001973663 RMS     0.000578317
 Leave Link  716 at Fri Mar 14 14:24:42 2025, MaxMem=  8589934592 cpu:               0.1 elap:               0.3
 (Enter /home/enzo/gaussian_versions/gdv.j21/gdv/l103.exe)

 GradGradGradGradGradGradGradGradGradGradGradGradGradGradGradGradGradGrad
 Berny optimization.
 Using GEDIIS/GDIIS optimizer.
 FormGI is forming the generalized inverse of G from B-inverse, IUseBI=4.
 Internal  Forces:  Max     0.001241041 RMS     0.000303724
 Search for a local minimum.
 Step number  11 out of a maximum of   93
 All quantities printed in internal units (Hartrees-Bohrs-Radians)
 RMS Force = .30372D-03 SwitMx=.10000D-02 MixMth= 2
 Mixed Optimization -- En-DIIS/RFO-DIIS
 Swapping is turned off.
 Update second derivatives using D2CorX and points    9   10   11
 DE= -2.12D-04 DEPred=-1.83D-04 R= 1.16D+00
 TightC=F SS=  1.41D+00  RLast= 3.51D-01 DXNew= 2.4000D+00 1.0521D+00
 Trust test= 1.16D+00 RLast= 3.51D-01 DXMaxT set to 1.43D+00
 ITU=  1  1  1  1  1  1  0  1  1  1  0
     Eigenvalues ---    0.00093   0.00438   0.00475   0.00723   0.00846
     Eigenvalues ---    0.00897   0.01319   0.02317   0.04074   0.04629
     Eigenvalues ---    0.04844   0.05357   0.05658   0.05760   0.05800
     Eigenvalues ---    0.06844   0.08067   0.09616   0.13452   0.15546
     Eigenvalues ---    0.15974   0.15996   0.16037   0.16136   0.17659
     Eigenvalues ---    0.18145   0.19787   0.22043   0.22128   0.22965
     Eigenvalues ---    0.23486   0.24804   0.25346   0.26383   0.27127
     Eigenvalues ---    0.30204   0.31728   0.32590   0.32594   0.32613
     Eigenvalues ---    0.32639   0.32648   0.32919   0.34733   0.37591
     Eigenvalues ---    0.40647   0.42711   0.46859   0.51465   0.79998
     Eigenvalues ---    0.81921
 En-DIIS/RFO-DIIS/Sim-DIIS IScMMF=       -3 using points:    11   10
 RFO step:  Lambda=-1.64747034D-04.
 NNeg= 0 NGDIIS= 2 SimSw=  2.50D-01 Rises=F DC= -2.12D-04 SmlDif=  1.00D-05
 NRisDI= 0 DoIntr=F SqrtH=F CThrHd= 10.0 CDAdj=  3.0
 RMS Error=  0.2743279095D-01 NUsed= 2 OKEnD=T EnDIS=F
 InvSVX:  RCond= 2.12D-02 Info=           0 Equed=N FErr=  3.65D-15 BErr=  5.48D-17
 DidBck=FF Rises=F RFO-DIIS coefs:    1.76814   -0.76814
 Iteration  1 RMS(Cart)=  0.09815007 RMS(Int)=  0.00278945
 Iteration  2 RMS(Cart)=  0.00460818 RMS(Int)=  0.00014570
 Iteration  3 RMS(Cart)=  0.00000553 RMS(Int)=  0.00014565
 Iteration  4 RMS(Cart)=  0.00000000 RMS(Int)=  0.00014565
 Variable       Old X    -DE/DX   Delta X   Delta X   Delta X     New X
                                 (Linear)    (Quad)   (Total)
    R1        2.89096  -0.00042  -0.00214  -0.00010  -0.00224   2.88872
    R2        2.06477   0.00025  -0.00047   0.00039  -0.00008   2.06469
    R3        2.07330   0.00024  -0.00061   0.00058  -0.00003   2.07327
    R4        2.06507   0.00021  -0.00018   0.00008  -0.00010   2.06497
    R5        3.50799  -0.00036   0.00397  -0.00152   0.00245   3.51044
    R6        2.89565  -0.00012   0.00329  -0.00076   0.00253   2.89818
    R7        2.06961   0.00020   0.00012   0.00014   0.00025   2.06986
    R8        2.55060   0.00049  -0.00008   0.00025   0.00017   2.55077
    R9        2.31672   0.00067  -0.00087   0.00068  -0.00019   2.31652
   R10        2.57296   0.00037  -0.00111  -0.00083  -0.00193   2.57102
   R11        2.73095  -0.00054  -0.00006  -0.00126  -0.00132   2.72963
   R12        1.91264   0.00015   0.00044  -0.00076  -0.00032   1.91233
   R13        2.86177  -0.00019   0.00027   0.00116   0.00142   2.86319
   R14        2.07842  -0.00002   0.00028  -0.00049  -0.00021   2.07821
   R15        2.06921   0.00023   0.00057   0.00020   0.00077   2.06998
   R16        2.28921   0.00124  -0.00184   0.00092  -0.00092   2.28829
   R17        2.54621  -0.00017   0.00393  -0.00131   0.00263   2.54884
   R18        1.84308   0.00061  -0.00079   0.00095   0.00016   1.84324
    A1        1.92989   0.00002   0.00029   0.00044   0.00073   1.93062
    A2        1.92523  -0.00003  -0.00216   0.00091  -0.00125   1.92398
    A3        1.91984   0.00003   0.00041  -0.00015   0.00025   1.92009
    A4        1.89778   0.00000   0.00171  -0.00060   0.00111   1.89888
    A5        1.90664  -0.00005   0.00225  -0.00122   0.00103   1.90767
    A6        1.88366   0.00003  -0.00250   0.00060  -0.00190   1.88176
    A7        1.96649  -0.00013   0.00163   0.00009   0.00173   1.96822
    A8        1.93638  -0.00004   0.00221   0.00004   0.00224   1.93862
    A9        1.92648   0.00012   0.00198   0.00009   0.00207   1.92855
   A10        1.89324   0.00013  -0.00127   0.00059  -0.00069   1.89255
   A11        1.80378   0.00012  -0.00702   0.00284  -0.00418   1.79960
   A12        1.93340  -0.00019   0.00193  -0.00359  -0.00169   1.93172
   A13        1.66116  -0.00045   0.00705  -0.00423   0.00282   1.66398
   A14        2.12277   0.00011   0.00081   0.00056   0.00133   2.12410
   A15        2.01710   0.00052  -0.00129   0.00122  -0.00010   2.01700
   A16        2.14328  -0.00063   0.00046  -0.00178  -0.00135   2.14193
   A17        2.11618  -0.00011  -0.00054   0.00168   0.00040   2.11658
   A18        2.11772  -0.00022   0.00818   0.00094   0.00840   2.12612
   A19        2.02200   0.00044  -0.00069   0.00465   0.00319   2.02519
   A20        1.91047   0.00016  -0.00534   0.00481  -0.00052   1.90994
   A21        1.95809  -0.00022   0.00223  -0.00247  -0.00025   1.95784
   A22        1.92170   0.00013   0.00999  -0.00296   0.00703   1.92873
   A23        1.88553   0.00014   0.00114   0.00194   0.00309   1.88861
   A24        1.93552  -0.00044  -0.00330  -0.00404  -0.00731   1.92821
   A25        1.85192   0.00021  -0.00486   0.00257  -0.00232   1.84960
   A26        2.17882   0.00002   0.00286   0.00039   0.00322   2.18204
   A27        1.94360   0.00040  -0.00404   0.00276  -0.00132   1.94228
   A28        2.16037  -0.00041   0.00141  -0.00300  -0.00163   2.15874
   A29        1.86464  -0.00027   0.00509  -0.00222   0.00287   1.86751
    D1        0.94962   0.00003  -0.00418   0.00186  -0.00232   0.94730
    D2        3.07622   0.00007  -0.00306   0.00272  -0.00034   3.07588
    D3       -1.05694  -0.00011   0.00229  -0.00178   0.00051  -1.05643
    D4        3.04947   0.00003  -0.00326   0.00199  -0.00128   3.04819
    D5       -1.10711   0.00007  -0.00215   0.00285   0.00070  -1.10641
    D6        1.04291  -0.00011   0.00321  -0.00165   0.00155   1.04447
    D7       -1.15778   0.00006  -0.00744   0.00320  -0.00424  -1.16202
    D8        0.96882   0.00010  -0.00632   0.00406  -0.00226   0.96655
    D9        3.11884  -0.00008  -0.00097  -0.00044  -0.00141   3.11743
   D10        1.20552  -0.00009   0.01145  -0.02884  -0.01739   1.18813
   D11       -0.94531  -0.00004   0.00845  -0.02937  -0.02092  -0.96623
   D12       -2.99822   0.00006   0.01036  -0.02695  -0.01660  -3.01482
   D13       -0.83622  -0.00015   0.06151  -0.01185   0.04965  -0.78656
   D14        2.31409   0.00013   0.07090  -0.01190   0.05900   2.37309
   D15        1.33265  -0.00025   0.06416  -0.01130   0.05285   1.38550
   D16       -1.80024   0.00003   0.07355  -0.01135   0.06220  -1.73804
   D17       -2.98225  -0.00014   0.05610  -0.00947   0.04662  -2.93562
   D18        0.16806   0.00014   0.06549  -0.00952   0.05597   0.22403
   D19       -3.06508  -0.00030  -0.02273  -0.00202  -0.02489  -3.08996
   D20       -0.18267   0.00029   0.00710   0.03257   0.03981  -0.14286
   D21        0.08534  -0.00003  -0.01322  -0.00209  -0.01545   0.06989
   D22        2.96774   0.00057   0.01661   0.03251   0.04925   3.01700
   D23        2.66204   0.00020   0.09616   0.02117   0.11726   2.77930
   D24       -1.52823   0.00035   0.09544   0.02525   0.12062  -1.40761
   D25        0.53003   0.00055   0.09725   0.02496   0.12218   0.65221
   D26       -0.23383  -0.00027   0.06643  -0.01113   0.05534  -0.17849
   D27        1.85908  -0.00013   0.06571  -0.00705   0.05870   1.91779
   D28       -2.36584   0.00008   0.06752  -0.00734   0.06026  -2.30558
   D29        0.09201  -0.00031  -0.02748  -0.00449  -0.03199   0.06003
   D30       -3.07905   0.00014  -0.02025   0.00097  -0.01927  -3.09832
   D31       -2.04483  -0.00023  -0.02767  -0.00561  -0.03329  -2.07813
   D32        1.06729   0.00023  -0.02044  -0.00015  -0.02058   1.04671
   D33        2.21573  -0.00032  -0.02067  -0.00762  -0.02830   2.18743
   D34       -0.95534   0.00013  -0.01344  -0.00216  -0.01558  -0.97092
   D35       -3.09722  -0.00058   0.01578  -0.02288  -0.00708  -3.10431
   D36        0.01527  -0.00012   0.02296  -0.01742   0.00552   0.02079
         Item               Value     Threshold  Converged?
 Maximum Force            0.001241     0.000450     NO 
 RMS     Force            0.000304     0.000300     NO 
 Maximum Displacement     0.278671     0.001800     NO 
 RMS     Displacement     0.098680     0.001200     NO 
 Predicted change in Energy=-8.890555D-05
 Lowest energy point so far.  Saving SCF results.
 GradGradGradGradGradGradGradGradGradGradGradGradGradGradGradGradGradGrad

 Leave Link  103 at Fri Mar 14 14:24:42 2025, MaxMem=  8589934592 cpu:               1.2 elap:               0.4
 (Enter /home/enzo/gaussian_versions/gdv.j21/gdv/l202.exe)
                          Input orientation:                          
 ---------------------------------------------------------------------
 Center     Atomic      Atomic             Coordinates (Angstroms)
 Number     Number       Type             X           Y           Z
 ---------------------------------------------------------------------
      1          6           0       -2.373762    1.583779   -1.006207
      2          6           0       -1.695368    0.838260    0.143026
      3         16           0       -2.876323   -0.221411    1.109092
      4          6           0       -0.556533   -0.050400   -0.372169
      5          8           0       -0.692051   -0.762840   -1.360489
      6          7           0        0.594639   -0.008102    0.351744
      7          6           0        1.765959   -0.747117   -0.058528
      8          6           0        2.995407   -0.143235    0.589100
      9          8           0        2.984825    0.773543    1.380119
     10          8           0        4.119025   -0.772571    0.188302
     11          1           0       -3.225158    2.162374   -0.640012
     12          1           0       -1.662844    2.266901   -1.487484
     13          1           0       -2.718086    0.873052   -1.761439
     14          1           0       -1.325189    1.545220    0.893299
     15          1           0       -3.094681   -1.106086    0.113277
     16          1           0        0.730381    0.660047    1.099548
     17          1           0        1.710598   -1.806723    0.230605
     18          1           0        1.863429   -0.737032   -1.149524
     19          1           0        4.862814   -0.359780    0.665575
 ---------------------------------------------------------------------
                    Distance matrix (angstroms):
                    1          2          3          4          5
     1  C    0.000000
     2  C    1.528644   0.000000
     3  S    2.825910   1.857644   0.000000
     4  C    2.524850   1.533652   2.757681   0.000000
     5  O    2.908658   2.414689   3.341111   1.225852   0.000000
     6  N    3.631738   2.450311   3.559024   1.360528   2.270890
     7  C    4.844426   3.812458   4.815651   2.444945   2.781576
     8  C    5.861361   4.813074   5.895228   3.680887   4.216889
     9  O    5.921611   4.841363   5.951172   4.036162   4.836406
    10  O    7.009673   6.033573   7.077184   4.764084   5.054236
    11  H    1.092587   2.169489   2.977159   3.477020   3.936063
    12  H    1.097127   2.168095   3.795581   2.799596   3.184006
    13  H    1.092735   2.161978   3.076173   2.730412   2.634714
    14  H    2.170049   1.095323   2.360841   2.176751   3.287486
    15  H    3.001390   2.395714   1.349807   2.791474   2.839442
    16  H    3.863054   2.613609   3.712866   2.080104   3.178003
    17  H    5.450431   4.313260   4.932018   2.930510   3.064962
    18  H    4.833269   4.100886   5.275648   2.632861   2.564303
    19  H    7.677259   6.687160   7.753070   5.526477   5.926544
                    6          7          8          9         10
     6  N    0.000000
     7  C    1.444458   0.000000
     8  C    2.416254   1.515136   0.000000
     9  O    2.716894   2.422343   1.210910   0.000000
    10  O    3.610045   2.366113   1.348786   2.257722   0.000000
    11  H    4.503931   5.806420   6.746997   6.676351   7.952172
    12  H    3.695217   4.783609   5.640945   5.661633   6.743639
    13  H    4.026925   5.062758   6.261140   6.511718   7.297647
    14  H    2.528207   3.964339   4.648759   4.405530   5.958913
    15  H    3.856620   4.876905   6.184065   6.488319   7.221802
    16  H    1.011959   2.096110   2.456860   2.274669   3.790208
    17  H    2.120160   1.099740   2.132240   3.098840   2.621409
    18  H    2.096419   1.095387   2.157958   3.152532   2.622738
    19  H    4.294123   3.203883   1.881476   2.306911   0.975402
                   11         12         13         14         15
    11  H    0.000000
    12  H    1.780438   0.000000
    13  H    1.782435   1.769576   0.000000
    14  H    2.518293   2.510570   3.072394   0.000000
    15  H    3.356679   3.998704   2.751976   3.281609   0.000000
    16  H    4.574860   3.873273   4.485816   2.247540   4.327015
    17  H    6.393230   5.561147   5.546411   4.570633   4.857506
    18  H    5.878765   4.644613   4.894598   4.421434   5.129690
    19  H    8.572112   7.356584   8.054832   6.478601   8.011475
                   16         17         18         19
    16  H    0.000000
    17  H    2.793000   0.000000
    18  H    2.879923   1.752813   0.000000
    19  H    4.278480   3.495613   3.526077   0.000000
 Stoichiometry    C5H9NO3S
 Framework group  C1[X(C5H9NO3S)]
 Deg. of freedom    51
 Full point group                 C1      NOp   1
 RotChk:  IX=3 Diff= 2.26D-01
 Largest Abelian subgroup         C1      NOp   1
 Largest concise Abelian subgroup C1      NOp   1
                         Standard orientation:                         
 ---------------------------------------------------------------------
 Center     Atomic      Atomic             Coordinates (Angstroms)
 Number     Number       Type             X           Y           Z
 ---------------------------------------------------------------------
      1          6           0        2.680776   -0.895544    1.371994
      2          6           0        1.855813    0.136097    0.602641
      3         16           0        2.854136    1.051944   -0.668350
      4          6           0        0.663831   -0.524529   -0.100809
      5          8           0        0.785030   -1.570697   -0.728149
      6          7           0       -0.519733    0.138530    0.001975
      7          6           0       -1.734678   -0.404577   -0.559631
      8          6           0       -2.931440    0.234774    0.114631
      9          8           0       -2.873491    1.113025    0.946269
     10          8           0       -4.087995   -0.285438   -0.344696
     11          1           0        3.563991   -0.429085    1.814820
     12          1           0        2.078272   -1.342708    2.172444
     13          1           0        2.994644   -1.698981    0.701141
     14          1           0        1.516202    0.932872    1.273124
     15          1           0        3.039715   -0.014557   -1.474647
     16          1           0       -0.630671    0.941278    0.608067
     17          1           0       -1.810568   -0.220427   -1.641184
     18          1           0       -1.761438   -1.492692   -0.436494
     19          1           0       -4.812365    0.191029    0.102154
 ---------------------------------------------------------------------
 Rotational constants (GHZ):           2.4495411           0.4598807           0.4453804
 Leave Link  202 at Fri Mar 14 14:24:42 2025, MaxMem=  8589934592 cpu:               0.3 elap:               0.2
 (Enter /home/enzo/gaussian_versions/gdv.j21/gdv/l301.exe)
 Standard basis: 6-31G(d) (6D, 7F)
 Ernie: Thresh=  0.10000D-02 Tol=  0.10000D-05 Strict=F.
 There are   172 symmetry adapted cartesian basis functions of A   symmetry.
 There are   172 symmetry adapted basis functions of A   symmetry.
   172 basis functions,   340 primitive gaussians,   172 cartesian basis functions
    43 alpha electrons       43 beta electrons
       nuclear repulsion energy       609.5755109397 Hartrees.
 IExCor=      4002 DFT=T Ex+Corr=B3LYP ScaHFX=  0.200000
 ScaDFX=  0.800000  0.720000  1.000000  0.810000  1.000000  0.000000
 ScaDFX=  0.000000  0.000000  0.000000  0.000000  0.000000  0.000000
 IRadAn=      5 IRanWt=     -1 IRanGd=            0 ICorTp=0 IEmpDi=  4
 NAtoms=   19 NActive=   19 NUniq=   19 SFac= 1.00D+00 NAtFMM=   60 NAOKFM=F Big=F
 Integral buffers will be    131072 words long.
 Raffenetti 2 integral format.
 Two-electron integral symmetry is turned on.
 Leave Link  301 at Fri Mar 14 14:24:43 2025, MaxMem=  8589934592 cpu:               0.6 elap:               0.4
 (Enter /home/enzo/gaussian_versions/gdv.j21/gdv/l302.exe)
 NPDir=0 NMtPBC=     1 NCelOv=     1 NCel=       1 NClECP=     1 NCelD=      1
         NCelK=      1 NCelE2=     1 NClLst=     1 CellRange=     0.0.
 One-electron integrals computed using PRISM.
 One-electron integral symmetry used in STVInt
 NBasis=   172 RedAO= T EigKep=  2.57D-03  NBF=   172
 NBsUse=   172 1.00D-06 EigRej= -1.00D+00 NBFU=   172
 Precomputing XC quadrature grid using
 IXCGrd= 4 IRadAn=           5 IRanWt=          -1 IRanGd=           0 AccXCQ= 0.00D+00.
 Generated NRdTot=       0 NPtTot=      408819 NUsed=           0 NTot=          64
 NSgBfM=   171   171   171   171   171 MxSgAt=    19 MxSgA2=    19 SizInc=   0.000
 NMBTot=     3554 MaxBatPerAtom=       85 MaxMicBPerAtom=      208 NBfPt=            50061115.
 Leave Link  302 at Fri Mar 14 14:24:43 2025, MaxMem=  8589934592 cpu:               3.3 elap:               0.6
 (Enter /home/enzo/gaussian_versions/gdv.j21/gdv/l303.exe)
 DipDrv:  MaxL=1.
 Leave Link  303 at Fri Mar 14 14:24:44 2025, MaxMem=  8589934592 cpu:               0.4 elap:               0.2
 (Enter /home/enzo/gaussian_versions/gdv.j21/gdv/l401.exe)
 Initial guess from the checkpoint file:  "/local/home/enzo/scratch/Gau-2270961.chk"
 B after Tr=     0.000000    0.000000   -0.000000
         Rot=    0.997017   -0.076920   -0.004802   -0.004144 Ang=  -8.85 deg.
 AO Guess basis will be translated and rotated to current coordinates.
 JPrj=2 DoOrth=T DoCkMO=T.
 Generating alternative initial guess.
 ExpMin= 1.17D-01 ExpMax= 2.19D+04 ExpMxC= 3.30D+03 IAcc=3 IRadAn=         5 AccDes= 0.00D+00
 Harris functional with IExCor= 4002 and IRadAn=       5 diagonalized for initial guess.
 HarFok:  IExCor=    4002 AccDes= 0.00D+00 IRadAn=         5 IDoV= 1 UseB2=F ITyADJ=14 ICtDFT=  3500011
 FoFCou: FMM=F IPFlag=           0 FMFlag=      100000 FMFlg1=           0
         NFxFlg=           0 DoJE=T BraDBF=F KetDBF=T FulRan=T
         wScrn=  0.000000 ICntrl=       500 IOpCl=  0 I1Cent=   200000004 NGrid=           0
         NMat0=    1 NMatS0=      1 NMatT0=    0 NMatD0=    1 NMtDS0=    0 NMtDT0=    0
 Petite list used in FoFCou.
 Harris En= -874.549784746694    
 Leave Link  401 at Fri Mar 14 14:24:45 2025, MaxMem=  8589934592 cpu:               9.7 elap:               1.6
 (Enter /home/enzo/gaussian_versions/gdv.j21/gdv/l502.exe)
 Integral symmetry usage will be decided dynamically.
 Closed shell SCF:
 Using DIIS extrapolation, IDIIS=  1040.
 NGot=  8589934592 LenX=  8589843591 LenY=  8589813566
 Requested convergence on RMS density matrix=1.00D-08 within 128 cycles.
 Requested convergence on MAX density matrix=1.00D-06.
 Requested convergence on             energy=1.00D-06.
 No special actions if energy rises.
 Fock matrices will be formed incrementally for  20 cycles.
 Integral accuracy reduced to 1.0D-05 until final iterations.

 Cycle   1  Pass 0  IDiag  1:
 FoFJK:  IHMeth= 1 ICntrl=       0 DoSepK=F KAlg= 0 I1Cent=           0 FoldK=F
 IRaf= 890000000 NMat=       1 IRICut=       1 DoRegI=T DoRafI=F ISym2E= 0 IDoP0=0 IntGTp=1.
 FoFCou: FMM=F IPFlag=           0 FMFlag=      100000 FMFlg1=           0
         NFxFlg=           0 DoJE=F BraDBF=F KetDBF=F FulRan=T
         wScrn=  0.000000 ICntrl=         0 IOpCl=  0 I1Cent=           0 NGrid=           0
         NMat0=    1 NMatS0=      1 NMatT0=    0 NMatD0=    1 NMtDS0=    0 NMtDT0=    0
 Symmetry not used in FoFCou.
 E= -874.577853069544    
 DIIS: error= 3.84D-03 at cycle   1 NSaved=   1.
 NSaved= 1 IEnMin= 1 EnMin= -874.577853069544     IErMin= 1 ErrMin= 3.84D-03
 ErrMax= 3.84D-03  0.00D+00 EMaxC= 1.00D-01 BMatC= 5.06D-03 BMatP= 5.06D-03
 IDIUse=3 WtCom= 9.62D-01 WtEn= 3.84D-02
 Coeff-Com:  0.100D+01
 Coeff-En:   0.100D+01
 Coeff:      0.100D+01
 Gap=     1.612 Goal=   None    Shift=    0.000
 GapD=    1.612 DampG=2.000 DampE=1.000 DampFc=2.0000 IDamp=-1.
 RMSDP=7.52D-04 MaxDP=1.69D-02              OVMax= 2.59D-02

 Cycle   2  Pass 0  IDiag  1:
 RMSU=  7.52D-04    CP:  1.00D+00
 E= -874.588557595189     Delta-E=       -0.010704525645 Rises=F Damp=F
 DIIS: error= 6.52D-04 at cycle   2 NSaved=   2.
 NSaved= 2 IEnMin= 2 EnMin= -874.588557595189     IErMin= 2 ErrMin= 6.52D-04
 ErrMax= 6.52D-04  0.00D+00 EMaxC= 1.00D-01 BMatC= 7.67D-05 BMatP= 5.06D-03
 IDIUse=3 WtCom= 9.93D-01 WtEn= 6.52D-03
 Coeff-Com: -0.754D-01 0.108D+01
 Coeff-En:   0.000D+00 0.100D+01
 Coeff:     -0.749D-01 0.107D+01
 Gap=     0.225 Goal=   None    Shift=    0.000
 RMSDP=1.15D-04 MaxDP=1.72D-03 DE=-1.07D-02 OVMax= 4.05D-03

 Cycle   3  Pass 0  IDiag  1:
 RMSU=  9.62D-05    CP:  9.99D-01  1.08D+00
 E= -874.588682200267     Delta-E=       -0.000124605079 Rises=F Damp=F
 DIIS: error= 2.53D-04 at cycle   3 NSaved=   3.
 NSaved= 3 IEnMin= 3 EnMin= -874.588682200267     IErMin= 3 ErrMin= 2.53D-04
 ErrMax= 2.53D-04  0.00D+00 EMaxC= 1.00D-01 BMatC= 2.96D-05 BMatP= 7.67D-05
 IDIUse=3 WtCom= 9.97D-01 WtEn= 2.53D-03
 Coeff-Com: -0.365D-01 0.448D+00 0.588D+00
 Coeff-En:   0.000D+00 0.000D+00 0.100D+01
 Coeff:     -0.364D-01 0.447D+00 0.589D+00
 Gap=     0.225 Goal=   None    Shift=    0.000
 RMSDP=4.90D-05 MaxDP=1.47D-03 DE=-1.25D-04 OVMax= 1.93D-03

 Cycle   4  Pass 0  IDiag  1:
 RMSU=  3.81D-05    CP:  1.00D+00  1.10D+00  7.08D-01
 E= -874.588696142390     Delta-E=       -0.000013942123 Rises=F Damp=F
 DIIS: error= 2.52D-04 at cycle   4 NSaved=   4.
 NSaved= 4 IEnMin= 4 EnMin= -874.588696142390     IErMin= 4 ErrMin= 2.52D-04
 ErrMax= 2.52D-04  0.00D+00 EMaxC= 1.00D-01 BMatC= 1.56D-05 BMatP= 2.96D-05
 IDIUse=3 WtCom= 9.97D-01 WtEn= 2.52D-03
 Coeff-Com: -0.140D-01 0.156D+00 0.413D+00 0.445D+00
 Coeff-En:   0.000D+00 0.000D+00 0.332D+00 0.668D+00
 Coeff:     -0.140D-01 0.155D+00 0.413D+00 0.446D+00
 Gap=     0.225 Goal=   None    Shift=    0.000
 RMSDP=2.29D-05 MaxDP=8.45D-04 DE=-1.39D-05 OVMax= 1.28D-03

 Cycle   5  Pass 0  IDiag  1:
 RMSU=  1.49D-05    CP:  9.99D-01  1.10D+00  7.64D-01  5.72D-01
 E= -874.588707881352     Delta-E=       -0.000011738962 Rises=F Damp=F
 DIIS: error= 5.19D-05 at cycle   5 NSaved=   5.
 NSaved= 5 IEnMin= 5 EnMin= -874.588707881352     IErMin= 5 ErrMin= 5.19D-05
 ErrMax= 5.19D-05  0.00D+00 EMaxC= 1.00D-01 BMatC= 6.17D-07 BMatP= 1.56D-05
 IDIUse=1 WtCom= 1.00D+00 WtEn= 0.00D+00
 Coeff-Com: -0.300D-02 0.261D-01 0.142D+00 0.225D+00 0.610D+00
 Coeff:     -0.300D-02 0.261D-01 0.142D+00 0.225D+00 0.610D+00
 Gap=     0.225 Goal=   None    Shift=    0.000
 RMSDP=6.64D-06 MaxDP=1.64D-04 DE=-1.17D-05 OVMax= 3.34D-04

 Initial convergence to 1.0D-05 achieved.  Increase integral accuracy.
 Cycle   6  Pass 1  IDiag  1:
 E= -874.588729090636     Delta-E=       -0.000021209284 Rises=F Damp=F
 DIIS: error= 1.48D-05 at cycle   1 NSaved=   1.
 NSaved= 1 IEnMin= 1 EnMin= -874.588729090636     IErMin= 1 ErrMin= 1.48D-05
 ErrMax= 1.48D-05  0.00D+00 EMaxC= 1.00D-01 BMatC= 1.18D-07 BMatP= 1.18D-07
 IDIUse=1 WtCom= 1.00D+00 WtEn= 0.00D+00
 Coeff-Com:  0.100D+01
 Coeff:      0.100D+01
 Gap=     0.225 Goal=   None    Shift=    0.000
 RMSDP=6.64D-06 MaxDP=1.64D-04 DE=-2.12D-05 OVMax= 2.48D-04

 Cycle   7  Pass 1  IDiag  1:
 RMSU=  5.96D-06    CP:  1.00D+00
 E= -874.588728977529     Delta-E=        0.000000113107 Rises=F Damp=F
 DIIS: error= 2.68D-05 at cycle   2 NSaved=   2.
 NSaved= 2 IEnMin= 1 EnMin= -874.588729090636     IErMin= 1 ErrMin= 1.48D-05
 ErrMax= 2.68D-05  0.00D+00 EMaxC= 1.00D-01 BMatC= 2.62D-07 BMatP= 1.18D-07
 IDIUse=1 WtCom= 1.00D+00 WtEn= 0.00D+00
 Coeff-Com:  0.605D+00 0.395D+00
 Coeff:      0.605D+00 0.395D+00
 Gap=     0.225 Goal=   None    Shift=    0.000
 RMSDP=3.10D-06 MaxDP=8.28D-05 DE= 1.13D-07 OVMax= 1.82D-04

 Cycle   8  Pass 1  IDiag  1:
 RMSU=  2.25D-06    CP:  1.00D+00  6.44D-01
 E= -874.588729192635     Delta-E=       -0.000000215106 Rises=F Damp=F
 DIIS: error= 5.75D-06 at cycle   3 NSaved=   3.
 NSaved= 3 IEnMin= 3 EnMin= -874.588729192635     IErMin= 3 ErrMin= 5.75D-06
 ErrMax= 5.75D-06  0.00D+00 EMaxC= 1.00D-01 BMatC= 9.89D-09 BMatP= 1.18D-07
 IDIUse=1 WtCom= 1.00D+00 WtEn= 0.00D+00
 Coeff-Com:  0.229D+00 0.204D+00 0.567D+00
 Coeff:      0.229D+00 0.204D+00 0.567D+00
 Gap=     0.225 Goal=   None    Shift=    0.000
 RMSDP=7.35D-07 MaxDP=2.42D-05 DE=-2.15D-07 OVMax= 3.85D-05

 Cycle   9  Pass 1  IDiag  1:
 RMSU=  6.17D-07    CP:  1.00D+00  6.79D-01  8.49D-01
 E= -874.588729197866     Delta-E=       -0.000000005231 Rises=F Damp=F
 DIIS: error= 2.71D-06 at cycle   4 NSaved=   4.
 NSaved= 4 IEnMin= 4 EnMin= -874.588729197866     IErMin= 4 ErrMin= 2.71D-06
 ErrMax= 2.71D-06  0.00D+00 EMaxC= 1.00D-01 BMatC= 3.55D-09 BMatP= 9.89D-09
 IDIUse=1 WtCom= 1.00D+00 WtEn= 0.00D+00
 Coeff-Com:  0.132D-01 0.483D-01 0.399D+00 0.539D+00
 Coeff:      0.132D-01 0.483D-01 0.399D+00 0.539D+00
 Gap=     0.225 Goal=   None    Shift=    0.000
 RMSDP=3.12D-07 MaxDP=9.64D-06 DE=-5.23D-09 OVMax= 9.62D-06

 Cycle  10  Pass 1  IDiag  1:
 RMSU=  1.58D-07    CP:  1.00D+00  6.81D-01  9.02D-01  6.11D-01
 E= -874.588729200619     Delta-E=       -0.000000002752 Rises=F Damp=F
 DIIS: error= 4.60D-07 at cycle   5 NSaved=   5.
 NSaved= 5 IEnMin= 5 EnMin= -874.588729200619     IErMin= 5 ErrMin= 4.60D-07
 ErrMax= 4.60D-07  0.00D+00 EMaxC= 1.00D-01 BMatC= 1.12D-10 BMatP= 3.55D-09
 IDIUse=1 WtCom= 1.00D+00 WtEn= 0.00D+00
 Coeff-Com: -0.564D-02 0.141D-01 0.179D+00 0.278D+00 0.535D+00
 Coeff:     -0.564D-02 0.141D-01 0.179D+00 0.278D+00 0.535D+00
 Gap=     0.225 Goal=   None    Shift=    0.000
 RMSDP=7.24D-08 MaxDP=1.73D-06 DE=-2.75D-09 OVMax= 2.07D-06

 Cycle  11  Pass 1  IDiag  1:
 RMSU=  5.68D-08    CP:  1.00D+00  6.83D-01  9.00D-01  6.21D-01  7.33D-01
 E= -874.588729200712     Delta-E=       -0.000000000093 Rises=F Damp=F
 DIIS: error= 1.02D-07 at cycle   6 NSaved=   6.
 NSaved= 6 IEnMin= 6 EnMin= -874.588729200712     IErMin= 6 ErrMin= 1.02D-07
 ErrMax= 1.02D-07  0.00D+00 EMaxC= 1.00D-01 BMatC= 5.68D-12 BMatP= 1.12D-10
 IDIUse=1 WtCom= 1.00D+00 WtEn= 0.00D+00
 Coeff-Com: -0.391D-02 0.711D-03 0.333D-01 0.585D-01 0.216D+00 0.696D+00
 Coeff:     -0.391D-02 0.711D-03 0.333D-01 0.585D-01 0.216D+00 0.696D+00
 Gap=     0.225 Goal=   None    Shift=    0.000
 RMSDP=2.13D-08 MaxDP=3.90D-07 DE=-9.30D-11 OVMax= 9.91D-07

 Cycle  12  Pass 1  IDiag  1:
 RMSU=  1.83D-08    CP:  1.00D+00  6.83D-01  9.02D-01  6.23D-01  7.85D-01
                    CP:  9.07D-01
 E= -874.588729200716     Delta-E=       -0.000000000004 Rises=F Damp=F
 DIIS: error= 3.93D-08 at cycle   7 NSaved=   7.
 NSaved= 7 IEnMin= 7 EnMin= -874.588729200716     IErMin= 7 ErrMin= 3.93D-08
 ErrMax= 3.93D-08  0.00D+00 EMaxC= 1.00D-01 BMatC= 4.24D-13 BMatP= 5.68D-12
 IDIUse=1 WtCom= 1.00D+00 WtEn= 0.00D+00
 Coeff-Com: -0.611D-03-0.114D-02-0.751D-02-0.993D-02 0.658D-02 0.204D+00
 Coeff-Com:  0.808D+00
 Coeff:     -0.611D-03-0.114D-02-0.751D-02-0.993D-02 0.658D-02 0.204D+00
 Coeff:      0.808D+00
 Gap=     0.225 Goal=   None    Shift=    0.000
 RMSDP=7.55D-09 MaxDP=2.37D-07 DE=-4.32D-12 OVMax= 5.19D-07

 SCF Done:  E(RB3LYP) =  -874.588729201     A.U. after   12 cycles
            NFock= 12  Conv=0.76D-08     -V/T= 2.0064
 KE= 8.690169726093D+02 PE=-3.278895841046D+03 EE= 9.257146282967D+02
 Leave Link  502 at Fri Mar 14 14:24:55 2025, MaxMem=  8589934592 cpu:              77.1 elap:               9.7
 (Enter /home/enzo/gaussian_versions/gdv.j21/gdv/l701.exe)
 ... and contract with generalized density number  0.
 Compute integral first derivatives.
 Leave Link  701 at Fri Mar 14 14:24:56 2025, MaxMem=  8589934592 cpu:               3.1 elap:               0.6
 (Enter /home/enzo/gaussian_versions/gdv.j21/gdv/l702.exe)
 L702 exits ... SP integral derivatives will be done elsewhere.
 Leave Link  702 at Fri Mar 14 14:24:56 2025, MaxMem=  8589934592 cpu:               0.3 elap:               0.3
 (Enter /home/enzo/gaussian_versions/gdv.j21/gdv/l703.exe)
 Integral derivatives from FoFJK, PRISM(SPDF).
 Compute integral first derivatives, UseDBF=F ICtDFT=           0.
 Calling FoFJK, ICntrl=      2127 FMM=F ISym2X=0 I1Cent= 0 IOpClX= 0 NMat=1 NMatS=1 NMatT=0.
 FoFJK:  IHMeth= 1 ICntrl=    2127 DoSepK=F KAlg= 0 I1Cent=           0 FoldK=F
 IRaf=         0 NMat=       1 IRICut=       1 DoRegI=T DoRafI=F ISym2E= 0 IDoP0=0 IntGTp=1.
 FoFCou: FMM=F IPFlag=           0 FMFlag=      100000 FMFlg1=         800
         NFxFlg=           0 DoJE=F BraDBF=F KetDBF=F FulRan=T
         wScrn=  0.000000 ICntrl=      2127 IOpCl=  0 I1Cent=           0 NGrid=           0
         NMat0=    1 NMatS0=      1 NMatT0=    0 NMatD0=    1 NMtDS0=    0 NMtDT0=    0
 Symmetry not used in FoFCou.
 Leave Link  703 at Fri Mar 14 14:24:58 2025, MaxMem=  8589934592 cpu:              14.9 elap:               2.1
 (Enter /home/enzo/gaussian_versions/gdv.j21/gdv/l716.exe)
 Dipole        =-1.04460547D+00 1.32818373D-01 4.40133175D-01
 ***** Axes restored to original set *****
 -------------------------------------------------------------------
 Center     Atomic                   Forces (Hartrees/Bohr)
 Number     Number              X              Y              Z
 -------------------------------------------------------------------
      1        6           0.000460100   -0.000343103    0.000285080
      2        6          -0.000452473   -0.000905647    0.000110799
      3       16           0.000084251    0.000544815    0.000045895
      4        6          -0.001277125    0.000831999    0.001811157
      5        8           0.000307840   -0.000622691   -0.000677121
      6        7           0.002174882    0.000794770   -0.001355243
      7        6          -0.000131215   -0.000642980    0.000811313
      8        6           0.000844257   -0.001972628   -0.001856256
      9        8          -0.000411851    0.001280851    0.001163163
     10        8          -0.001246628   -0.000493232    0.000121333
     11        1          -0.000208666    0.000140634    0.000046594
     12        1           0.000074059    0.000208744   -0.000031218
     13        1          -0.000161637   -0.000154729   -0.000101522
     14        1           0.000386175    0.000236706   -0.000157289
     15        1           0.000047512   -0.000206978   -0.000492411
     16        1          -0.000556010   -0.000083054    0.000476619
     17        1          -0.000272325    0.000145501    0.000006271
     18        1           0.000347721    0.000459730   -0.000296469
     19        1          -0.000008866    0.000781292    0.000089303
 -------------------------------------------------------------------
 Cartesian Forces:  Max     0.002174882 RMS     0.000749050
 Leave Link  716 at Fri Mar 14 14:24:58 2025, MaxMem=  8589934592 cpu:               0.3 elap:               0.2
 (Enter /home/enzo/gaussian_versions/gdv.j21/gdv/l103.exe)

 GradGradGradGradGradGradGradGradGradGradGradGradGradGradGradGradGradGrad
 Berny optimization.
 Using GEDIIS/GDIIS optimizer.
 FormGI is forming the generalized inverse of G from B-inverse, IUseBI=4.
 Internal  Forces:  Max     0.001733251 RMS     0.000410446
 Search for a local minimum.
 Step number  12 out of a maximum of   93
 All quantities printed in internal units (Hartrees-Bohrs-Radians)
 RMS Force = .41045D-03 SwitMx=.10000D-02 MixMth= 2
 Mixed Optimization -- En-DIIS/RFO-DIIS
 Swapping is turned off.
 Update second derivatives using D2CorX and points   11   12
 DE= -1.27D-04 DEPred=-8.89D-05 R= 1.43D+00
 TightC=F SS=  1.41D+00  RLast= 2.86D-01 DXNew= 2.4000D+00 8.5677D-01
 Trust test= 1.43D+00 RLast= 2.86D-01 DXMaxT set to 1.43D+00
 ITU=  1  1  1  1  1  1  1  0  1  1  1  0
     Eigenvalues ---    0.00072   0.00340   0.00458   0.00586   0.00853
     Eigenvalues ---    0.00884   0.01356   0.02229   0.04196   0.04646
     Eigenvalues ---    0.04863   0.05334   0.05651   0.05761   0.05907
     Eigenvalues ---    0.06771   0.08204   0.09649   0.13409   0.15638
     Eigenvalues ---    0.15958   0.15999   0.16047   0.16099   0.17694
     Eigenvalues ---    0.18091   0.19905   0.22031   0.22144   0.22958
     Eigenvalues ---    0.23552   0.24764   0.25297   0.26507   0.27388
     Eigenvalues ---    0.30180   0.31892   0.32584   0.32593   0.32622
     Eigenvalues ---    0.32643   0.32650   0.32881   0.35797   0.37396
     Eigenvalues ---    0.40689   0.42736   0.46503   0.53325   0.79645
     Eigenvalues ---    0.81228
 En-DIIS/RFO-DIIS/Sim-DIIS IScMMF=       -3 using points:    12   11   10
 RFO step:  Lambda=-2.08694240D-04.
 NNeg= 0 NGDIIS= 3 SimSw=  2.50D-01 Rises=F DC= -1.27D-04 SmlDif=  1.00D-05
 NRisDI= 0 DoIntr=F SqrtH=F CThrHd= 10.0 CDAdj=  3.0
 RMS Error=  0.3552943881D-01 NUsed= 3 OKEnD=T EnDIS=F
 InvSVX:  RCond= 2.71D-04 Info=           0 Equed=N FErr=  2.59D-13 BErr=  6.63D-17
 DidBck=FF Rises=F RFO-DIIS coefs:    2.25790   -1.17988   -0.07802
 Iteration  1 RMS(Cart)=  0.12713765 RMS(Int)=  0.00455371
 Iteration  2 RMS(Cart)=  0.00811554 RMS(Int)=  0.00063890
 Iteration  3 RMS(Cart)=  0.00001402 RMS(Int)=  0.00063881
 Iteration  4 RMS(Cart)=  0.00000000 RMS(Int)=  0.00063881
 Variable       Old X    -DE/DX   Delta X   Delta X   Delta X     New X
                                 (Linear)    (Quad)   (Total)
    R1        2.88872  -0.00029  -0.00304   0.00017  -0.00286   2.88586
    R2        2.06469   0.00025  -0.00015   0.00031   0.00017   2.06486
    R3        2.07327   0.00019  -0.00010   0.00005  -0.00005   2.07322
    R4        2.06497   0.00022  -0.00014   0.00030   0.00017   2.06513
    R5        3.51044  -0.00051   0.00348  -0.00196   0.00152   3.51196
    R6        2.89818  -0.00055   0.00352  -0.00143   0.00208   2.90027
    R7        2.06986   0.00018   0.00033   0.00025   0.00058   2.07044
    R8        2.55077   0.00049   0.00020   0.00073   0.00093   2.55170
    R9        2.31652   0.00087  -0.00033   0.00081   0.00048   2.31700
   R10        2.57102   0.00019  -0.00254  -0.00035  -0.00289   2.56813
   R11        2.72963  -0.00050  -0.00167  -0.00132  -0.00298   2.72665
   R12        1.91233   0.00022  -0.00035  -0.00003  -0.00038   1.91194
   R13        2.86319  -0.00103   0.00181  -0.00261  -0.00079   2.86240
   R14        2.07821  -0.00012  -0.00024  -0.00076  -0.00100   2.07721
   R15        2.06998   0.00033   0.00103   0.00081   0.00184   2.07182
   R16        2.28829   0.00173  -0.00135   0.00123  -0.00012   2.28817
   R17        2.54884  -0.00124   0.00370  -0.00163   0.00207   2.55091
   R18        1.84324   0.00037   0.00012   0.00003   0.00015   1.84339
    A1        1.93062   0.00002   0.00095  -0.00044   0.00051   1.93114
    A2        1.92398   0.00005  -0.00179   0.00090  -0.00089   1.92309
    A3        1.92009  -0.00001   0.00036   0.00027   0.00062   1.92071
    A4        1.89888  -0.00006   0.00156  -0.00066   0.00091   1.89979
    A5        1.90767  -0.00005   0.00152  -0.00083   0.00069   1.90836
    A6        1.88176   0.00005  -0.00265   0.00077  -0.00188   1.87987
    A7        1.96822  -0.00031   0.00234  -0.00110   0.00124   1.96947
    A8        1.93862  -0.00000   0.00304  -0.00233   0.00070   1.93932
    A9        1.92855  -0.00002   0.00281  -0.00229   0.00051   1.92906
   A10        1.89255   0.00019  -0.00100   0.00267   0.00166   1.89421
   A11        1.79960   0.00031  -0.00597   0.00490  -0.00107   1.79852
   A12        1.93172  -0.00014  -0.00193  -0.00131  -0.00325   1.92846
   A13        1.66398  -0.00055   0.00426  -0.00171   0.00256   1.66654
   A14        2.12410   0.00013   0.00176   0.00097   0.00270   2.12681
   A15        2.01700   0.00072  -0.00026   0.00115   0.00087   2.01787
   A16        2.14193  -0.00084  -0.00165  -0.00191  -0.00358   2.13835
   A17        2.11658  -0.00015   0.00045   0.00152  -0.00139   2.11520
   A18        2.12612  -0.00031   0.01139   0.00058   0.00864   2.13475
   A19        2.02519   0.00054   0.00394   0.00614   0.00673   2.03192
   A20        1.90994  -0.00056  -0.00120  -0.00249  -0.00369   1.90625
   A21        1.95784  -0.00006  -0.00009  -0.00026  -0.00036   1.95748
   A22        1.92873   0.00030   0.00985   0.00005   0.00988   1.93861
   A23        1.88861   0.00042   0.00400   0.00307   0.00708   1.89569
   A24        1.92821  -0.00019  -0.00954  -0.00259  -0.01210   1.91611
   A25        1.84960   0.00012  -0.00341   0.00236  -0.00106   1.84854
   A26        2.18204  -0.00059   0.00434  -0.00241   0.00187   2.18391
   A27        1.94228   0.00029  -0.00207   0.00037  -0.00176   1.94051
   A28        2.15874   0.00030  -0.00191   0.00198   0.00001   2.15875
   A29        1.86751  -0.00098   0.00413  -0.00449  -0.00036   1.86715
    D1        0.94730   0.00004  -0.00334   0.00162  -0.00172   0.94558
    D2        3.07588   0.00007  -0.00074   0.00259   0.00184   3.07772
    D3       -1.05643  -0.00014   0.00088  -0.00235  -0.00147  -1.05790
    D4        3.04819   0.00001  -0.00194   0.00110  -0.00084   3.04735
    D5       -1.10641   0.00003   0.00066   0.00207   0.00273  -1.10369
    D6        1.04447  -0.00017   0.00228  -0.00287  -0.00059   1.04388
    D7       -1.16202   0.00009  -0.00609   0.00277  -0.00332  -1.16535
    D8        0.96655   0.00012  -0.00349   0.00373   0.00024   0.96680
    D9        3.11743  -0.00009  -0.00187  -0.00120  -0.00307   3.11436
   D10        1.18813  -0.00003  -0.02071   0.01481  -0.00590   1.18223
   D11       -0.96623   0.00004  -0.02545   0.01661  -0.00884  -0.97507
   D12       -3.01482  -0.00003  -0.01983   0.01452  -0.00532  -3.02014
   D13       -0.78656  -0.00000   0.06871  -0.02115   0.04755  -0.73901
   D14        2.37309  -0.00011   0.08142  -0.03356   0.04786   2.42095
   D15        1.38550  -0.00026   0.07300  -0.02224   0.05075   1.43625
   D16       -1.73804  -0.00037   0.08571  -0.03465   0.05106  -1.68698
   D17       -2.93562   0.00013   0.06435  -0.01564   0.04870  -2.88692
   D18        0.22403   0.00003   0.07706  -0.02805   0.04901   0.27304
   D19       -3.08996  -0.00026  -0.03361  -0.02025  -0.05404   3.13918
   D20       -0.14286   0.00030   0.05080   0.03228   0.08328  -0.05958
   D21        0.06989  -0.00038  -0.02078  -0.03284  -0.05380   0.01609
   D22        3.01700   0.00018   0.06364   0.01970   0.08351   3.10051
   D23        2.77930   0.00014   0.15727   0.02409   0.18127   2.96057
   D24       -1.40761   0.00025   0.16143   0.02610   0.18744  -1.22017
   D25        0.65221   0.00056   0.16357   0.02893   0.19244   0.84466
   D26       -0.17849  -0.00031   0.07636  -0.02501   0.05141  -0.12708
   D27        1.91779  -0.00020   0.08052  -0.02300   0.05758   1.97537
   D28       -2.30558   0.00011   0.08266  -0.02017   0.06259  -2.24299
   D29        0.06003  -0.00008  -0.04303   0.00137  -0.04168   0.01835
   D30       -3.09832   0.00000  -0.02630  -0.00265  -0.02895  -3.12728
   D31       -2.07813   0.00008  -0.04469   0.00129  -0.04341  -2.12154
   D32        1.04671   0.00016  -0.02796  -0.00272  -0.03068   1.01603
   D33        2.18743  -0.00020  -0.03769  -0.00189  -0.03957   2.14786
   D34       -0.97092  -0.00012  -0.02097  -0.00590  -0.02684  -0.99776
   D35       -3.10431  -0.00043  -0.00731  -0.00324  -0.01052  -3.11483
   D36        0.02079  -0.00036   0.00928  -0.00724   0.00201   0.02280
         Item               Value     Threshold  Converged?
 Maximum Force            0.001733     0.000450     NO 
 RMS     Force            0.000410     0.000300     NO 
 Maximum Displacement     0.354841     0.001800     NO 
 RMS     Displacement     0.127925     0.001200     NO 
 Predicted change in Energy=-1.172642D-04
 Lowest energy point so far.  Saving SCF results.
 GradGradGradGradGradGradGradGradGradGradGradGradGradGradGradGradGradGrad

 Leave Link  103 at Fri Mar 14 14:24:59 2025, MaxMem=  8589934592 cpu:               1.7 elap:               0.4
 (Enter /home/enzo/gaussian_versions/gdv.j21/gdv/l202.exe)
                          Input orientation:                          
 ---------------------------------------------------------------------
 Center     Atomic      Atomic             Coordinates (Angstroms)
 Number     Number       Type             X           Y           Z
 ---------------------------------------------------------------------
      1          6           0       -2.456696    1.536928   -1.015935
      2          6           0       -1.683186    0.873154    0.121260
      3         16           0       -2.759561   -0.187323    1.203218
      4          6           0       -0.535522    0.010196   -0.420630
      5          8           0       -0.677512   -0.715345   -1.398771
      6          7           0        0.633860    0.088449    0.267336
      7          6           0        1.790364   -0.674514   -0.135512
      8          6           0        2.998249   -0.198615    0.644807
      9          8           0        2.985104    0.670984    1.487289
     10          8           0        4.109158   -0.875860    0.285082
     11          1           0       -3.310246    2.096696   -0.625998
     12          1           0       -1.803519    2.224887   -1.567029
     13          1           0       -2.811388    0.779834   -1.719684
     14          1           0       -1.300137    1.627789    0.817110
     15          1           0       -3.006448   -1.123375    0.261854
     16          1           0        0.758437    0.713940    1.052760
     17          1           0        1.659356   -1.751218    0.042831
     18          1           0        1.977692   -0.568481   -1.210534
     19          1           0        4.839077   -0.540248    0.838383
 ---------------------------------------------------------------------
                    Distance matrix (angstroms):
                    1          2          3          4          5
     1  C    0.000000
     2  C    1.527130   0.000000
     3  S    2.826554   1.858448   0.000000
     4  C    2.525116   1.534755   2.760841   0.000000
     5  O    2.895651   2.417686   3.374031   1.226104   0.000000
     6  N    3.646425   2.450674   3.530896   1.358997   2.267530
     7  C    4.868587   3.811398   4.767743   2.441283   2.772706
     8  C    5.960419   4.831006   5.784835   3.696795   4.237267
     9  O    6.052204   4.868248   5.815373   4.058522   4.864772
    10  O    7.115099   6.052861   6.963932   4.780813   5.076744
    11  H    1.092675   2.168588   2.977587   3.477751   3.928873
    12  H    1.097102   2.166098   3.795661   2.797661   3.152962
    13  H    1.092822   2.161162   3.079193   2.731200   2.625257
    14  H    2.169317   1.095631   2.360853   2.175602   3.284520
    15  H    3.002030   2.399358   1.350301   2.802899   2.889309
    16  H    3.910741   2.618122   3.634725   2.083378   3.180379
    17  H    5.373525   4.250419   4.828984   2.852168   2.934655
    18  H    4.912679   4.153795   5.330389   2.697232   2.665916
    19  H    7.809062   6.712069   7.615573   5.547469   5.955524
                    6          7          8          9         10
     6  N    0.000000
     7  C    1.442879   0.000000
     8  C    2.411477   1.514715   0.000000
     9  O    2.712191   2.423067   1.210848   0.000000
    10  O    3.606647   2.365215   1.349882   2.258655   0.000000
    11  H    4.515205   5.825496   6.832313   6.791912   8.044483
    12  H    3.724256   4.834435   5.815716   5.888496   6.928542
    13  H    4.036830   5.079454   6.348233   6.625394   7.392859
    14  H    2.532225   3.969796   4.673495   4.441611   5.984294
    15  H    3.836716   4.834127   6.087546   6.373391   7.119947
    16  H    1.011756   2.098730   2.452741   2.269076   3.787363
    17  H    2.118117   1.099210   2.136723   3.116269   2.612751
    18  H    2.102746   1.096361   2.149565   3.135188   2.621926
    19  H    4.290128   3.203302   1.882241   2.307678   0.975479
                   11         12         13         14         15
    11  H    0.000000
    12  H    1.781067   0.000000
    13  H    1.783013   1.768412   0.000000
    14  H    2.518526   2.508792   3.072170   0.000000
    15  H    3.354017   4.000339   2.754405   3.284617   0.000000
    16  H    4.613505   3.963569   4.520447   2.264593   4.263288
    17  H    6.320658   5.512945   5.431412   4.558047   4.712948
    18  H    5.950390   4.714611   5.001247   4.436114   5.226613
    19  H    8.689611   7.586571   8.174101   6.510820   7.888262
                   16         17         18         19
    16  H    0.000000
    17  H    2.812226   0.000000
    18  H    2.872923   1.752464   0.000000
    19  H    4.274408   3.494277   3.519429   0.000000
 Stoichiometry    C5H9NO3S
 Framework group  C1[X(C5H9NO3S)]
 Deg. of freedom    51
 Full point group                 C1      NOp   1
 RotChk:  IX=3 Diff= 7.46D-02
 Largest Abelian subgroup         C1      NOp   1
 Largest concise Abelian subgroup C1      NOp   1
                         Standard orientation:                         
 ---------------------------------------------------------------------
 Center     Atomic      Atomic             Coordinates (Angstroms)
 Number     Number       Type             X           Y           Z
 ---------------------------------------------------------------------
      1          6           0        2.816463   -0.955017    1.211370
      2          6           0        1.883216    0.089300    0.602621
      3         16           0        2.734344    1.183184   -0.635453
      4          6           0        0.679850   -0.575360   -0.079736
      5          8           0        0.802063   -1.579331   -0.772873
      6          7           0       -0.518411    0.034559    0.117859
      7          6           0       -1.728321   -0.486785   -0.470544
      8          6           0       -2.921623    0.234003    0.121788
      9          8           0       -2.862174    1.121182    0.943694
     10          8           0       -4.078876   -0.236643   -0.389524
     11          1           0        3.702114   -0.478156    1.638177
     12          1           0        2.297698   -1.511347    2.001946
     13          1           0        3.124705   -1.672849    0.447193
     14          1           0        1.547201    0.797198    1.368377
     15          1           0        2.931160    0.211623   -1.552320
     16          1           0       -0.621608    0.842322    0.718291
     17          1           0       -1.747182   -0.358377   -1.562065
     18          1           0       -1.820276   -1.564767   -0.293046
     19          1           0       -4.800041    0.282970    0.012325
 ---------------------------------------------------------------------
 Rotational constants (GHZ):           2.3859263           0.4678583           0.4450498
 Leave Link  202 at Fri Mar 14 14:24:59 2025, MaxMem=  8589934592 cpu:               0.5 elap:               0.2
 (Enter /home/enzo/gaussian_versions/gdv.j21/gdv/l301.exe)
 Standard basis: 6-31G(d) (6D, 7F)
 Ernie: Thresh=  0.10000D-02 Tol=  0.10000D-05 Strict=F.
 There are   172 symmetry adapted cartesian basis functions of A   symmetry.
 There are   172 symmetry adapted basis functions of A   symmetry.
   172 basis functions,   340 primitive gaussians,   172 cartesian basis functions
    43 alpha electrons       43 beta electrons
       nuclear repulsion energy       609.7694339152 Hartrees.
 IExCor=      4002 DFT=T Ex+Corr=B3LYP ScaHFX=  0.200000
 ScaDFX=  0.800000  0.720000  1.000000  0.810000  1.000000  0.000000
 ScaDFX=  0.000000  0.000000  0.000000  0.000000  0.000000  0.000000
 IRadAn=      5 IRanWt=     -1 IRanGd=            0 ICorTp=0 IEmpDi=  4
 NAtoms=   19 NActive=   19 NUniq=   19 SFac= 1.00D+00 NAtFMM=   60 NAOKFM=F Big=F
 Integral buffers will be    131072 words long.
 Raffenetti 2 integral format.
 Two-electron integral symmetry is turned on.
 Leave Link  301 at Fri Mar 14 14:24:59 2025, MaxMem=  8589934592 cpu:               0.3 elap:               0.3
 (Enter /home/enzo/gaussian_versions/gdv.j21/gdv/l302.exe)
 NPDir=0 NMtPBC=     1 NCelOv=     1 NCel=       1 NClECP=     1 NCelD=      1
         NCelK=      1 NCelE2=     1 NClLst=     1 CellRange=     0.0.
 One-electron integrals computed using PRISM.
 One-electron integral symmetry used in STVInt
 NBasis=   172 RedAO= T EigKep=  2.54D-03  NBF=   172
 NBsUse=   172 1.00D-06 EigRej= -1.00D+00 NBFU=   172
 Precomputing XC quadrature grid using
 IXCGrd= 4 IRadAn=           5 IRanWt=          -1 IRanGd=           0 AccXCQ= 0.00D+00.
 Generated NRdTot=       0 NPtTot=      408604 NUsed=           0 NTot=          64
 NSgBfM=   171   171   171   171   171 MxSgAt=    19 MxSgA2=    19 SizInc=   0.000
 NMBTot=     3513 MaxBatPerAtom=       85 MaxMicBPerAtom=      207 NBfPt=            49969740.
 Leave Link  302 at Fri Mar 14 14:25:00 2025, MaxMem=  8589934592 cpu:               5.4 elap:               0.9
 (Enter /home/enzo/gaussian_versions/gdv.j21/gdv/l303.exe)
 DipDrv:  MaxL=1.
 Leave Link  303 at Fri Mar 14 14:25:01 2025, MaxMem=  8589934592 cpu:               0.7 elap:               0.3
 (Enter /home/enzo/gaussian_versions/gdv.j21/gdv/l401.exe)
 Initial guess from the checkpoint file:  "/local/home/enzo/scratch/Gau-2270961.chk"
 B after Tr=     0.000000   -0.000000    0.000000
         Rot=    0.999727   -0.021937   -0.005533   -0.005882 Ang=  -2.68 deg.
 AO Guess basis will be translated and rotated to current coordinates.
 JPrj=2 DoOrth=T DoCkMO=T.
 Generating alternative initial guess.
 ExpMin= 1.17D-01 ExpMax= 2.19D+04 ExpMxC= 3.30D+03 IAcc=3 IRadAn=         5 AccDes= 0.00D+00
 Harris functional with IExCor= 4002 and IRadAn=       5 diagonalized for initial guess.
 HarFok:  IExCor=    4002 AccDes= 0.00D+00 IRadAn=         5 IDoV= 1 UseB2=F ITyADJ=14 ICtDFT=  3500011
 FoFCou: FMM=F IPFlag=           0 FMFlag=      100000 FMFlg1=           0
         NFxFlg=           0 DoJE=T BraDBF=F KetDBF=T FulRan=T
         wScrn=  0.000000 ICntrl=       500 IOpCl=  0 I1Cent=   200000004 NGrid=           0
         NMat0=    1 NMatS0=      1 NMatT0=    0 NMatD0=    1 NMtDS0=    0 NMtDT0=    0
 Petite list used in FoFCou.
 Harris En= -874.550093238165    
 Leave Link  401 at Fri Mar 14 14:25:02 2025, MaxMem=  8589934592 cpu:               9.7 elap:               1.6
 (Enter /home/enzo/gaussian_versions/gdv.j21/gdv/l502.exe)
 Integral symmetry usage will be decided dynamically.
 Closed shell SCF:
 Using DIIS extrapolation, IDIIS=  1040.
 NGot=  8589934592 LenX=  8589843591 LenY=  8589813566
 Requested convergence on RMS density matrix=1.00D-08 within 128 cycles.
 Requested convergence on MAX density matrix=1.00D-06.
 Requested convergence on             energy=1.00D-06.
 No special actions if energy rises.
 Fock matrices will be formed incrementally for  20 cycles.
 Integral accuracy reduced to 1.0D-05 until final iterations.

 Cycle   1  Pass 0  IDiag  1:
 FoFJK:  IHMeth= 1 ICntrl=       0 DoSepK=F KAlg= 0 I1Cent=           0 FoldK=F
 IRaf= 880000000 NMat=       1 IRICut=       1 DoRegI=T DoRafI=F ISym2E= 0 IDoP0=0 IntGTp=1.
 FoFCou: FMM=F IPFlag=           0 FMFlag=      100000 FMFlg1=           0
         NFxFlg=           0 DoJE=F BraDBF=F KetDBF=F FulRan=T
         wScrn=  0.000000 ICntrl=         0 IOpCl=  0 I1Cent=           0 NGrid=           0
         NMat0=    1 NMatS0=      1 NMatT0=    0 NMatD0=    1 NMtDS0=    0 NMtDT0=    0
 Symmetry not used in FoFCou.
 E= -874.570374529938    
 DIIS: error= 4.43D-03 at cycle   1 NSaved=   1.
 NSaved= 1 IEnMin= 1 EnMin= -874.570374529938     IErMin= 1 ErrMin= 4.43D-03
 ErrMax= 4.43D-03  0.00D+00 EMaxC= 1.00D-01 BMatC= 8.60D-03 BMatP= 8.60D-03
 IDIUse=3 WtCom= 9.56D-01 WtEn= 4.43D-02
 Coeff-Com:  0.100D+01
 Coeff-En:   0.100D+01
 Coeff:      0.100D+01
 Gap=     1.616 Goal=   None    Shift=    0.000
 GapD=    1.616 DampG=2.000 DampE=1.000 DampFc=2.0000 IDamp=-1.
 RMSDP=9.83D-04 MaxDP=1.88D-02              OVMax= 3.17D-02

 Cycle   2  Pass 0  IDiag  1:
 RMSU=  9.83D-04    CP:  9.99D-01
 E= -874.588639429279     Delta-E=       -0.018264899341 Rises=F Damp=F
 DIIS: error= 7.33D-04 at cycle   2 NSaved=   2.
 NSaved= 2 IEnMin= 2 EnMin= -874.588639429279     IErMin= 2 ErrMin= 7.33D-04
 ErrMax= 7.33D-04  0.00D+00 EMaxC= 1.00D-01 BMatC= 1.30D-04 BMatP= 8.60D-03
 IDIUse=3 WtCom= 9.93D-01 WtEn= 7.33D-03
 Coeff-Com: -0.755D-01 0.108D+01
 Coeff-En:   0.000D+00 0.100D+01
 Coeff:     -0.750D-01 0.107D+01
 Gap=     0.225 Goal=   None    Shift=    0.000
 RMSDP=1.52D-04 MaxDP=2.15D-03 DE=-1.83D-02 OVMax= 5.97D-03

 Cycle   3  Pass 0  IDiag  1:
 RMSU=  1.24D-04    CP:  9.99D-01  1.09D+00
 E= -874.588861192574     Delta-E=       -0.000221763295 Rises=F Damp=F
 DIIS: error= 2.84D-04 at cycle   3 NSaved=   3.
 NSaved= 3 IEnMin= 3 EnMin= -874.588861192574     IErMin= 3 ErrMin= 2.84D-04
 ErrMax= 2.84D-04  0.00D+00 EMaxC= 1.00D-01 BMatC= 4.52D-05 BMatP= 1.30D-04
 IDIUse=3 WtCom= 9.97D-01 WtEn= 2.84D-03
 Coeff-Com: -0.356D-01 0.434D+00 0.602D+00
 Coeff-En:   0.000D+00 0.000D+00 0.100D+01
 Coeff:     -0.355D-01 0.432D+00 0.603D+00
 Gap=     0.225 Goal=   None    Shift=    0.000
 RMSDP=5.77D-05 MaxDP=1.52D-03 DE=-2.22D-04 OVMax= 1.77D-03

 Cycle   4  Pass 0  IDiag  1:
 RMSU=  4.62D-05    CP:  9.99D-01  1.10D+00  7.47D-01
 E= -874.588884335376     Delta-E=       -0.000023142802 Rises=F Damp=F
 DIIS: error= 2.41D-04 at cycle   4 NSaved=   4.
 NSaved= 4 IEnMin= 4 EnMin= -874.588884335376     IErMin= 4 ErrMin= 2.41D-04
 ErrMax= 2.41D-04  0.00D+00 EMaxC= 1.00D-01 BMatC= 2.16D-05 BMatP= 4.52D-05
 IDIUse=3 WtCom= 9.98D-01 WtEn= 2.41D-03
 Coeff-Com: -0.135D-01 0.150D+00 0.407D+00 0.456D+00
 Coeff-En:   0.000D+00 0.000D+00 0.301D+00 0.699D+00
 Coeff:     -0.135D-01 0.150D+00 0.407D+00 0.457D+00
 Gap=     0.225 Goal=   None    Shift=    0.000
 RMSDP=2.71D-05 MaxDP=9.55D-04 DE=-2.31D-05 OVMax= 1.38D-03

 Cycle   5  Pass 0  IDiag  1:
 RMSU=  1.89D-05    CP:  9.99D-01  1.11D+00  7.98D-01  6.07D-01
 E= -874.588900170140     Delta-E=       -0.000015834764 Rises=F Damp=F
 DIIS: error= 7.36D-05 at cycle   5 NSaved=   5.
 NSaved= 5 IEnMin= 5 EnMin= -874.588900170140     IErMin= 5 ErrMin= 7.36D-05
 ErrMax= 7.36D-05  0.00D+00 EMaxC= 1.00D-01 BMatC= 1.31D-06 BMatP= 2.16D-05
 IDIUse=1 WtCom= 1.00D+00 WtEn= 0.00D+00
 Coeff-Com: -0.322D-02 0.288D-01 0.152D+00 0.252D+00 0.571D+00
 Coeff:     -0.322D-02 0.288D-01 0.152D+00 0.252D+00 0.571D+00
 Gap=     0.225 Goal=   None    Shift=    0.000
 RMSDP=8.99D-06 MaxDP=2.53D-04 DE=-1.58D-05 OVMax= 4.40D-04

 Initial convergence to 1.0D-05 achieved.  Increase integral accuracy.
 Cycle   6  Pass 1  IDiag  1:
 E= -874.588893091377     Delta-E=        0.000007078763 Rises=F Damp=F
 DIIS: error= 2.40D-05 at cycle   1 NSaved=   1.
 NSaved= 1 IEnMin= 1 EnMin= -874.588893091377     IErMin= 1 ErrMin= 2.40D-05
 ErrMax= 2.40D-05  0.00D+00 EMaxC= 1.00D-01 BMatC= 2.48D-07 BMatP= 2.48D-07
 IDIUse=1 WtCom= 1.00D+00 WtEn= 0.00D+00
 Coeff-Com:  0.100D+01
 Coeff:      0.100D+01
 Gap=     0.225 Goal=   None    Shift=    0.000
 RMSDP=8.99D-06 MaxDP=2.53D-04 DE= 7.08D-06 OVMax= 3.87D-04

 Cycle   7  Pass 1  IDiag  1:
 RMSU=  8.01D-06    CP:  1.00D+00
 E= -874.588892748535     Delta-E=        0.000000342843 Rises=F Damp=F
 DIIS: error= 4.48D-05 at cycle   2 NSaved=   2.
 NSaved= 2 IEnMin= 1 EnMin= -874.588893091377     IErMin= 1 ErrMin= 2.40D-05
 ErrMax= 4.48D-05  0.00D+00 EMaxC= 1.00D-01 BMatC= 7.05D-07 BMatP= 2.48D-07
 IDIUse=1 WtCom= 1.00D+00 WtEn= 0.00D+00
 Coeff-Com:  0.634D+00 0.366D+00
 Coeff:      0.634D+00 0.366D+00
 Gap=     0.225 Goal=   None    Shift=    0.000
 RMSDP=4.68D-06 MaxDP=1.37D-04 DE= 3.43D-07 OVMax= 2.69D-04

 Cycle   8  Pass 1  IDiag  1:
 RMSU=  2.97D-06    CP:  1.00D+00  5.50D-01
 E= -874.588893297428     Delta-E=       -0.000000548893 Rises=F Damp=F
 DIIS: error= 7.02D-06 at cycle   3 NSaved=   3.
 NSaved= 3 IEnMin= 3 EnMin= -874.588893297428     IErMin= 3 ErrMin= 7.02D-06
 ErrMax= 7.02D-06  0.00D+00 EMaxC= 1.00D-01 BMatC= 1.90D-08 BMatP= 2.48D-07
 IDIUse=1 WtCom= 1.00D+00 WtEn= 0.00D+00
 Coeff-Com:  0.282D+00 0.199D+00 0.519D+00
 Coeff:      0.282D+00 0.199D+00 0.519D+00
 Gap=     0.225 Goal=   None    Shift=    0.000
 RMSDP=9.26D-07 MaxDP=3.03D-05 DE=-5.49D-07 OVMax= 4.22D-05

 Cycle   9  Pass 1  IDiag  1:
 RMSU=  7.53D-07    CP:  1.00D+00  5.92D-01  8.61D-01
 E= -874.588893309504     Delta-E=       -0.000000012075 Rises=F Damp=F
 DIIS: error= 3.24D-06 at cycle   4 NSaved=   4.
 NSaved= 4 IEnMin= 4 EnMin= -874.588893309504     IErMin= 4 ErrMin= 3.24D-06
 ErrMax= 3.24D-06  0.00D+00 EMaxC= 1.00D-01 BMatC= 4.20D-09 BMatP= 1.90D-08
 IDIUse=1 WtCom= 1.00D+00 WtEn= 0.00D+00
 Coeff-Com:  0.181D-01 0.344D-01 0.336D+00 0.611D+00
 Coeff:      0.181D-01 0.344D-01 0.336D+00 0.611D+00
 Gap=     0.225 Goal=   None    Shift=    0.000
 RMSDP=3.48D-07 MaxDP=9.50D-06 DE=-1.21D-08 OVMax= 1.21D-05

 Cycle  10  Pass 1  IDiag  1:
 RMSU=  2.17D-07    CP:  1.00D+00  5.90D-01  9.13D-01  7.05D-01
 E= -874.588893312785     Delta-E=       -0.000000003282 Rises=F Damp=F
 DIIS: error= 4.50D-07 at cycle   5 NSaved=   5.
 NSaved= 5 IEnMin= 5 EnMin= -874.588893312785     IErMin= 5 ErrMin= 4.50D-07
 ErrMax= 4.50D-07  0.00D+00 EMaxC= 1.00D-01 BMatC= 1.25D-10 BMatP= 4.20D-09
 IDIUse=1 WtCom= 1.00D+00 WtEn= 0.00D+00
 Coeff-Com: -0.913D-02 0.312D-02 0.117D+00 0.266D+00 0.623D+00
 Coeff:     -0.913D-02 0.312D-02 0.117D+00 0.266D+00 0.623D+00
 Gap=     0.225 Goal=   None    Shift=    0.000
 RMSDP=8.57D-08 MaxDP=1.56D-06 DE=-3.28D-09 OVMax= 3.03D-06

 Cycle  11  Pass 1  IDiag  1:
 RMSU=  7.52D-08    CP:  1.00D+00  5.93D-01  9.15D-01  7.24D-01  8.56D-01
 E= -874.588893312889     Delta-E=       -0.000000000103 Rises=F Damp=F
 DIIS: error= 1.48D-07 at cycle   6 NSaved=   6.
 NSaved= 6 IEnMin= 6 EnMin= -874.588893312889     IErMin= 6 ErrMin= 1.48D-07
 ErrMax= 1.48D-07  0.00D+00 EMaxC= 1.00D-01 BMatC= 1.35D-11 BMatP= 1.25D-10
 IDIUse=1 WtCom= 1.00D+00 WtEn= 0.00D+00
 Coeff-Com: -0.633D-02-0.214D-02 0.211D-01 0.626D-01 0.283D+00 0.642D+00
 Coeff:     -0.633D-02-0.214D-02 0.211D-01 0.626D-01 0.283D+00 0.642D+00
 Gap=     0.225 Goal=   None    Shift=    0.000
 RMSDP=3.09D-08 MaxDP=6.01D-07 DE=-1.03D-10 OVMax= 1.43D-06

 Cycle  12  Pass 1  IDiag  1:
 RMSU=  2.73D-08    CP:  1.00D+00  5.93D-01  9.18D-01  7.27D-01  9.04D-01
                    CP:  9.06D-01
 E= -874.588893312906     Delta-E=       -0.000000000018 Rises=F Damp=F
 DIIS: error= 7.98D-08 at cycle   7 NSaved=   7.
 NSaved= 7 IEnMin= 7 EnMin= -874.588893312906     IErMin= 7 ErrMin= 7.98D-08
 ErrMax= 7.98D-08  0.00D+00 EMaxC= 1.00D-01 BMatC= 1.85D-12 BMatP= 1.35D-11
 IDIUse=1 WtCom= 1.00D+00 WtEn= 0.00D+00
 Coeff-Com: -0.174D-02-0.127D-02-0.389D-02-0.253D-02 0.495D-01 0.291D+00
 Coeff-Com:  0.669D+00
 Coeff:     -0.174D-02-0.127D-02-0.389D-02-0.253D-02 0.495D-01 0.291D+00
 Coeff:      0.669D+00
 Gap=     0.225 Goal=   None    Shift=    0.000
 RMSDP=1.23D-08 MaxDP=4.23D-07 DE=-1.77D-11 OVMax= 7.65D-07

 Cycle  13  Pass 1  IDiag  1:
 RMSU=  9.56D-09    CP:  1.00D+00  5.93D-01  9.18D-01  7.29D-01  9.24D-01
                    CP:  9.71D-01  8.85D-01
 E= -874.588893312910     Delta-E=       -0.000000000004 Rises=F Damp=F
 DIIS: error= 7.42D-08 at cycle   8 NSaved=   8.
 NSaved= 8 IEnMin= 8 EnMin= -874.588893312910     IErMin= 8 ErrMin= 7.42D-08
 ErrMax= 7.42D-08  0.00D+00 EMaxC= 1.00D-01 BMatC= 1.32D-12 BMatP= 1.85D-12
 IDIUse=1 WtCom= 1.00D+00 WtEn= 0.00D+00
 Coeff-Com:  0.618D-04-0.473D-03-0.725D-02-0.149D-01-0.238D-01 0.788D-01
 Coeff-Com:  0.504D+00 0.464D+00
 Coeff:      0.618D-04-0.473D-03-0.725D-02-0.149D-01-0.238D-01 0.788D-01
 Coeff:      0.504D+00 0.464D+00
 Gap=     0.225 Goal=   None    Shift=    0.000
 RMSDP=6.06D-09 MaxDP=1.97D-07 DE=-3.64D-12 OVMax= 3.68D-07

 SCF Done:  E(RB3LYP) =  -874.588893313     A.U. after   13 cycles
            NFock= 13  Conv=0.61D-08     -V/T= 2.0064
 KE= 8.690168152809D+02 PE=-3.279287467558D+03 EE= 9.259123250493D+02
 Leave Link  502 at Fri Mar 14 14:25:13 2025, MaxMem=  8589934592 cpu:              80.9 elap:              10.8
 (Enter /home/enzo/gaussian_versions/gdv.j21/gdv/l701.exe)
 ... and contract with generalized density number  0.
 Compute integral first derivatives.
 Leave Link  701 at Fri Mar 14 14:25:14 2025, MaxMem=  8589934592 cpu:               3.4 elap:               0.7
 (Enter /home/enzo/gaussian_versions/gdv.j21/gdv/l702.exe)
 L702 exits ... SP integral derivatives will be done elsewhere.
 Leave Link  702 at Fri Mar 14 14:25:14 2025, MaxMem=  8589934592 cpu:               0.2 elap:               0.3
 (Enter /home/enzo/gaussian_versions/gdv.j21/gdv/l703.exe)
 Integral derivatives from FoFJK, PRISM(SPDF).
 Compute integral first derivatives, UseDBF=F ICtDFT=           0.
 Calling FoFJK, ICntrl=      2127 FMM=F ISym2X=0 I1Cent= 0 IOpClX= 0 NMat=1 NMatS=1 NMatT=0.
 FoFJK:  IHMeth= 1 ICntrl=    2127 DoSepK=F KAlg= 0 I1Cent=           0 FoldK=F
 IRaf=         0 NMat=       1 IRICut=       1 DoRegI=T DoRafI=F ISym2E= 0 IDoP0=0 IntGTp=1.
 FoFCou: FMM=F IPFlag=           0 FMFlag=      100000 FMFlg1=         800
         NFxFlg=           0 DoJE=F BraDBF=F KetDBF=F FulRan=T
         wScrn=  0.000000 ICntrl=      2127 IOpCl=  0 I1Cent=           0 NGrid=           0
         NMat0=    1 NMatS0=      1 NMatT0=    0 NMatD0=    1 NMtDS0=    0 NMtDT0=    0
 Symmetry not used in FoFCou.
 Leave Link  703 at Fri Mar 14 14:25:16 2025, MaxMem=  8589934592 cpu:              15.9 elap:               2.2
 (Enter /home/enzo/gaussian_versions/gdv.j21/gdv/l716.exe)
 Dipole        =-9.96066711D-01 9.92933066D-02 4.33104343D-01
 ***** Axes restored to original set *****
 -------------------------------------------------------------------
 Center     Atomic                   Forces (Hartrees/Bohr)
 Number     Number              X              Y              Z
 -------------------------------------------------------------------
      1        6           0.000206712   -0.000099957   -0.000088381
      2        6           0.000283184   -0.001130268    0.000251283
      3       16           0.000120713    0.000391950   -0.000196787
      4        6          -0.001631059    0.000440546    0.002086335
      5        8           0.000057967   -0.000353671   -0.000691355
      6        7           0.001325545    0.000739730   -0.001284167
      7        6           0.000810300   -0.000605850    0.000974698
      8        6           0.001796409   -0.001873644   -0.002542725
      9        8          -0.000521077    0.000821552    0.001395744
     10        8          -0.001737509   -0.000049055    0.000456923
     11        1          -0.000163128    0.000125577   -0.000006546
     12        1          -0.000008193    0.000250159    0.000015783
     13        1          -0.000168234   -0.000128920   -0.000009364
     14        1           0.000234880    0.000180192   -0.000265432
     15        1           0.000081411   -0.000033774   -0.000394610
     16        1          -0.000307224    0.000023678    0.000377199
     17        1          -0.000389082    0.000218595    0.000042102
     18        1           0.000054094    0.000326389   -0.000183157
     19        1          -0.000045709    0.000756770    0.000062456
 -------------------------------------------------------------------
 Cartesian Forces:  Max     0.002542725 RMS     0.000798996
 Leave Link  716 at Fri Mar 14 14:25:17 2025, MaxMem=  8589934592 cpu:               0.2 elap:               0.2
 (Enter /home/enzo/gaussian_versions/gdv.j21/gdv/l103.exe)

 GradGradGradGradGradGradGradGradGradGradGradGradGradGradGradGradGradGrad
 Berny optimization.
 Using GEDIIS/GDIIS optimizer.
 FormGI is forming the generalized inverse of G from B-inverse, IUseBI=4.
 Internal  Forces:  Max     0.001960609 RMS     0.000423253
 Search for a local minimum.
 Step number  13 out of a maximum of   93
 All quantities printed in internal units (Hartrees-Bohrs-Radians)
 RMS Force = .42325D-03 SwitMx=.10000D-02 MixMth= 2
 Mixed Optimization -- En-DIIS/RFO-DIIS
 Swapping is turned off.
 Update second derivatives using D2CorX and points   12   13
 DE= -1.64D-04 DEPred=-1.17D-04 R= 1.40D+00
 TightC=F SS=  1.41D+00  RLast= 3.97D-01 DXNew= 2.4000D+00 1.1911D+00
 Trust test= 1.40D+00 RLast= 3.97D-01 DXMaxT set to 1.43D+00
 ITU=  1  1  1  1  1  1  1  1  0  1  1  1  0
     Eigenvalues ---    0.00058   0.00263   0.00455   0.00555   0.00872
     Eigenvalues ---    0.00898   0.01355   0.02175   0.04198   0.04699
     Eigenvalues ---    0.04856   0.05297   0.05645   0.05765   0.05946
     Eigenvalues ---    0.06733   0.08209   0.09770   0.13355   0.15798
     Eigenvalues ---    0.15960   0.16003   0.16050   0.16097   0.17735
     Eigenvalues ---    0.17919   0.19939   0.21901   0.22141   0.23127
     Eigenvalues ---    0.23318   0.24723   0.25301   0.26588   0.27231
     Eigenvalues ---    0.30365   0.31922   0.32576   0.32602   0.32622
     Eigenvalues ---    0.32631   0.32651   0.32901   0.35375   0.37671
     Eigenvalues ---    0.40704   0.42719   0.46136   0.52773   0.78806
     Eigenvalues ---    0.80660
 En-DIIS/RFO-DIIS/Sim-DIIS IScMMF=       -3 using points:    13   12   11   10
 RFO step:  Lambda=-1.99489939D-04.
 NNeg= 0 NGDIIS= 4 SimSw=  2.50D-01 Rises=F DC= -1.64D-04 SmlDif=  1.00D-05
 NRisDI= 0 DoIntr=F SqrtH=F CThrHd= 10.0 CDAdj=  3.0
 RMS Error=  0.3622845587D-01 NUsed= 4 OKEnD=T EnDIS=F
 InvSVX:  RCond= 7.83D-05 Info=           0 Equed=N FErr=  1.55D-12 BErr=  2.95D-17
 Old DIIS coefficients:      3.01721     -2.68975      0.09149      0.58105
 DidBck=FF Rises=F RFO-DIIS coefs:    2.45318   -2.00000    0.07438    0.47243
 Iteration  1 RMS(Cart)=  0.10190650 RMS(Int)=  0.00409755
 Iteration  2 RMS(Cart)=  0.00826609 RMS(Int)=  0.00113018
 Iteration  3 RMS(Cart)=  0.00003267 RMS(Int)=  0.00113004
 Iteration  4 RMS(Cart)=  0.00000002 RMS(Int)=  0.00113004
 Variable       Old X    -DE/DX   Delta X   Delta X   Delta X     New X
                                 (Linear)    (Quad)   (Total)
    R1        2.88586   0.00020  -0.00161   0.00173   0.00012   2.88598
    R2        2.06486   0.00019   0.00057   0.00014   0.00071   2.06557
    R3        2.07322   0.00014   0.00032  -0.00003   0.00030   2.07352
    R4        2.06513   0.00015   0.00040   0.00022   0.00062   2.06576
    R5        3.51196  -0.00067  -0.00157  -0.00196  -0.00353   3.50842
    R6        2.90027  -0.00093  -0.00038  -0.00215  -0.00253   2.89774
    R7        2.07044   0.00004   0.00063  -0.00017   0.00046   2.07091
    R8        2.55170   0.00028   0.00132  -0.00004   0.00128   2.55298
    R9        2.31700   0.00075   0.00133   0.00035   0.00169   2.31869
   R10        2.56813   0.00051  -0.00246   0.00270   0.00024   2.56837
   R11        2.72665   0.00013  -0.00358   0.00206  -0.00152   2.72513
   R12        1.91194   0.00027  -0.00066   0.00088   0.00023   1.91217
   R13        2.86240  -0.00084  -0.00210  -0.00005  -0.00214   2.86025
   R14        2.07721  -0.00016  -0.00151  -0.00040  -0.00191   2.07530
   R15        2.07182   0.00022   0.00190   0.00028   0.00218   2.07400
   R16        2.28817   0.00157   0.00147   0.00064   0.00211   2.29028
   R17        2.55091  -0.00196  -0.00085  -0.00237  -0.00321   2.54769
   R18        1.84339   0.00026   0.00061   0.00029   0.00090   1.84429
    A1        1.93114   0.00006   0.00017  -0.00001   0.00016   1.93129
    A2        1.92309   0.00009   0.00072  -0.00012   0.00059   1.92369
    A3        1.92071  -0.00003   0.00051   0.00058   0.00110   1.92180
    A4        1.89979  -0.00013  -0.00034  -0.00072  -0.00106   1.89873
    A5        1.90836  -0.00007  -0.00095  -0.00028  -0.00123   1.90713
    A6        1.87987   0.00008  -0.00016   0.00056   0.00041   1.88029
    A7        1.96947  -0.00035  -0.00014  -0.00109  -0.00124   1.96823
    A8        1.93932   0.00023  -0.00157   0.00108  -0.00048   1.93883
    A9        1.92906  -0.00013  -0.00161  -0.00012  -0.00174   1.92733
   A10        1.89421  -0.00001   0.00357  -0.00176   0.00183   1.89604
   A11        1.79852   0.00038   0.00505   0.00111   0.00617   1.80469
   A12        1.92846  -0.00012  -0.00499   0.00076  -0.00422   1.92424
   A13        1.66654  -0.00073  -0.00216  -0.00184  -0.00400   1.66253
   A14        2.12681  -0.00019   0.00270  -0.00189   0.00081   2.12762
   A15        2.01787   0.00061   0.00212   0.00042   0.00254   2.02041
   A16        2.13835  -0.00042  -0.00475   0.00155  -0.00320   2.13515
   A17        2.11520   0.00020  -0.00190   0.00237  -0.00543   2.10977
   A18        2.13475  -0.00034   0.00293   0.00121  -0.00174   2.13302
   A19        2.03192   0.00016   0.00846  -0.00139   0.00109   2.03301
   A20        1.90625  -0.00024  -0.00179   0.00043  -0.00140   1.90486
   A21        1.95748  -0.00019  -0.00175  -0.00258  -0.00433   1.95315
   A22        1.93861  -0.00004   0.00437  -0.00050   0.00384   1.94245
   A23        1.89569   0.00033   0.00790   0.00282   0.01073   1.90643
   A24        1.91611   0.00002  -0.01155   0.00048  -0.01108   1.90503
   A25        1.84854   0.00013   0.00272  -0.00055   0.00224   1.85078
   A26        2.18391  -0.00076  -0.00080  -0.00117  -0.00193   2.18198
   A27        1.94051   0.00057   0.00064   0.00243   0.00312   1.94363
   A28        2.15875   0.00019   0.00004  -0.00126  -0.00118   2.15758
   A29        1.86715  -0.00098  -0.00523  -0.00012  -0.00535   1.86180
    D1        0.94558   0.00008   0.00133  -0.00025   0.00108   0.94666
    D2        3.07772  -0.00001   0.00475  -0.00254   0.00221   3.07994
    D3       -1.05790  -0.00010  -0.00382  -0.00089  -0.00472  -1.06262
    D4        3.04735   0.00002   0.00148  -0.00124   0.00024   3.04760
    D5       -1.10369  -0.00008   0.00490  -0.00353   0.00137  -1.10231
    D6        1.04388  -0.00016  -0.00368  -0.00188  -0.00556   1.03832
    D7       -1.16535   0.00015   0.00206  -0.00027   0.00180  -1.16355
    D8        0.96680   0.00005   0.00548  -0.00255   0.00293   0.96973
    D9        3.11436  -0.00003  -0.00309  -0.00091  -0.00401   3.11035
   D10        1.18223   0.00002  -0.00610   0.00838   0.00228   1.18451
   D11       -0.97507  -0.00003  -0.00660   0.00902   0.00241  -0.97266
   D12       -3.02014  -0.00008  -0.00502   0.00836   0.00335  -3.01678
   D13       -0.73901   0.00006   0.00412   0.00027   0.00441  -0.73460
   D14        2.42095  -0.00021  -0.00632  -0.00416  -0.01050   2.41045
   D15        1.43625  -0.00023   0.00539  -0.00162   0.00380   1.44005
   D16       -1.68698  -0.00050  -0.00505  -0.00605  -0.01111  -1.69809
   D17       -2.88692   0.00016   0.01077  -0.00086   0.00992  -2.87700
   D18        0.27304  -0.00011   0.00033  -0.00530  -0.00499   0.26804
   D19        3.13918  -0.00007  -0.05094  -0.01025  -0.06074   3.07844
   D20       -0.05958   0.00028   0.09488   0.03703   0.13139   0.07181
   D21        0.01609  -0.00034  -0.06161  -0.01468  -0.07577  -0.05968
   D22        3.10051   0.00001   0.08421   0.03261   0.11636  -3.06631
   D23        2.96057   0.00015   0.14015   0.06535   0.20563  -3.11699
   D24       -1.22017   0.00028   0.14773   0.06753   0.21538  -1.00479
   D25        0.84466   0.00030   0.15303   0.06480   0.21793   1.06258
   D26       -0.12708  -0.00017   0.00359   0.02066   0.02415  -0.10293
   D27        1.97537  -0.00003   0.01117   0.02284   0.03390   2.00927
   D28       -2.24299  -0.00002   0.01647   0.02011   0.03645  -2.20654
   D29        0.01835   0.00016  -0.02618   0.00772  -0.01846  -0.00011
   D30       -3.12728  -0.00003  -0.01908   0.00625  -0.01285  -3.14012
   D31       -2.12154   0.00033  -0.02786   0.00885  -0.01903  -2.14057
   D32        1.01603   0.00014  -0.02076   0.00738  -0.01342   1.00261
   D33        2.14786  -0.00003  -0.02931   0.00767  -0.02159   2.12627
   D34       -0.99776  -0.00022  -0.02221   0.00621  -0.01598  -1.01374
   D35       -3.11483  -0.00032  -0.02112  -0.00433  -0.02548  -3.14030
   D36        0.02280  -0.00051  -0.01422  -0.00577  -0.01996   0.00285
         Item               Value     Threshold  Converged?
 Maximum Force            0.001961     0.000450     NO 
 RMS     Force            0.000423     0.000300     NO 
 Maximum Displacement     0.308145     0.001800     NO 
 RMS     Displacement     0.106859     0.001200     NO 
 Predicted change in Energy=-9.044215D-05
 Lowest energy point so far.  Saving SCF results.
 GradGradGradGradGradGradGradGradGradGradGradGradGradGradGradGradGradGrad

 Leave Link  103 at Fri Mar 14 14:25:17 2025, MaxMem=  8589934592 cpu:               0.9 elap:               0.3
 (Enter /home/enzo/gaussian_versions/gdv.j21/gdv/l202.exe)
                          Input orientation:                          
 ---------------------------------------------------------------------
 Center     Atomic      Atomic             Coordinates (Angstroms)
 Number     Number       Type             X           Y           Z
 ---------------------------------------------------------------------
      1          6           0       -2.511617    1.493009   -1.016940
      2          6           0       -1.673078    0.894456    0.110405
      3         16           0       -2.672443   -0.157417    1.268730
      4          6           0       -0.520873    0.050302   -0.447445
      5          8           0       -0.675337   -0.710601   -1.397546
      6          7           0        0.676060    0.196645    0.179576
      7          6           0        1.814842   -0.600699   -0.203832
      8          6           0        2.989214   -0.247611    0.683358
      9          8           0        2.966464    0.575984    1.572194
     10          8           0        4.082157   -0.968240    0.361233
     11          1           0       -3.366371    2.041199   -0.612413
     12          1           0       -1.903342    2.180419   -1.618142
     13          1           0       -2.871498    0.701033   -1.678935
     14          1           0       -1.283194    1.686863    0.759272
     15          1           0       -2.920644   -1.132638    0.367355
     16          1           0        0.786909    0.775561    1.002050
     17          1           0        1.608851   -1.676163   -0.120232
     18          1           0        2.089688   -0.425100   -1.251763
     19          1           0        4.791294   -0.689125    0.970912
 ---------------------------------------------------------------------
                    Distance matrix (angstroms):
                    1          2          3          4          5
     1  C    0.000000
     2  C    1.527193   0.000000
     3  S    2.823837   1.856578   0.000000
     4  C    2.523646   1.533418   2.760011   0.000000
     5  O    2.893558   2.417769   3.376902   1.226998   0.000000
     6  N    3.643280   2.451565   3.538938   1.359125   2.266425
     7  C    4.874731   3.807863   4.743486   2.436947   2.763697
     8  C    6.014973   4.834207   5.692552   3.699753   4.239511
     9  O    6.128125   4.874792   5.694491   4.064086   4.872101
    10  O    7.171816   6.054360   6.863352   4.783228   5.078723
    11  H    1.093051   2.169039   2.975592   3.476744   3.928167
    12  H    1.097259   2.166703   3.793550   2.796275   3.148754
    13  H    1.093151   2.162258   3.076570   2.732299   2.625835
    14  H    2.168301   1.095877   2.364514   2.171550   3.281643
    15  H    2.996264   2.394066   1.350976   2.796810   2.886934
    16  H    3.933360   2.619295   3.592866   2.082626   3.178820
    17  H    5.275035   4.175205   4.750293   2.761064   2.789509
    18  H    4.990620   4.213685   5.394667   2.772717   2.783546
    19  H    7.876914   6.710910   7.488577   5.547757   5.957694
                    6          7          8          9         10
     6  N    0.000000
     7  C    1.442076   0.000000
     8  C    2.408701   1.513580   0.000000
     9  O    2.707255   2.421793   1.211964   0.000000
    10  O    3.604366   2.365397   1.348182   2.257393   0.000000
    11  H    4.513411   5.830226   6.878309   6.857416   8.092297
    12  H    3.717588   4.853842   5.927000   6.038830   7.046855
    13  H    4.036538   5.082540   6.389702   6.683358   7.436536
    14  H    2.528927   3.969677   4.690568   4.467045   5.999583
    15  H    3.839079   4.799379   5.984107   6.247324   7.004732
    16  H    1.011876   2.098782   2.449202   2.261714   3.782875
    17  H    2.113621   1.098200   2.142875   3.127232   2.617289
    18  H    2.105622   1.097512   2.141340   3.121800   2.620436
    19  H    4.283218   3.201111   1.877529   2.300445   0.975956
                   11         12         13         14         15
    11  H    0.000000
    12  H    1.780823   0.000000
    13  H    1.782811   1.769070   0.000000
    14  H    2.519265   2.506048   3.072364   0.000000
    15  H    3.351397   3.994178   2.748102   3.283965   0.000000
    16  H    4.632286   4.009549   4.536208   2.274806   4.217820
    17  H    6.230077   5.427012   5.306048   4.521880   4.587972
    18  H    6.021626   4.781971   5.105293   4.458809   5.312775
    19  H    8.746948   7.730177   8.226337   6.526065   7.748224
                   16         17         18         19
    16  H    0.000000
    17  H    2.818874   0.000000
    18  H    2.866791   1.754060   0.000000
    19  H    4.263962   3.506106   3.508371   0.000000
 Stoichiometry    C5H9NO3S
 Framework group  C1[X(C5H9NO3S)]
 Deg. of freedom    51
 Full point group                 C1      NOp   1
 RotChk:  IX=3 Diff= 3.34D-02
 Largest Abelian subgroup         C1      NOp   1
 Largest concise Abelian subgroup C1      NOp   1
                         Standard orientation:                         
 ---------------------------------------------------------------------
 Center     Atomic      Atomic             Coordinates (Angstroms)
 Number     Number       Type             X           Y           Z
 ---------------------------------------------------------------------
      1          6           0        2.905165   -0.963554    1.098833
      2          6           0        1.900330    0.070507    0.595500
      3         16           0        2.642424    1.260935   -0.620665
      4          6           0        0.691036   -0.608318   -0.058850
      5          8           0        0.815082   -1.572697   -0.807256
      6          7           0       -0.521184   -0.071292    0.240057
      7          6           0       -1.725095   -0.573453   -0.374774
      8          6           0       -2.907521    0.232646    0.118173
      9          8           0       -2.842837    1.152286    0.904898
     10          8           0       -4.060492   -0.201869   -0.429045
     11          1           0        3.792064   -0.472319    1.507316
     12          1           0        2.451518   -1.582836    1.882842
     13          1           0        3.203644   -1.626130    0.282205
     14          1           0        1.573398    0.717682    1.417222
     15          1           0        2.824769    0.343968   -1.595888
     16          1           0       -0.617227    0.762184    0.805730
     17          1           0       -1.680058   -0.516451   -1.470569
     18          1           0       -1.884779   -1.631900   -0.132440
     19          1           0       -4.771348    0.361156   -0.068244
 ---------------------------------------------------------------------
 Rotational constants (GHZ):           2.3439137           0.4755380           0.4465875
 Leave Link  202 at Fri Mar 14 14:25:17 2025, MaxMem=  8589934592 cpu:               1.4 elap:               0.3
 (Enter /home/enzo/gaussian_versions/gdv.j21/gdv/l301.exe)
 Standard basis: 6-31G(d) (6D, 7F)
 Ernie: Thresh=  0.10000D-02 Tol=  0.10000D-05 Strict=F.
 There are   172 symmetry adapted cartesian basis functions of A   symmetry.
 There are   172 symmetry adapted basis functions of A   symmetry.
   172 basis functions,   340 primitive gaussians,   172 cartesian basis functions
    43 alpha electrons       43 beta electrons
       nuclear repulsion energy       610.3834349290 Hartrees.
 IExCor=      4002 DFT=T Ex+Corr=B3LYP ScaHFX=  0.200000
 ScaDFX=  0.800000  0.720000  1.000000  0.810000  1.000000  0.000000
 ScaDFX=  0.000000  0.000000  0.000000  0.000000  0.000000  0.000000
 IRadAn=      5 IRanWt=     -1 IRanGd=            0 ICorTp=0 IEmpDi=  4
 NAtoms=   19 NActive=   19 NUniq=   19 SFac= 1.00D+00 NAtFMM=   60 NAOKFM=F Big=F
 Integral buffers will be    131072 words long.
 Raffenetti 2 integral format.
 Two-electron integral symmetry is turned on.
 Leave Link  301 at Fri Mar 14 14:25:18 2025, MaxMem=  8589934592 cpu:               0.3 elap:               0.2
 (Enter /home/enzo/gaussian_versions/gdv.j21/gdv/l302.exe)
 NPDir=0 NMtPBC=     1 NCelOv=     1 NCel=       1 NClECP=     1 NCelD=      1
         NCelK=      1 NCelE2=     1 NClLst=     1 CellRange=     0.0.
 One-electron integrals computed using PRISM.
 One-electron integral symmetry used in STVInt
 NBasis=   172 RedAO= T EigKep=  2.54D-03  NBF=   172
 NBsUse=   172 1.00D-06 EigRej= -1.00D+00 NBFU=   172
 Precomputing XC quadrature grid using
 IXCGrd= 4 IRadAn=           5 IRanWt=          -1 IRanGd=           0 AccXCQ= 0.00D+00.
 Generated NRdTot=       0 NPtTot=      408654 NUsed=           0 NTot=          64
 NSgBfM=   171   171   171   171   171 MxSgAt=    19 MxSgA2=    19 SizInc=   0.000
 NMBTot=     3507 MaxBatPerAtom=       85 MaxMicBPerAtom=      202 NBfPt=            49981139.
 Leave Link  302 at Fri Mar 14 14:25:18 2025, MaxMem=  8589934592 cpu:               5.1 elap:               0.9
 (Enter /home/enzo/gaussian_versions/gdv.j21/gdv/l303.exe)
 DipDrv:  MaxL=1.
 Leave Link  303 at Fri Mar 14 14:25:19 2025, MaxMem=  8589934592 cpu:               0.6 elap:               0.3
 (Enter /home/enzo/gaussian_versions/gdv.j21/gdv/l401.exe)
 Initial guess from the checkpoint file:  "/local/home/enzo/scratch/Gau-2270961.chk"
 B after Tr=    -0.000000   -0.000000   -0.000000
         Rot=    0.999949   -0.008247   -0.003781   -0.004429 Ang=  -1.16 deg.
 AO Guess basis will be translated and rotated to current coordinates.
 JPrj=2 DoOrth=T DoCkMO=T.
 Generating alternative initial guess.
 ExpMin= 1.17D-01 ExpMax= 2.19D+04 ExpMxC= 3.30D+03 IAcc=3 IRadAn=         5 AccDes= 0.00D+00
 Harris functional with IExCor= 4002 and IRadAn=       5 diagonalized for initial guess.
 HarFok:  IExCor=    4002 AccDes= 0.00D+00 IRadAn=         5 IDoV= 1 UseB2=F ITyADJ=14 ICtDFT=  3500011
 FoFCou: FMM=F IPFlag=           0 FMFlag=      100000 FMFlg1=           0
         NFxFlg=           0 DoJE=T BraDBF=F KetDBF=T FulRan=T
         wScrn=  0.000000 ICntrl=       500 IOpCl=  0 I1Cent=   200000004 NGrid=           0
         NMat0=    1 NMatS0=      1 NMatT0=    0 NMatD0=    1 NMtDS0=    0 NMtDT0=    0
 Petite list used in FoFCou.
 Harris En= -874.550014878040    
 Leave Link  401 at Fri Mar 14 14:25:21 2025, MaxMem=  8589934592 cpu:              11.4 elap:               1.8
 (Enter /home/enzo/gaussian_versions/gdv.j21/gdv/l502.exe)
 Integral symmetry usage will be decided dynamically.
 Closed shell SCF:
 Using DIIS extrapolation, IDIIS=  1040.
 NGot=  8589934592 LenX=  8589843591 LenY=  8589813566
 Requested convergence on RMS density matrix=1.00D-08 within 128 cycles.
 Requested convergence on MAX density matrix=1.00D-06.
 Requested convergence on             energy=1.00D-06.
 No special actions if energy rises.
 Fock matrices will be formed incrementally for  20 cycles.
 Integral accuracy reduced to 1.0D-05 until final iterations.

 Cycle   1  Pass 0  IDiag  1:
 FoFJK:  IHMeth= 1 ICntrl=       0 DoSepK=F KAlg= 0 I1Cent=           0 FoldK=F
 IRaf= 890000000 NMat=       1 IRICut=       1 DoRegI=T DoRafI=F ISym2E= 0 IDoP0=0 IntGTp=1.
 FoFCou: FMM=F IPFlag=           0 FMFlag=      100000 FMFlg1=           0
         NFxFlg=           0 DoJE=F BraDBF=F KetDBF=F FulRan=T
         wScrn=  0.000000 ICntrl=         0 IOpCl=  0 I1Cent=           0 NGrid=           0
         NMat0=    1 NMatS0=      1 NMatT0=    0 NMatD0=    1 NMtDS0=    0 NMtDT0=    0
 Symmetry not used in FoFCou.
 E= -874.572593082675    
 DIIS: error= 3.99D-03 at cycle   1 NSaved=   1.
 NSaved= 1 IEnMin= 1 EnMin= -874.572593082675     IErMin= 1 ErrMin= 3.99D-03
 ErrMax= 3.99D-03  0.00D+00 EMaxC= 1.00D-01 BMatC= 7.87D-03 BMatP= 7.87D-03
 IDIUse=3 WtCom= 9.60D-01 WtEn= 3.99D-02
 Coeff-Com:  0.100D+01
 Coeff-En:   0.100D+01
 Coeff:      0.100D+01
 Gap=     1.615 Goal=   None    Shift=    0.000
 GapD=    1.615 DampG=2.000 DampE=1.000 DampFc=2.0000 IDamp=-1.
 RMSDP=9.39D-04 MaxDP=1.94D-02              OVMax= 3.12D-02

 Cycle   2  Pass 0  IDiag  1:
 RMSU=  9.39D-04    CP:  9.99D-01
 E= -874.588837873137     Delta-E=       -0.016244790462 Rises=F Damp=F
 DIIS: error= 6.02D-04 at cycle   2 NSaved=   2.
 NSaved= 2 IEnMin= 2 EnMin= -874.588837873137     IErMin= 2 ErrMin= 6.02D-04
 ErrMax= 6.02D-04  0.00D+00 EMaxC= 1.00D-01 BMatC= 1.25D-04 BMatP= 7.87D-03
 IDIUse=3 WtCom= 9.94D-01 WtEn= 6.02D-03
 Coeff-Com: -0.760D-01 0.108D+01
 Coeff-En:   0.000D+00 0.100D+01
 Coeff:     -0.755D-01 0.108D+01
 Gap=     0.226 Goal=   None    Shift=    0.000
 RMSDP=1.42D-04 MaxDP=2.15D-03 DE=-1.62D-02 OVMax= 5.51D-03

 Cycle   3  Pass 0  IDiag  1:
 RMSU=  1.16D-04    CP:  9.99D-01  1.09D+00
 E= -874.589031011068     Delta-E=       -0.000193137931 Rises=F Damp=F
 DIIS: error= 3.18D-04 at cycle   3 NSaved=   3.
 NSaved= 3 IEnMin= 3 EnMin= -874.589031011068     IErMin= 3 ErrMin= 3.18D-04
 ErrMax= 3.18D-04  0.00D+00 EMaxC= 1.00D-01 BMatC= 4.92D-05 BMatP= 1.25D-04
 IDIUse=3 WtCom= 9.97D-01 WtEn= 3.18D-03
 Coeff-Com: -0.371D-01 0.452D+00 0.585D+00
 Coeff-En:   0.000D+00 0.000D+00 0.100D+01
 Coeff:     -0.369D-01 0.450D+00 0.587D+00
 Gap=     0.226 Goal=   None    Shift=    0.000
 RMSDP=5.32D-05 MaxDP=1.41D-03 DE=-1.93D-04 OVMax= 1.97D-03

 Cycle   4  Pass 0  IDiag  1:
 RMSU=  4.25D-05    CP:  9.99D-01  1.10D+00  7.44D-01
 E= -874.589060099527     Delta-E=       -0.000029088459 Rises=F Damp=F
 DIIS: error= 1.94D-04 at cycle   4 NSaved=   4.
 NSaved= 4 IEnMin= 4 EnMin= -874.589060099527     IErMin= 4 ErrMin= 1.94D-04
 ErrMax= 1.94D-04  0.00D+00 EMaxC= 1.00D-01 BMatC= 1.77D-05 BMatP= 4.92D-05
 IDIUse=3 WtCom= 9.98D-01 WtEn= 1.94D-03
 Coeff-Com: -0.128D-01 0.147D+00 0.379D+00 0.487D+00
 Coeff-En:   0.000D+00 0.000D+00 0.245D+00 0.755D+00
 Coeff:     -0.128D-01 0.146D+00 0.379D+00 0.487D+00
 Gap=     0.226 Goal=   None    Shift=    0.000
 RMSDP=2.25D-05 MaxDP=7.24D-04 DE=-2.91D-05 OVMax= 1.24D-03

 Cycle   5  Pass 0  IDiag  1:
 RMSU=  1.59D-05    CP:  9.99D-01  1.10D+00  7.94D-01  6.58D-01
 E= -874.589073255904     Delta-E=       -0.000013156377 Rises=F Damp=F
 DIIS: error= 6.78D-05 at cycle   5 NSaved=   5.
 NSaved= 5 IEnMin= 5 EnMin= -874.589073255904     IErMin= 5 ErrMin= 6.78D-05
 ErrMax= 6.78D-05  0.00D+00 EMaxC= 1.00D-01 BMatC= 1.20D-06 BMatP= 1.77D-05
 IDIUse=1 WtCom= 1.00D+00 WtEn= 0.00D+00
 Coeff-Com: -0.330D-02 0.320D-01 0.149D+00 0.268D+00 0.554D+00
 Coeff:     -0.330D-02 0.320D-01 0.149D+00 0.268D+00 0.554D+00
 Gap=     0.226 Goal=   None    Shift=    0.000
 RMSDP=7.64D-06 MaxDP=2.01D-04 DE=-1.32D-05 OVMax= 4.29D-04

 Initial convergence to 1.0D-05 achieved.  Increase integral accuracy.
 Cycle   6  Pass 1  IDiag  1:
 E= -874.589076336374     Delta-E=       -0.000003080470 Rises=F Damp=F
 DIIS: error= 3.10D-05 at cycle   1 NSaved=   1.
 NSaved= 1 IEnMin= 1 EnMin= -874.589076336374     IErMin= 1 ErrMin= 3.10D-05
 ErrMax= 3.10D-05  0.00D+00 EMaxC= 1.00D-01 BMatC= 2.88D-07 BMatP= 2.88D-07
 IDIUse=1 WtCom= 1.00D+00 WtEn= 0.00D+00
 Coeff-Com:  0.100D+01
 Coeff:      0.100D+01
 Gap=     0.226 Goal=   None    Shift=    0.000
 RMSDP=7.64D-06 MaxDP=2.01D-04 DE=-3.08D-06 OVMax= 3.84D-04

 Cycle   7  Pass 1  IDiag  1:
 RMSU=  8.49D-06    CP:  1.00D+00
 E= -874.589075819656     Delta-E=        0.000000516719 Rises=F Damp=F
 DIIS: error= 6.38D-05 at cycle   2 NSaved=   2.
 NSaved= 2 IEnMin= 1 EnMin= -874.589076336374     IErMin= 1 ErrMin= 3.10D-05
 ErrMax= 6.38D-05  0.00D+00 EMaxC= 1.00D-01 BMatC= 9.70D-07 BMatP= 2.88D-07
 IDIUse=1 WtCom= 1.00D+00 WtEn= 0.00D+00
 Coeff-Com:  0.652D+00 0.348D+00
 Coeff:      0.652D+00 0.348D+00
 Gap=     0.226 Goal=   None    Shift=    0.000
 RMSDP=4.90D-06 MaxDP=1.26D-04 DE= 5.17D-07 OVMax= 2.94D-04

 Cycle   8  Pass 1  IDiag  1:
 RMSU=  2.76D-06    CP:  1.00D+00  5.25D-01
 E= -874.589076581012     Delta-E=       -0.000000761357 Rises=F Damp=F
 DIIS: error= 6.22D-06 at cycle   3 NSaved=   3.
 NSaved= 3 IEnMin= 3 EnMin= -874.589076581012     IErMin= 3 ErrMin= 6.22D-06
 ErrMax= 6.22D-06  0.00D+00 EMaxC= 1.00D-01 BMatC= 1.57D-08 BMatP= 2.88D-07
 IDIUse=1 WtCom= 1.00D+00 WtEn= 0.00D+00
 Coeff-Com:  0.278D+00 0.176D+00 0.546D+00
 Coeff:      0.278D+00 0.176D+00 0.546D+00
 Gap=     0.226 Goal=   None    Shift=    0.000
 RMSDP=8.03D-07 MaxDP=2.61D-05 DE=-7.61D-07 OVMax= 4.14D-05

 Cycle   9  Pass 1  IDiag  1:
 RMSU=  7.28D-07    CP:  1.00D+00  5.48D-01  9.01D-01
 E= -874.589076590601     Delta-E=       -0.000000009588 Rises=F Damp=F
 DIIS: error= 2.84D-06 at cycle   4 NSaved=   4.
 NSaved= 4 IEnMin= 4 EnMin= -874.589076590601     IErMin= 4 ErrMin= 2.84D-06
 ErrMax= 2.84D-06  0.00D+00 EMaxC= 1.00D-01 BMatC= 3.69D-09 BMatP= 1.57D-08
 IDIUse=1 WtCom= 1.00D+00 WtEn= 0.00D+00
 Coeff-Com:  0.156D-01 0.261D-01 0.342D+00 0.616D+00
 Coeff:      0.156D-01 0.261D-01 0.342D+00 0.616D+00
 Gap=     0.226 Goal=   None    Shift=    0.000
 RMSDP=3.26D-07 MaxDP=8.55D-06 DE=-9.59D-09 OVMax= 1.21D-05

 Cycle  10  Pass 1  IDiag  1:
 RMSU=  2.18D-07    CP:  1.00D+00  5.53D-01  9.44D-01  7.18D-01
 E= -874.589076593598     Delta-E=       -0.000000002997 Rises=F Damp=F
 DIIS: error= 4.38D-07 at cycle   5 NSaved=   5.
 NSaved= 5 IEnMin= 5 EnMin= -874.589076593598     IErMin= 5 ErrMin= 4.38D-07
 ErrMax= 4.38D-07  0.00D+00 EMaxC= 1.00D-01 BMatC= 7.88D-11 BMatP= 3.69D-09
 IDIUse=1 WtCom= 1.00D+00 WtEn= 0.00D+00
 Coeff-Com: -0.119D-01-0.145D-02 0.915D-01 0.223D+00 0.699D+00
 Coeff:     -0.119D-01-0.145D-02 0.915D-01 0.223D+00 0.699D+00
 Gap=     0.226 Goal=   None    Shift=    0.000
 RMSDP=8.05D-08 MaxDP=1.36D-06 DE=-3.00D-09 OVMax= 2.89D-06

 Cycle  11  Pass 1  IDiag  1:
 RMSU=  6.97D-08    CP:  1.00D+00  5.54D-01  9.51D-01  7.51D-01  8.96D-01
 E= -874.589076593682     Delta-E=       -0.000000000084 Rises=F Damp=F
 DIIS: error= 1.72D-07 at cycle   6 NSaved=   6.
 NSaved= 6 IEnMin= 6 EnMin= -874.589076593682     IErMin= 6 ErrMin= 1.72D-07
 ErrMax= 1.72D-07  0.00D+00 EMaxC= 1.00D-01 BMatC= 1.08D-11 BMatP= 7.88D-11
 IDIUse=1 WtCom= 1.00D+00 WtEn= 0.00D+00
 Coeff-Com: -0.688D-02-0.270D-02 0.168D-01 0.564D-01 0.313D+00 0.623D+00
 Coeff:     -0.688D-02-0.270D-02 0.168D-01 0.564D-01 0.313D+00 0.623D+00
 Gap=     0.226 Goal=   None    Shift=    0.000
 RMSDP=2.81D-08 MaxDP=5.72D-07 DE=-8.39D-11 OVMax= 1.06D-06

 Cycle  12  Pass 1  IDiag  1:
 RMSU=  2.38D-08    CP:  1.00D+00  5.55D-01  9.54D-01  7.48D-01  9.44D-01
                    CP:  9.38D-01
 E= -874.589076593703     Delta-E=       -0.000000000021 Rises=F Damp=F
 DIIS: error= 4.59D-08 at cycle   7 NSaved=   7.
 NSaved= 7 IEnMin= 7 EnMin= -874.589076593703     IErMin= 7 ErrMin= 4.59D-08
 ErrMax= 4.59D-08  0.00D+00 EMaxC= 1.00D-01 BMatC= 1.48D-12 BMatP= 1.08D-11
 IDIUse=1 WtCom= 1.00D+00 WtEn= 0.00D+00
 Coeff-Com: -0.730D-03-0.826D-03-0.882D-02-0.157D-01 0.158D-02 0.275D+00
 Coeff-Com:  0.749D+00
 Coeff:     -0.730D-03-0.826D-03-0.882D-02-0.157D-01 0.158D-02 0.275D+00
 Coeff:      0.749D+00
 Gap=     0.226 Goal=   None    Shift=    0.000
 RMSDP=1.07D-08 MaxDP=2.50D-07 DE=-2.14D-11 OVMax= 6.11D-07

 Cycle  13  Pass 1  IDiag  1:
 RMSU=  5.42D-09    CP:  1.00D+00  5.55D-01  9.54D-01  7.53D-01  9.67D-01
                    CP:  1.02D+00  8.56D-01
 E= -874.589076593705     Delta-E=       -0.000000000002 Rises=F Damp=F
 DIIS: error= 2.36D-08 at cycle   8 NSaved=   8.
 NSaved= 8 IEnMin= 8 EnMin= -874.589076593705     IErMin= 8 ErrMin= 2.36D-08
 ErrMax= 2.36D-08  0.00D+00 EMaxC= 1.00D-01 BMatC= 2.91D-13 BMatP= 1.48D-12
 IDIUse=1 WtCom= 1.00D+00 WtEn= 0.00D+00
 Coeff-Com:  0.753D-04-0.279D-03-0.624D-02-0.129D-01-0.213D-01 0.115D+00
 Coeff-Com:  0.433D+00 0.493D+00
 Coeff:      0.753D-04-0.279D-03-0.624D-02-0.129D-01-0.213D-01 0.115D+00
 Coeff:      0.433D+00 0.493D+00
 Gap=     0.226 Goal=   None    Shift=    0.000
 RMSDP=3.36D-09 MaxDP=8.97D-08 DE=-1.82D-12 OVMax= 1.76D-07

 SCF Done:  E(RB3LYP) =  -874.589076594     A.U. after   13 cycles
            NFock= 13  Conv=0.34D-08     -V/T= 2.0064
 KE= 8.690204554235D+02 PE=-3.280514933580D+03 EE= 9.265219666334D+02
 Leave Link  502 at Fri Mar 14 14:25:30 2025, MaxMem=  8589934592 cpu:              73.9 elap:               9.0
 (Enter /home/enzo/gaussian_versions/gdv.j21/gdv/l701.exe)
 ... and contract with generalized density number  0.
 Compute integral first derivatives.
 Leave Link  701 at Fri Mar 14 14:25:30 2025, MaxMem=  8589934592 cpu:               2.5 elap:               0.6
 (Enter /home/enzo/gaussian_versions/gdv.j21/gdv/l702.exe)
 L702 exits ... SP integral derivatives will be done elsewhere.
 Leave Link  702 at Fri Mar 14 14:25:31 2025, MaxMem=  8589934592 cpu:               0.2 elap:               0.3
 (Enter /home/enzo/gaussian_versions/gdv.j21/gdv/l703.exe)
 Integral derivatives from FoFJK, PRISM(SPDF).
 Compute integral first derivatives, UseDBF=F ICtDFT=           0.
 Calling FoFJK, ICntrl=      2127 FMM=F ISym2X=0 I1Cent= 0 IOpClX= 0 NMat=1 NMatS=1 NMatT=0.
 FoFJK:  IHMeth= 1 ICntrl=    2127 DoSepK=F KAlg= 0 I1Cent=           0 FoldK=F
 IRaf=         0 NMat=       1 IRICut=       1 DoRegI=T DoRafI=F ISym2E= 0 IDoP0=0 IntGTp=1.
 FoFCou: FMM=F IPFlag=           0 FMFlag=      100000 FMFlg1=         800
         NFxFlg=           0 DoJE=F BraDBF=F KetDBF=F FulRan=T
         wScrn=  0.000000 ICntrl=      2127 IOpCl=  0 I1Cent=           0 NGrid=           0
         NMat0=    1 NMatS0=      1 NMatT0=    0 NMatD0=    1 NMtDS0=    0 NMtDT0=    0
 Symmetry not used in FoFCou.
 Leave Link  703 at Fri Mar 14 14:25:33 2025, MaxMem=  8589934592 cpu:              14.1 elap:               2.0
 (Enter /home/enzo/gaussian_versions/gdv.j21/gdv/l716.exe)
 Dipole        =-9.60472767D-01 6.73385687D-02 4.38170759D-01
 ***** Axes restored to original set *****
 -------------------------------------------------------------------
 Center     Atomic                   Forces (Hartrees/Bohr)
 Number     Number              X              Y              Z
 -------------------------------------------------------------------
      1        6          -0.000177298    0.000161472   -0.000336028
      2        6           0.000640290   -0.000115884    0.000060578
      3       16           0.000106594   -0.000189885   -0.000217236
      4        6          -0.000985753   -0.000263084    0.000252978
      5        8          -0.000095188    0.000201684    0.000295140
      6        7          -0.000354819    0.000361907   -0.000466373
      7        6           0.001363675   -0.000194432    0.000157576
      8        6           0.000888052   -0.000458565   -0.000739911
      9        8          -0.000391006   -0.000018309    0.000407613
     10        8          -0.000573114    0.000325991    0.000157853
     11        1           0.000023764    0.000003355    0.000009256
     12        1          -0.000006660    0.000078503    0.000067046
     13        1           0.000028412   -0.000034983    0.000145117
     14        1          -0.000167521   -0.000035938   -0.000077253
     15        1          -0.000026706    0.000069333    0.000005150
     16        1           0.000059363    0.000287527    0.000255140
     17        1          -0.000196372   -0.000005571   -0.000003876
     18        1          -0.000086252   -0.000199449    0.000028550
     19        1          -0.000049460    0.000026327   -0.000001321
 -------------------------------------------------------------------
 Cartesian Forces:  Max     0.001363675 RMS     0.000349744
 Leave Link  716 at Fri Mar 14 14:25:33 2025, MaxMem=  8589934592 cpu:               0.1 elap:               0.3
 (Enter /home/enzo/gaussian_versions/gdv.j21/gdv/l103.exe)

 GradGradGradGradGradGradGradGradGradGradGradGradGradGradGradGradGradGrad
 Berny optimization.
 Using GEDIIS/GDIIS optimizer.
 FormGI is forming the generalized inverse of G from B-inverse, IUseBI=4.
 Internal  Forces:  Max     0.001043907 RMS     0.000225163
 Search for a local minimum.
 Step number  14 out of a maximum of   93
 All quantities printed in internal units (Hartrees-Bohrs-Radians)
 RMS Force = .22516D-03 SwitMx=.10000D-02 MixMth= 2
 Mixed Optimization -- En-DIIS/RFO-DIIS
 Swapping is turned off.
 Update second derivatives using D2CorX and points   13   14
 DE= -1.83D-04 DEPred=-9.04D-05 R= 2.03D+00
 TightC=F SS=  1.41D+00  RLast= 4.28D-01 DXNew= 2.4000D+00 1.2844D+00
 Trust test= 2.03D+00 RLast= 4.28D-01 DXMaxT set to 1.43D+00
 ITU=  1  1  1  1  1  1  1  1  1  0  1  1  1  0
     Eigenvalues ---    0.00063   0.00215   0.00452   0.00530   0.00869
     Eigenvalues ---    0.00898   0.01354   0.02165   0.04209   0.04748
     Eigenvalues ---    0.04865   0.05203   0.05643   0.05739   0.05927
     Eigenvalues ---    0.06759   0.08123   0.09583   0.13348   0.15744
     Eigenvalues ---    0.15884   0.16012   0.16050   0.16076   0.17518
     Eigenvalues ---    0.18046   0.19541   0.21988   0.22135   0.22648
     Eigenvalues ---    0.23225   0.24675   0.25286   0.26643   0.27148
     Eigenvalues ---    0.30260   0.31546   0.32588   0.32597   0.32620
     Eigenvalues ---    0.32632   0.32647   0.32919   0.35022   0.38145
     Eigenvalues ---    0.40704   0.42133   0.45821   0.51950   0.78943
     Eigenvalues ---    0.80477
 En-DIIS/RFO-DIIS/Sim-DIIS IScMMF=       -3 using points:    14   13   12   11   10
 RFO step:  Lambda=-7.30307682D-05.
 NNeg= 0 NGDIIS= 5 SimSw=  2.50D-01 Rises=F DC= -1.83D-04 SmlDif=  1.00D-05
 NRisDI= 0 DoIntr=F SqrtH=F CThrHd= 10.0 CDAdj=  3.0
 RMS Error=  0.1989531053D-01 NUsed= 5 OKEnD=T EnDIS=F
 InvSVX:  RCond= 1.36D-05 Info=           0 Equed=N FErr=  1.03D-11 BErr=  5.48D-17
 DidBck=FF Rises=F RFO-DIIS coefs:    1.69152   -1.25668    0.99331   -0.47366    0.04551
 Iteration  1 RMS(Cart)=  0.04131522 RMS(Int)=  0.00059787
 Iteration  2 RMS(Cart)=  0.00128215 RMS(Int)=  0.00024562
 Iteration  3 RMS(Cart)=  0.00000057 RMS(Int)=  0.00024562
 Variable       Old X    -DE/DX   Delta X   Delta X   Delta X     New X
                                 (Linear)    (Quad)   (Total)
    R1        2.88598   0.00024   0.00087  -0.00005   0.00081   2.88679
    R2        2.06557  -0.00001   0.00039  -0.00028   0.00011   2.06568
    R3        2.07352   0.00001   0.00026  -0.00017   0.00009   2.07361
    R4        2.06576  -0.00007   0.00031  -0.00049  -0.00018   2.06557
    R5        3.50842  -0.00011  -0.00249   0.00112  -0.00137   3.50705
    R6        2.89774  -0.00048  -0.00204  -0.00057  -0.00261   2.89513
    R7        2.07091  -0.00013   0.00009  -0.00046  -0.00037   2.07054
    R8        2.55298  -0.00005   0.00043  -0.00054  -0.00011   2.55287
    R9        2.31869  -0.00034   0.00087  -0.00102  -0.00016   2.31853
   R10        2.56837   0.00050   0.00104   0.00046   0.00150   2.56987
   R11        2.72513   0.00104   0.00008   0.00317   0.00324   2.72837
   R12        1.91217   0.00038   0.00021   0.00106   0.00127   1.91344
   R13        2.86025  -0.00023  -0.00044  -0.00118  -0.00162   2.85863
   R14        2.07530   0.00004  -0.00086   0.00042  -0.00044   2.07486
   R15        2.07400  -0.00008   0.00076  -0.00041   0.00035   2.07435
   R16        2.29028   0.00029   0.00124  -0.00013   0.00111   2.29139
   R17        2.54769  -0.00073  -0.00250  -0.00017  -0.00267   2.54502
   R18        1.84429  -0.00003   0.00066  -0.00060   0.00006   1.84435
    A1        1.93129  -0.00001   0.00011  -0.00042  -0.00031   1.93098
    A2        1.92369   0.00001   0.00051  -0.00009   0.00041   1.92410
    A3        1.92180  -0.00016   0.00049  -0.00146  -0.00097   1.92084
    A4        1.89873  -0.00002  -0.00087   0.00040  -0.00047   1.89826
    A5        1.90713   0.00006  -0.00093   0.00093   0.00000   1.90713
    A6        1.88029   0.00012   0.00068   0.00070   0.00138   1.88166
    A7        1.96823   0.00002  -0.00091   0.00013  -0.00079   1.96744
    A8        1.93883   0.00023   0.00010   0.00058   0.00068   1.93951
    A9        1.92733  -0.00017  -0.00072  -0.00067  -0.00139   1.92593
   A10        1.89604  -0.00032   0.00011  -0.00266  -0.00256   1.89348
   A11        1.80469   0.00014   0.00350  -0.00056   0.00294   1.80763
   A12        1.92424   0.00009  -0.00191   0.00318   0.00127   1.92552
   A13        1.66253  -0.00004  -0.00343   0.00246  -0.00096   1.66157
   A14        2.12762  -0.00017  -0.00044   0.00012  -0.00034   2.12728
   A15        2.02041   0.00005   0.00130  -0.00031   0.00098   2.02139
   A16        2.13515   0.00013  -0.00080   0.00018  -0.00063   2.13452
   A17        2.10977   0.00057  -0.00277   0.00254  -0.00151   2.10826
   A18        2.13302  -0.00030  -0.00297  -0.00069  -0.00495   2.12806
   A19        2.03301  -0.00028  -0.00164  -0.00121  -0.00414   2.02887
   A20        1.90486  -0.00016   0.00121  -0.00258  -0.00137   1.90349
   A21        1.95315  -0.00006  -0.00304  -0.00004  -0.00309   1.95007
   A22        1.94245   0.00002  -0.00051   0.00295   0.00245   1.94490
   A23        1.90643   0.00006   0.00468  -0.00167   0.00300   1.90943
   A24        1.90503   0.00022  -0.00376   0.00336  -0.00040   1.90463
   A25        1.85078  -0.00007   0.00145  -0.00192  -0.00047   1.85032
   A26        2.18198  -0.00043  -0.00119  -0.00165  -0.00285   2.17913
   A27        1.94363   0.00020   0.00283  -0.00073   0.00208   1.94570
   A28        2.15758   0.00023  -0.00160   0.00239   0.00077   2.15835
   A29        1.86180  -0.00009  -0.00257   0.00098  -0.00158   1.86022
    D1        0.94666   0.00009   0.00098  -0.00071   0.00027   0.94692
    D2        3.07994  -0.00014   0.00052  -0.00366  -0.00313   3.07680
    D3       -1.06262   0.00002  -0.00235   0.00034  -0.00201  -1.06464
    D4        3.04760   0.00007   0.00029  -0.00054  -0.00025   3.04734
    D5       -1.10231  -0.00016  -0.00016  -0.00349  -0.00365  -1.10596
    D6        1.03832  -0.00000  -0.00304   0.00051  -0.00253   1.03578
    D7       -1.16355   0.00013   0.00175  -0.00065   0.00110  -1.16245
    D8        0.96973  -0.00011   0.00129  -0.00359  -0.00230   0.96743
    D9        3.11035   0.00005  -0.00158   0.00040  -0.00118   3.10917
   D10        1.18451   0.00001  -0.00322  -0.00567  -0.00888   1.17562
   D11       -0.97266  -0.00006  -0.00279  -0.00456  -0.00736  -0.98001
   D12       -3.01678  -0.00009  -0.00240  -0.00675  -0.00915  -3.02593
   D13       -0.73460  -0.00007  -0.00621  -0.00668  -0.01290  -0.74749
   D14        2.41045  -0.00011  -0.01325  -0.00385  -0.01709   2.39335
   D15        1.44005  -0.00012  -0.00723  -0.00800  -0.01523   1.42482
   D16       -1.69809  -0.00016  -0.01427  -0.00517  -0.01943  -1.71752
   D17       -2.87700  -0.00008  -0.00403  -0.00845  -0.01248  -2.88948
   D18        0.26804  -0.00012  -0.01107  -0.00561  -0.01668   0.25137
   D19        3.07844  -0.00006  -0.02077  -0.01103  -0.03174   3.04670
   D20        0.07181   0.00000   0.06042  -0.01677   0.04361   0.11542
   D21       -0.05968  -0.00011  -0.02782  -0.00818  -0.03596  -0.09564
   D22       -3.06631  -0.00004   0.05337  -0.01392   0.03939  -3.02692
   D23       -3.11699   0.00020   0.08426   0.00836   0.09259  -3.02441
   D24       -1.00479   0.00013   0.08900   0.00449   0.09344  -0.91135
   D25        1.06258   0.00002   0.08849   0.00401   0.09244   1.15503
   D26       -0.10293   0.00013   0.00740   0.01381   0.02126  -0.08167
   D27        2.00927   0.00007   0.01214   0.00993   0.02211   2.03138
   D28       -2.20654  -0.00005   0.01163   0.00945   0.02112  -2.18543
   D29       -0.00011   0.00014  -0.00127   0.01172   0.01045   0.01034
   D30       -3.14012  -0.00005   0.00043   0.00721   0.00765  -3.13247
   D31       -2.14057   0.00027  -0.00124   0.01448   0.01323  -2.12734
   D32        1.00261   0.00008   0.00046   0.00997   0.01043   1.01304
   D33        2.12627   0.00021  -0.00346   0.01583   0.01236   2.13863
   D34       -1.01374   0.00001  -0.00176   0.01132   0.00956  -1.00418
   D35       -3.14030   0.00009  -0.01564   0.01407  -0.00156   3.14132
   D36        0.00285  -0.00010  -0.01394   0.00964  -0.00431  -0.00147
         Item               Value     Threshold  Converged?
 Maximum Force            0.001044     0.000450     NO 
 RMS     Force            0.000225     0.000300     YES
 Maximum Displacement     0.107282     0.001800     NO 
 RMS     Displacement     0.041357     0.001200     NO 
 Predicted change in Energy=-3.705460D-05
 Lowest energy point so far.  Saving SCF results.
 GradGradGradGradGradGradGradGradGradGradGradGradGradGradGradGradGradGrad

 Leave Link  103 at Fri Mar 14 14:25:33 2025, MaxMem=  8589934592 cpu:               0.9 elap:               0.3
 (Enter /home/enzo/gaussian_versions/gdv.j21/gdv/l202.exe)
                          Input orientation:                          
 ---------------------------------------------------------------------
 Center     Atomic      Atomic             Coordinates (Angstroms)
 Number     Number       Type             X           Y           Z
 ---------------------------------------------------------------------
      1          6           0       -2.529495    1.477791   -1.012555
      2          6           0       -1.666585    0.900712    0.108160
      3         16           0       -2.636002   -0.151983    1.289790
      4          6           0       -0.515415    0.062605   -0.457100
      5          8           0       -0.679853   -0.720767   -1.386942
      6          7           0        0.695219    0.243209    0.135455
      7          6           0        1.827360   -0.573885   -0.232181
      8          6           0        2.981313   -0.265613    0.696092
      9          8           0        2.943522    0.534067    1.606784
     10          8           0        4.070449   -0.995541    0.388244
     11          1           0       -3.385020    2.019070   -0.600266
     12          1           0       -1.939452    2.167403   -1.629292
     13          1           0       -2.889179    0.674196   -1.660344
     14          1           0       -1.276375    1.705294    0.741327
     15          1           0       -2.894053   -1.132419    0.396963
     16          1           0        0.806224    0.815828    0.963127
     17          1           0        1.590887   -1.644663   -0.177003
     18          1           0        2.138620   -0.385452   -1.267823
     19          1           0        4.764916   -0.741976    1.025400
 ---------------------------------------------------------------------
                    Distance matrix (angstroms):
                    1          2          3          4          5
     1  C    0.000000
     2  C    1.527624   0.000000
     3  S    2.822818   1.855852   0.000000
     4  C    2.523450   1.532036   2.755824   0.000000
     5  O    2.897412   2.416229   3.363767   1.226914   0.000000
     6  N    3.638805   2.451770   3.547634   1.359917   2.266664
     7  C    4.878580   3.807613   4.734553   2.438094   2.764266
     8  C    6.027266   4.827933   5.649745   3.696578   4.236784
     9  O    6.140477   4.861418   5.630474   4.055384   4.864756
    10  O    7.186019   6.048784   6.819154   4.781676   5.078598
    11  H    1.093110   2.169242   2.974359   3.476044   3.929821
    12  H    1.097306   2.167418   3.792859   2.798587   3.160198
    13  H    1.093054   2.161862   3.074079   2.730676   2.627125
    14  H    2.167526   1.095681   2.366195   2.171108   3.281941
    15  H    2.988785   2.392426   1.350920   2.795608   2.873057
    16  H    3.933006   2.617816   3.590583   2.081134   3.176850
    17  H    5.236927   4.143836   4.716584   2.725752   2.733825
    18  H    5.032707   4.245837   5.421523   2.811037   2.840848
    19  H    7.892342   6.701042   7.429104   5.543199   5.955280
                    6          7          8          9         10
     6  N    0.000000
     7  C    1.443794   0.000000
     8  C    2.408202   1.512723   0.000000
     9  O    2.702642   2.419745   1.212549   0.000000
    10  O    3.604244   2.365200   1.346767   2.257101   0.000000
    11  H    4.510357   5.833336   6.886982   6.864892   8.102410
    12  H    3.709224   4.863687   5.961619   6.081398   7.084742
    13  H    4.032189   5.083610   6.395210   6.686864   7.444538
    14  H    2.528232   3.971843   4.691953   4.464114   6.000641
    15  H    3.852741   4.795781   5.946491   6.190163   6.965852
    16  H    1.012549   2.098280   2.443734   2.249828   3.777130
    17  H    2.112797   1.097966   2.144146   3.123841   2.624708
    18  H    2.108983   1.097700   2.140433   3.123579   2.616625
    19  H    4.280774   3.199844   1.875261   2.298645   0.975986
                   11         12         13         14         15
    11  H    0.000000
    12  H    1.780608   0.000000
    13  H    1.782782   1.769919   0.000000
    14  H    2.518871   2.504605   3.071209   0.000000
    15  H    3.341765   3.988207   2.737954   3.284522   0.000000
    16  H    4.632333   4.010751   4.534166   2.275425   4.219983
    17  H    6.193685   5.394839   5.258174   4.504079   4.550441
    18  H    6.061185   4.824770   5.153221   4.479965   5.353249
    19  H    8.757147   7.775631   8.234314   6.524341   7.694621
                   16         17         18         19
    16  H    0.000000
    17  H    2.823049   0.000000
    18  H    2.862777   1.753714   0.000000
    19  H    4.254630   3.512134   3.504770   0.000000
 Stoichiometry    C5H9NO3S
 Framework group  C1[X(C5H9NO3S)]
 Deg. of freedom    51
 Full point group                 C1      NOp   1
 RotChk:  IX=3 Diff= 1.24D-02
 Largest Abelian subgroup         C1      NOp   1
 Largest concise Abelian subgroup C1      NOp   1
                         Standard orientation:                         
 ---------------------------------------------------------------------
 Center     Atomic      Atomic             Coordinates (Angstroms)
 Number     Number       Type             X           Y           Z
 ---------------------------------------------------------------------
      1          6           0        2.933654   -0.961612    1.060665
      2          6           0        1.902946    0.064890    0.594220
      3         16           0        2.603653    1.285969   -0.614978
      4          6           0        0.694717   -0.620285   -0.052195
      5          8           0        0.822404   -1.559234   -0.831547
      6          7           0       -0.522999   -0.122982    0.293103
      7          6           0       -1.726362   -0.609047   -0.339509
      8          6           0       -2.898409    0.231563    0.116572
      9          8           0       -2.822759    1.168515    0.882520
     10          8           0       -4.051814   -0.188519   -0.437476
     11          1           0        3.820365   -0.462900    1.460564
     12          1           0        2.505496   -1.601126    1.842830
     13          1           0        3.226633   -1.604324    0.226487
     14          1           0        1.581277    0.690574    1.434200
     15          1           0        2.791714    0.384957   -1.603813
     16          1           0       -0.619966    0.711520    0.858310
     17          1           0       -1.654053   -0.570543   -1.434415
     18          1           0       -1.916846   -1.659790   -0.085344
     19          1           0       -4.753991    0.397849   -0.097372
 ---------------------------------------------------------------------
 Rotational constants (GHZ):           2.3285821           0.4794144           0.4484066
 Leave Link  202 at Fri Mar 14 14:25:34 2025, MaxMem=  8589934592 cpu:               0.4 elap:               0.2
 (Enter /home/enzo/gaussian_versions/gdv.j21/gdv/l301.exe)
 Standard basis: 6-31G(d) (6D, 7F)
 Ernie: Thresh=  0.10000D-02 Tol=  0.10000D-05 Strict=F.
 There are   172 symmetry adapted cartesian basis functions of A   symmetry.
 There are   172 symmetry adapted basis functions of A   symmetry.
   172 basis functions,   340 primitive gaussians,   172 cartesian basis functions
    43 alpha electrons       43 beta electrons
       nuclear repulsion energy       610.8484281712 Hartrees.
 IExCor=      4002 DFT=T Ex+Corr=B3LYP ScaHFX=  0.200000
 ScaDFX=  0.800000  0.720000  1.000000  0.810000  1.000000  0.000000
 ScaDFX=  0.000000  0.000000  0.000000  0.000000  0.000000  0.000000
 IRadAn=      5 IRanWt=     -1 IRanGd=            0 ICorTp=0 IEmpDi=  4
 NAtoms=   19 NActive=   19 NUniq=   19 SFac= 1.00D+00 NAtFMM=   60 NAOKFM=F Big=F
 Integral buffers will be    131072 words long.
 Raffenetti 2 integral format.
 Two-electron integral symmetry is turned on.
 Leave Link  301 at Fri Mar 14 14:25:34 2025, MaxMem=  8589934592 cpu:               0.4 elap:               0.2
 (Enter /home/enzo/gaussian_versions/gdv.j21/gdv/l302.exe)
 NPDir=0 NMtPBC=     1 NCelOv=     1 NCel=       1 NClECP=     1 NCelD=      1
         NCelK=      1 NCelE2=     1 NClLst=     1 CellRange=     0.0.
 One-electron integrals computed using PRISM.
 One-electron integral symmetry used in STVInt
 NBasis=   172 RedAO= T EigKep=  2.55D-03  NBF=   172
 NBsUse=   172 1.00D-06 EigRej= -1.00D+00 NBFU=   172
 Precomputing XC quadrature grid using
 IXCGrd= 4 IRadAn=           5 IRanWt=          -1 IRanGd=           0 AccXCQ= 0.00D+00.
 Generated NRdTot=       0 NPtTot=      408642 NUsed=           0 NTot=          64
 NSgBfM=   171   171   171   171   171 MxSgAt=    19 MxSgA2=    19 SizInc=   0.000
 NMBTot=     3518 MaxBatPerAtom=       85 MaxMicBPerAtom=      206 NBfPt=            50015311.
 Leave Link  302 at Fri Mar 14 14:25:35 2025, MaxMem=  8589934592 cpu:               6.5 elap:               1.1
 (Enter /home/enzo/gaussian_versions/gdv.j21/gdv/l303.exe)
 DipDrv:  MaxL=1.
 Leave Link  303 at Fri Mar 14 14:25:35 2025, MaxMem=  8589934592 cpu:               0.3 elap:               0.2
 (Enter /home/enzo/gaussian_versions/gdv.j21/gdv/l401.exe)
 Initial guess from the checkpoint file:  "/local/home/enzo/scratch/Gau-2270961.chk"
 B after Tr=     0.000000    0.000000    0.000000
         Rot=    0.999993   -0.003116   -0.001439   -0.001599 Ang=  -0.43 deg.
 AO Guess basis will be translated and rotated to current coordinates.
 JPrj=2 DoOrth=T DoCkMO=T.
 Generating alternative initial guess.
 ExpMin= 1.17D-01 ExpMax= 2.19D+04 ExpMxC= 3.30D+03 IAcc=3 IRadAn=         5 AccDes= 0.00D+00
 Harris functional with IExCor= 4002 and IRadAn=       5 diagonalized for initial guess.
 HarFok:  IExCor=    4002 AccDes= 0.00D+00 IRadAn=         5 IDoV= 1 UseB2=F ITyADJ=14 ICtDFT=  3500011
 FoFCou: FMM=F IPFlag=           0 FMFlag=      100000 FMFlg1=           0
         NFxFlg=           0 DoJE=T BraDBF=F KetDBF=T FulRan=T
         wScrn=  0.000000 ICntrl=       500 IOpCl=  0 I1Cent=   200000004 NGrid=           0
         NMat0=    1 NMatS0=      1 NMatT0=    0 NMatD0=    1 NMtDS0=    0 NMtDT0=    0
 Petite list used in FoFCou.
 Harris En= -874.549864324108    
 Leave Link  401 at Fri Mar 14 14:25:36 2025, MaxMem=  8589934592 cpu:               6.0 elap:               0.9
 (Enter /home/enzo/gaussian_versions/gdv.j21/gdv/l502.exe)
 Integral symmetry usage will be decided dynamically.
 Closed shell SCF:
 Using DIIS extrapolation, IDIIS=  1040.
 NGot=  8589934592 LenX=  8589843591 LenY=  8589813566
 Requested convergence on RMS density matrix=1.00D-08 within 128 cycles.
 Requested convergence on MAX density matrix=1.00D-06.
 Requested convergence on             energy=1.00D-06.
 No special actions if energy rises.
 Fock matrices will be formed incrementally for  20 cycles.
 Integral accuracy reduced to 1.0D-05 until final iterations.

 Cycle   1  Pass 0  IDiag  1:
 FoFJK:  IHMeth= 1 ICntrl=       0 DoSepK=F KAlg= 0 I1Cent=           0 FoldK=F
 IRaf= 890000000 NMat=       1 IRICut=       1 DoRegI=T DoRafI=F ISym2E= 0 IDoP0=0 IntGTp=1.
 FoFCou: FMM=F IPFlag=           0 FMFlag=      100000 FMFlg1=           0
         NFxFlg=           0 DoJE=F BraDBF=F KetDBF=F FulRan=T
         wScrn=  0.000000 ICntrl=         0 IOpCl=  0 I1Cent=           0 NGrid=           0
         NMat0=    1 NMatS0=      1 NMatT0=    0 NMatD0=    1 NMtDS0=    0 NMtDT0=    0
 Symmetry not used in FoFCou.
 E= -874.585838119308    
 DIIS: error= 1.88D-03 at cycle   1 NSaved=   1.
 NSaved= 1 IEnMin= 1 EnMin= -874.585838119308     IErMin= 1 ErrMin= 1.88D-03
 ErrMax= 1.88D-03  0.00D+00 EMaxC= 1.00D-01 BMatC= 1.61D-03 BMatP= 1.61D-03
 IDIUse=3 WtCom= 9.81D-01 WtEn= 1.88D-02
 Coeff-Com:  0.100D+01
 Coeff-En:   0.100D+01
 Coeff:      0.100D+01
 Gap=     1.614 Goal=   None    Shift=    0.000
 GapD=    1.614 DampG=2.000 DampE=1.000 DampFc=2.0000 IDamp=-1.
 RMSDP=4.20D-04 MaxDP=9.54D-03              OVMax= 1.59D-02

 Cycle   2  Pass 0  IDiag  1:
 RMSU=  4.20D-04    CP:  1.00D+00
 E= -874.589078852759     Delta-E=       -0.003240733451 Rises=F Damp=F
 DIIS: error= 2.49D-04 at cycle   2 NSaved=   2.
 NSaved= 2 IEnMin= 2 EnMin= -874.589078852759     IErMin= 2 ErrMin= 2.49D-04
 ErrMax= 2.49D-04  0.00D+00 EMaxC= 1.00D-01 BMatC= 2.79D-05 BMatP= 1.61D-03
 IDIUse=3 WtCom= 9.98D-01 WtEn= 2.49D-03
 Coeff-Com: -0.749D-01 0.107D+01
 Coeff-En:   0.000D+00 0.100D+01
 Coeff:     -0.748D-01 0.107D+01
 Gap=     0.226 Goal=   None    Shift=    0.000
 RMSDP=6.17D-05 MaxDP=1.04D-03 DE=-3.24D-03 OVMax= 2.18D-03

 Cycle   3  Pass 0  IDiag  1:
 RMSU=  5.12D-05    CP:  1.00D+00  1.08D+00
 E= -874.589117108639     Delta-E=       -0.000038255880 Rises=F Damp=F
 DIIS: error= 1.36D-04 at cycle   3 NSaved=   3.
 NSaved= 3 IEnMin= 3 EnMin= -874.589117108639     IErMin= 3 ErrMin= 1.36D-04
 ErrMax= 1.36D-04  0.00D+00 EMaxC= 1.00D-01 BMatC= 1.19D-05 BMatP= 2.79D-05
 IDIUse=3 WtCom= 9.99D-01 WtEn= 1.36D-03
 Coeff-Com: -0.378D-01 0.458D+00 0.580D+00
 Coeff-En:   0.000D+00 0.000D+00 0.100D+01
 Coeff:     -0.377D-01 0.457D+00 0.580D+00
 Gap=     0.226 Goal=   None    Shift=    0.000
 RMSDP=2.55D-05 MaxDP=8.11D-04 DE=-3.83D-05 OVMax= 9.51D-04

 Cycle   4  Pass 0  IDiag  1:
 RMSU=  2.03D-05    CP:  1.00D+00  1.09D+00  7.19D-01
 E= -874.589124631447     Delta-E=       -0.000007522809 Rises=F Damp=F
 DIIS: error= 9.38D-05 at cycle   4 NSaved=   4.
 NSaved= 4 IEnMin= 4 EnMin= -874.589124631447     IErMin= 4 ErrMin= 9.38D-05
 ErrMax= 9.38D-05  0.00D+00 EMaxC= 1.00D-01 BMatC= 3.56D-06 BMatP= 1.19D-05
 IDIUse=1 WtCom= 1.00D+00 WtEn= 0.00D+00
 Coeff-Com: -0.127D-01 0.146D+00 0.363D+00 0.504D+00
 Coeff:     -0.127D-01 0.146D+00 0.363D+00 0.504D+00
 Gap=     0.226 Goal=   None    Shift=    0.000
 RMSDP=1.07D-05 MaxDP=2.90D-04 DE=-7.52D-06 OVMax= 5.86D-04

 Cycle   5  Pass 0  IDiag  1:
 RMSU=  6.92D-06    CP:  1.00D+00  1.10D+00  7.77D-01  6.30D-01
 E= -874.589127515244     Delta-E=       -0.000002883796 Rises=F Damp=F
 DIIS: error= 3.73D-05 at cycle   5 NSaved=   5.
 NSaved= 5 IEnMin= 5 EnMin= -874.589127515244     IErMin= 5 ErrMin= 3.73D-05
 ErrMax= 3.73D-05  0.00D+00 EMaxC= 1.00D-01 BMatC= 2.53D-07 BMatP= 3.56D-06
 IDIUse=1 WtCom= 1.00D+00 WtEn= 0.00D+00
 Coeff-Com: -0.368D-02 0.372D-01 0.148D+00 0.278D+00 0.541D+00
 Coeff:     -0.368D-02 0.372D-01 0.148D+00 0.278D+00 0.541D+00
 Gap=     0.226 Goal=   None    Shift=    0.000
 RMSDP=3.45D-06 MaxDP=1.22D-04 DE=-2.88D-06 OVMax= 2.33D-04

 Initial convergence to 1.0D-05 achieved.  Increase integral accuracy.
 Cycle   6  Pass 1  IDiag  1:
 E= -874.589123968707     Delta-E=        0.000003546537 Rises=F Damp=F
 DIIS: error= 1.73D-05 at cycle   1 NSaved=   1.
 NSaved= 1 IEnMin= 1 EnMin= -874.589123968707     IErMin= 1 ErrMin= 1.73D-05
 ErrMax= 1.73D-05  0.00D+00 EMaxC= 1.00D-01 BMatC= 9.05D-08 BMatP= 9.05D-08
 IDIUse=1 WtCom= 1.00D+00 WtEn= 0.00D+00
 Coeff-Com:  0.100D+01
 Coeff:      0.100D+01
 Gap=     0.226 Goal=   None    Shift=    0.000
 RMSDP=3.45D-06 MaxDP=1.22D-04 DE= 3.55D-06 OVMax= 2.29D-04

 Cycle   7  Pass 1  IDiag  1:
 RMSU=  5.72D-06    CP:  1.00D+00
 E= -874.589123817171     Delta-E=        0.000000151536 Rises=F Damp=F
 DIIS: error= 3.70D-05 at cycle   2 NSaved=   2.
 NSaved= 2 IEnMin= 1 EnMin= -874.589123968707     IErMin= 1 ErrMin= 1.73D-05
 ErrMax= 3.70D-05  0.00D+00 EMaxC= 1.00D-01 BMatC= 2.97D-07 BMatP= 9.05D-08
 IDIUse=1 WtCom= 1.00D+00 WtEn= 0.00D+00
 Coeff-Com:  0.654D+00 0.346D+00
 Coeff:      0.654D+00 0.346D+00
 Gap=     0.226 Goal=   None    Shift=    0.000
 RMSDP=2.68D-06 MaxDP=8.69D-05 DE= 1.52D-07 OVMax= 1.79D-04

 Cycle   8  Pass 1  IDiag  1:
 RMSU=  2.08D-06    CP:  1.00D+00  7.02D-01
 E= -874.589124041889     Delta-E=       -0.000000224718 Rises=F Damp=F
 DIIS: error= 4.52D-06 at cycle   3 NSaved=   3.
 NSaved= 3 IEnMin= 3 EnMin= -874.589124041889     IErMin= 3 ErrMin= 4.52D-06
 ErrMax= 4.52D-06  0.00D+00 EMaxC= 1.00D-01 BMatC= 5.04D-09 BMatP= 9.05D-08
 IDIUse=1 WtCom= 1.00D+00 WtEn= 0.00D+00
 Coeff-Com:  0.149D+00 0.140D+00 0.712D+00
 Coeff:      0.149D+00 0.140D+00 0.712D+00
 Gap=     0.226 Goal=   None    Shift=    0.000
 RMSDP=5.62D-07 MaxDP=1.60D-05 DE=-2.25D-07 OVMax= 2.84D-05

 Cycle   9  Pass 1  IDiag  1:
 RMSU=  4.94D-07    CP:  1.00D+00  7.27D-01  8.91D-01
 E= -874.589124043796     Delta-E=       -0.000000001907 Rises=F Damp=F
 DIIS: error= 2.46D-06 at cycle   4 NSaved=   4.
 NSaved= 4 IEnMin= 4 EnMin= -874.589124043796     IErMin= 4 ErrMin= 2.46D-06
 ErrMax= 2.46D-06  0.00D+00 EMaxC= 1.00D-01 BMatC= 2.59D-09 BMatP= 5.04D-09
 IDIUse=1 WtCom= 1.00D+00 WtEn= 0.00D+00
 Coeff-Com:  0.732D-04 0.406D-01 0.479D+00 0.481D+00
 Coeff:      0.732D-04 0.406D-01 0.479D+00 0.481D+00
 Gap=     0.226 Goal=   None    Shift=    0.000
 RMSDP=2.66D-07 MaxDP=9.52D-06 DE=-1.91D-09 OVMax= 1.36D-05

 Cycle  10  Pass 1  IDiag  1:
 RMSU=  1.11D-07    CP:  1.00D+00  7.34D-01  9.24D-01  5.39D-01
 E= -874.589124045988     Delta-E=       -0.000000002192 Rises=F Damp=F
 DIIS: error= 2.37D-07 at cycle   5 NSaved=   5.
 NSaved= 5 IEnMin= 5 EnMin= -874.589124045988     IErMin= 5 ErrMin= 2.37D-07
 ErrMax= 2.37D-07  0.00D+00 EMaxC= 1.00D-01 BMatC= 2.09D-11 BMatP= 2.59D-09
 IDIUse=1 WtCom= 1.00D+00 WtEn= 0.00D+00
 Coeff-Com: -0.525D-02 0.106D-01 0.160D+00 0.181D+00 0.654D+00
 Coeff:     -0.525D-02 0.106D-01 0.160D+00 0.181D+00 0.654D+00
 Gap=     0.226 Goal=   None    Shift=    0.000
 RMSDP=4.16D-08 MaxDP=8.14D-07 DE=-2.19D-09 OVMax= 2.04D-06

 Cycle  11  Pass 1  IDiag  1:
 RMSU=  3.70D-08    CP:  1.00D+00  7.35D-01  9.26D-01  5.60D-01  8.67D-01
 E= -874.589124046008     Delta-E=       -0.000000000021 Rises=F Damp=F
 DIIS: error= 1.33D-07 at cycle   6 NSaved=   6.
 NSaved= 6 IEnMin= 6 EnMin= -874.589124046008     IErMin= 6 ErrMin= 1.33D-07
 ErrMax= 1.33D-07  0.00D+00 EMaxC= 1.00D-01 BMatC= 6.92D-12 BMatP= 2.09D-11
 IDIUse=1 WtCom= 1.00D+00 WtEn= 0.00D+00
 Coeff-Com: -0.329D-02 0.301D-02 0.574D-01 0.696D-01 0.391D+00 0.482D+00
 Coeff:     -0.329D-02 0.301D-02 0.574D-01 0.696D-01 0.391D+00 0.482D+00
 Gap=     0.226 Goal=   None    Shift=    0.000
 RMSDP=1.83D-08 MaxDP=5.39D-07 DE=-2.09D-11 OVMax= 1.09D-06

 Cycle  12  Pass 1  IDiag  1:
 RMSU=  1.57D-08    CP:  1.00D+00  7.35D-01  9.28D-01  5.54D-01  9.18D-01
                    CP:  8.41D-01
 E= -874.589124046008     Delta-E=        0.000000000001 Rises=F Damp=F
 DIIS: error= 5.67D-08 at cycle   7 NSaved=   7.
 NSaved= 7 IEnMin= 6 EnMin= -874.589124046008     IErMin= 7 ErrMin= 5.67D-08
 ErrMax= 5.67D-08  0.00D+00 EMaxC= 1.00D-01 BMatC= 1.02D-12 BMatP= 6.92D-12
 IDIUse=1 WtCom= 1.00D+00 WtEn= 0.00D+00
 Coeff-Com: -0.343D-03-0.134D-02-0.138D-01-0.137D-01 0.250D-01 0.286D+00
 Coeff-Com:  0.719D+00
 Coeff:     -0.343D-03-0.134D-02-0.138D-01-0.137D-01 0.250D-01 0.286D+00
 Coeff:      0.719D+00
 Gap=     0.226 Goal=   None    Shift=    0.000
 RMSDP=8.46D-09 MaxDP=2.04D-07 DE= 6.82D-13 OVMax= 5.00D-07

 SCF Done:  E(RB3LYP) =  -874.589124046     A.U. after   12 cycles
            NFock= 12  Conv=0.85D-08     -V/T= 2.0064
 KE= 8.690225870666D+02 PE=-3.281449994705D+03 EE= 9.269898554210D+02
 Leave Link  502 at Fri Mar 14 14:25:44 2025, MaxMem=  8589934592 cpu:              67.6 elap:               7.7
 (Enter /home/enzo/gaussian_versions/gdv.j21/gdv/l701.exe)
 ... and contract with generalized density number  0.
 Compute integral first derivatives.
 Leave Link  701 at Fri Mar 14 14:25:44 2025, MaxMem=  8589934592 cpu:               2.7 elap:               0.5
 (Enter /home/enzo/gaussian_versions/gdv.j21/gdv/l702.exe)
 L702 exits ... SP integral derivatives will be done elsewhere.
 Leave Link  702 at Fri Mar 14 14:25:45 2025, MaxMem=  8589934592 cpu:               0.3 elap:               0.3
 (Enter /home/enzo/gaussian_versions/gdv.j21/gdv/l703.exe)
 Integral derivatives from FoFJK, PRISM(SPDF).
 Compute integral first derivatives, UseDBF=F ICtDFT=           0.
 Calling FoFJK, ICntrl=      2127 FMM=F ISym2X=0 I1Cent= 0 IOpClX= 0 NMat=1 NMatS=1 NMatT=0.
 FoFJK:  IHMeth= 1 ICntrl=    2127 DoSepK=F KAlg= 0 I1Cent=           0 FoldK=F
 IRaf=         0 NMat=       1 IRICut=       1 DoRegI=T DoRafI=F ISym2E= 0 IDoP0=0 IntGTp=1.
 FoFCou: FMM=F IPFlag=           0 FMFlag=      100000 FMFlg1=         800
         NFxFlg=           0 DoJE=F BraDBF=F KetDBF=F FulRan=T
         wScrn=  0.000000 ICntrl=      2127 IOpCl=  0 I1Cent=           0 NGrid=           0
         NMat0=    1 NMatS0=      1 NMatT0=    0 NMatD0=    1 NMtDS0=    0 NMtDT0=    0
 Symmetry not used in FoFCou.
 Leave Link  703 at Fri Mar 14 14:25:47 2025, MaxMem=  8589934592 cpu:              16.2 elap:               2.1
 (Enter /home/enzo/gaussian_versions/gdv.j21/gdv/l716.exe)
 Dipole        =-9.53203114D-01 4.57819994D-02 4.51255877D-01
 ***** Axes restored to original set *****
 -------------------------------------------------------------------
 Center     Atomic                   Forces (Hartrees/Bohr)
 Number     Number              X              Y              Z
 -------------------------------------------------------------------
      1        6          -0.000127719    0.000158234   -0.000169262
      2        6           0.000260923    0.000276295   -0.000113623
      3       16          -0.000045753   -0.000136936    0.000055657
      4        6          -0.000076108   -0.000375147   -0.000352384
      5        8          -0.000224862    0.000033970    0.000247599
      6        7          -0.000324139   -0.000058448    0.000002070
      7        6           0.000482462    0.000358285   -0.000297877
      8        6          -0.000154308    0.000182706    0.000365405
      9        8           0.000128958   -0.000236255   -0.000126874
     10        8           0.000186072    0.000224595    0.000002486
     11        1           0.000037675   -0.000022524    0.000000128
     12        1           0.000009802   -0.000019694    0.000044051
     13        1           0.000005601   -0.000012557    0.000004937
     14        1          -0.000112839   -0.000099389    0.000142288
     15        1           0.000030214    0.000039337    0.000021421
     16        1           0.000116838   -0.000000858    0.000018166
     17        1          -0.000242343    0.000013563    0.000078131
     18        1          -0.000041332   -0.000163063    0.000069824
     19        1           0.000090858   -0.000162114    0.000007857
 -------------------------------------------------------------------
 Cartesian Forces:  Max     0.000482462 RMS     0.000175459
 Leave Link  716 at Fri Mar 14 14:25:47 2025, MaxMem=  8589934592 cpu:               0.1 elap:               0.2
 (Enter /home/enzo/gaussian_versions/gdv.j21/gdv/l103.exe)

 GradGradGradGradGradGradGradGradGradGradGradGradGradGradGradGradGradGrad
 Berny optimization.
 Using GEDIIS/GDIIS optimizer.
 FormGI is forming the generalized inverse of G from B-inverse, IUseBI=4.
 Internal  Forces:  Max     0.000377132 RMS     0.000129188
 Search for a local minimum.
 Step number  15 out of a maximum of   93
 All quantities printed in internal units (Hartrees-Bohrs-Radians)
 RMS Force = .12919D-03 SwitMx=.10000D-02 MixMth= 2
 Mixed Optimization -- En-DIIS/RFO-DIIS
 Swapping is turned off.
 Update second derivatives using D2CorX and points   14   15
 DE= -4.75D-05 DEPred=-3.71D-05 R= 1.28D+00
 TightC=F SS=  1.41D+00  RLast= 1.89D-01 DXNew= 2.4000D+00 5.6615D-01
 Trust test= 1.28D+00 RLast= 1.89D-01 DXMaxT set to 1.43D+00
 ITU=  1  1  1  1  1  1  1  1  1  1  0  1  1  1  0
     Eigenvalues ---    0.00090   0.00146   0.00448   0.00516   0.00762
     Eigenvalues ---    0.00897   0.01398   0.02170   0.04201   0.04585
     Eigenvalues ---    0.04874   0.05255   0.05648   0.05733   0.05993
     Eigenvalues ---    0.06745   0.08141   0.09539   0.13364   0.15616
     Eigenvalues ---    0.15893   0.15995   0.16048   0.16085   0.17617
     Eigenvalues ---    0.17873   0.19867   0.21729   0.22182   0.22951
     Eigenvalues ---    0.23367   0.24699   0.25285   0.26406   0.27561
     Eigenvalues ---    0.30179   0.31729   0.32579   0.32590   0.32623
     Eigenvalues ---    0.32635   0.32646   0.32893   0.36002   0.37217
     Eigenvalues ---    0.40780   0.42079   0.45941   0.52681   0.78824
     Eigenvalues ---    0.80665
 En-DIIS/RFO-DIIS/Sim-DIIS IScMMF=       -3 using points:    15   14   13   12   11   10
 RFO step:  Lambda=-3.71987734D-05.
 NNeg= 0 NGDIIS= 6 SimSw=  2.50D-01 Rises=F DC= -4.75D-05 SmlDif=  1.00D-05
 NRisDI= 0 DoIntr=F SqrtH=F CThrHd= 10.0 CDAdj=  3.0
 RMS Error=  0.1474369643D-01 NUsed= 6 OKEnD=T EnDIS=F
 InvSVX:  RCond= 1.08D-05 Info=           0 Equed=N FErr=  8.85D-12 BErr=  4.24D-17
 DidBck=FF Rises=F RFO-DIIS coefs:    1.28855    0.20497   -1.46878    0.95399    0.16846
                   RFO-DIIS coefs:   -0.14719
 Iteration  1 RMS(Cart)=  0.04630922 RMS(Int)=  0.00142584
 Iteration  2 RMS(Cart)=  0.00098025 RMS(Int)=  0.00131457
 Iteration  3 RMS(Cart)=  0.00000028 RMS(Int)=  0.00131457
 Variable       Old X    -DE/DX   Delta X   Delta X   Delta X     New X
                                 (Linear)    (Quad)   (Total)
    R1        2.88679   0.00017   0.00272  -0.00107   0.00165   2.88844
    R2        2.06568  -0.00004   0.00013  -0.00015  -0.00002   2.06566
    R3        2.07361  -0.00003   0.00010  -0.00005   0.00005   2.07366
    R4        2.06557   0.00000   0.00006  -0.00004   0.00002   2.06560
    R5        3.50705   0.00011  -0.00291   0.00185  -0.00107   3.50599
    R6        2.89513   0.00005  -0.00346   0.00234  -0.00112   2.89401
    R7        2.07054  -0.00003  -0.00043   0.00010  -0.00033   2.07021
    R8        2.55287  -0.00005  -0.00033   0.00016  -0.00017   2.55270
    R9        2.31853  -0.00018   0.00016  -0.00073  -0.00057   2.31796
   R10        2.56987   0.00029   0.00320  -0.00087   0.00233   2.57220
   R11        2.72837   0.00021   0.00311  -0.00088   0.00223   2.73061
   R12        1.91344   0.00003   0.00094  -0.00032   0.00062   1.91406
   R13        2.85863   0.00035  -0.00073   0.00125   0.00052   2.85915
   R14        2.07486   0.00004  -0.00003   0.00042   0.00039   2.07524
   R15        2.07435  -0.00011  -0.00052  -0.00031  -0.00084   2.07352
   R16        2.29139  -0.00026   0.00114  -0.00099   0.00016   2.29154
   R17        2.54502   0.00019  -0.00368   0.00274  -0.00094   2.54408
   R18        1.84435   0.00003   0.00017  -0.00009   0.00007   1.84442
    A1        1.93098  -0.00001  -0.00047   0.00002  -0.00045   1.93054
    A2        1.92410  -0.00005   0.00089  -0.00078   0.00011   1.92421
    A3        1.92084  -0.00001  -0.00027  -0.00038  -0.00066   1.92018
    A4        1.89826   0.00003  -0.00124   0.00103  -0.00021   1.89804
    A5        1.90713   0.00002  -0.00087   0.00059  -0.00027   1.90686
    A6        1.88166   0.00003   0.00200  -0.00046   0.00153   1.88320
    A7        1.96744   0.00010  -0.00178   0.00149  -0.00029   1.96715
    A8        1.93951   0.00002  -0.00035  -0.00045  -0.00080   1.93871
    A9        1.92593  -0.00002  -0.00142   0.00095  -0.00047   1.92547
   A10        1.89348  -0.00013  -0.00169   0.00005  -0.00165   1.89183
   A11        1.80763  -0.00005   0.00368  -0.00265   0.00103   1.80866
   A12        1.92552   0.00008   0.00186   0.00049   0.00235   1.92787
   A13        1.66157  -0.00005  -0.00346   0.00170  -0.00175   1.65982
   A14        2.12728  -0.00013  -0.00221   0.00130  -0.00093   2.12635
   A15        2.02139  -0.00025   0.00044  -0.00134  -0.00094   2.02045
   A16        2.13452   0.00038   0.00185   0.00004   0.00186   2.13638
   A17        2.10826   0.00036  -0.00188   0.00062   0.00560   2.11385
   A18        2.12806  -0.00008  -0.00932  -0.00027  -0.00265   2.12541
   A19        2.02887  -0.00027  -0.00742   0.00003  -0.00048   2.02840
   A20        1.90349   0.00025   0.00151   0.00038   0.00189   1.90538
   A21        1.95007  -0.00027  -0.00225  -0.00112  -0.00336   1.94670
   A22        1.94490  -0.00000  -0.00527   0.00339  -0.00184   1.94306
   A23        1.90943  -0.00001  -0.00059  -0.00093  -0.00155   1.90788
   A24        1.90463   0.00000   0.00573  -0.00130   0.00440   1.90902
   A25        1.85032   0.00002   0.00112  -0.00051   0.00055   1.85087
   A26        2.17913   0.00017  -0.00312   0.00240  -0.00071   2.17843
   A27        1.94570  -0.00001   0.00311  -0.00258   0.00055   1.94626
   A28        2.15835  -0.00016  -0.00006   0.00018   0.00014   2.15849
   A29        1.86022   0.00029  -0.00183   0.00238   0.00055   1.86077
    D1        0.94692   0.00002   0.00154   0.00021   0.00175   0.94868
    D2        3.07680  -0.00006  -0.00219   0.00101  -0.00118   3.07563
    D3       -1.06464   0.00004  -0.00105   0.00199   0.00094  -1.06369
    D4        3.04734   0.00002   0.00027   0.00100   0.00127   3.04861
    D5       -1.10596  -0.00006  -0.00346   0.00180  -0.00166  -1.10762
    D6        1.03578   0.00004  -0.00232   0.00278   0.00046   1.03624
    D7       -1.16245   0.00002   0.00311  -0.00029   0.00282  -1.15963
    D8        0.96743  -0.00006  -0.00062   0.00051  -0.00011   0.96732
    D9        3.10917   0.00004   0.00052   0.00149   0.00201   3.11118
   D10        1.17562   0.00001   0.00687   0.00015   0.00703   1.18265
   D11       -0.98001   0.00001   0.00975  -0.00032   0.00943  -0.97058
   D12       -3.02593   0.00001   0.00654   0.00042   0.00696  -3.01898
   D13       -0.74749  -0.00008  -0.03719  -0.00461  -0.04181  -0.78931
   D14        2.39335  -0.00008  -0.04446  -0.00060  -0.04505   2.34830
   D15        1.42482  -0.00003  -0.04084  -0.00299  -0.04385   1.38096
   D16       -1.71752  -0.00003  -0.04812   0.00101  -0.04709  -1.76461
   D17       -2.88948  -0.00013  -0.03644  -0.00585  -0.04230  -2.93178
   D18        0.25137  -0.00012  -0.04372  -0.00184  -0.04554   0.20582
   D19        3.04670   0.00008   0.00975   0.00115   0.01070   3.05740
   D20        0.11542   0.00005  -0.00327  -0.00100  -0.00404   0.11139
   D21       -0.09564   0.00008   0.00250   0.00518   0.00744  -0.08821
   D22       -3.02692   0.00005  -0.01052   0.00302  -0.00730  -3.03422
   D23       -3.02441   0.00007  -0.03265   0.00096  -0.03145  -3.05585
   D24       -0.91135   0.00006  -0.03382  -0.00068  -0.03428  -0.94563
   D25        1.15503  -0.00009  -0.03742   0.00019  -0.03702   1.11801
   D26       -0.08167   0.00012  -0.02054   0.00295  -0.01780  -0.09947
   D27        2.03138   0.00010  -0.02171   0.00132  -0.02063   2.01076
   D28       -2.18543  -0.00005  -0.02530   0.00218  -0.02337  -2.20880
   D29        0.01034  -0.00005   0.02997  -0.00565   0.02434   0.03468
   D30       -3.13247  -0.00004   0.02064  -0.00048   0.02018  -3.11229
   D31       -2.12734   0.00013   0.03217  -0.00392   0.02827  -2.09906
   D32        1.01304   0.00014   0.02283   0.00125   0.02411   1.03715
   D33        2.13863   0.00010   0.02814  -0.00206   0.02603   2.16466
   D34       -1.00418   0.00011   0.01880   0.00310   0.02186  -0.98232
   D35        3.14132   0.00008   0.00041   0.00512   0.00555  -3.13632
   D36       -0.00147   0.00009  -0.00878   0.01022   0.00144  -0.00003
         Item               Value     Threshold  Converged?
 Maximum Force            0.000377     0.000450     YES
 RMS     Force            0.000129     0.000300     YES
 Maximum Displacement     0.122450     0.001800     NO 
 RMS     Displacement     0.046280     0.001200     NO 
 Predicted change in Energy=-1.190507D-05
 Lowest energy point so far.  Saving SCF results.
 GradGradGradGradGradGradGradGradGradGradGradGradGradGradGradGradGradGrad

 Leave Link  103 at Fri Mar 14 14:25:47 2025, MaxMem=  8589934592 cpu:               0.5 elap:               0.3
 (Enter /home/enzo/gaussian_versions/gdv.j21/gdv/l202.exe)
                          Input orientation:                          
 ---------------------------------------------------------------------
 Center     Atomic      Atomic             Coordinates (Angstroms)
 Number     Number       Type             X           Y           Z
 ---------------------------------------------------------------------
      1          6           0       -2.501389    1.499424   -1.010220
      2          6           0       -1.674607    0.885091    0.119083
      3         16           0       -2.690179   -0.170226    1.257949
      4          6           0       -0.529936    0.033084   -0.436915
      5          8           0       -0.702005   -0.761599   -1.355309
      6          7           0        0.684496    0.218847    0.149067
      7          6           0        1.821029   -0.596537   -0.213415
      8          6           0        2.989855   -0.245353    0.680834
      9          8           0        2.953313    0.565972    1.581330
     10          8           0        4.088214   -0.954137    0.358845
     11          1           0       -3.354727    2.050517   -0.606516
     12          1           0       -1.884488    2.188039   -1.601310
     13          1           0       -2.863175    0.714142   -1.678979
     14          1           0       -1.283633    1.670562    0.775066
     15          1           0       -2.936875   -1.132170    0.342225
     16          1           0        0.798491    0.808001    0.965048
     17          1           0        1.597026   -1.667081   -0.114733
     18          1           0        2.105274   -0.441521   -1.261818
     19          1           0        4.790396   -0.677178    0.977603
 ---------------------------------------------------------------------
                    Distance matrix (angstroms):
                    1          2          3          4          5
     1  C    0.000000
     2  C    1.528496   0.000000
     3  S    2.822758   1.855288   0.000000
     4  C    2.522986   1.531444   2.753279   0.000000
     5  O    2.910171   2.414824   3.336417   1.226612   0.000000
     6  N    3.624043   2.451561   3.573434   1.361149   2.268657
     7  C    4.869420   3.811200   4.764205   2.444056   2.774323
     8  C    6.004804   4.832254   5.709771   3.703487   4.247613
     9  O    6.110748   4.863913   5.700488   4.060825   4.873155
    10  O    7.163600   6.053954   6.882551   4.789065   5.091325
    11  H    1.093099   2.169680   2.974819   3.475377   3.937718
    12  H    1.097335   2.168288   3.792876   2.799010   3.187341
    13  H    1.093066   2.162161   3.072064   2.729573   2.636898
    14  H    2.167825   1.095509   2.366442   2.172163   3.285148
    15  H    2.990660   2.390075   1.350831   2.785360   2.830829
    16  H    3.907551   2.614922   3.635043   2.081037   3.177922
    17  H    5.256012   4.155940   4.743939   2.741957   2.764864
    18  H    5.005189   4.237250   5.423947   2.801794   2.827014
    19  H    7.865059   6.706266   7.502972   5.550789   5.967920
                    6          7          8          9         10
     6  N    0.000000
     7  C    1.444974   0.000000
     8  C    2.411003   1.512999   0.000000
     9  O    2.705439   2.419628   1.212632   0.000000
    10  O    3.606271   2.365478   1.346270   2.256812   0.000000
    11  H    4.499027   5.826652   6.868916   6.839730   8.084382
    12  H    3.679839   4.838488   5.906674   6.013702   7.027705
    13  H    4.021571   5.080110   6.383361   6.669565   7.433551
    14  H    2.524457   3.969352   4.684262   4.452178   5.993248
    15  H    3.869999   4.820093   6.002269   6.254069   7.027365
    16  H    1.012878   2.099306   2.447939   2.254249   3.780858
    17  H    2.111641   1.098172   2.143411   3.114911   2.634119
    18  H    2.108386   1.097258   2.143563   3.133321   2.611776
    19  H    4.283426   3.200338   1.875231   2.298865   0.976026
                   11         12         13         14         15
    11  H    0.000000
    12  H    1.780486   0.000000
    13  H    1.782609   1.770941   0.000000
    14  H    2.518445   2.505188   3.071160   0.000000
    15  H    3.347268   3.988563   2.738534   3.282662   0.000000
    16  H    4.611169   3.960943   4.517464   2.261713   4.255013
    17  H    6.211461   5.403036   5.292493   4.497755   4.588159
    18  H    6.037490   4.790411   5.118112   4.482687   5.336031
    19  H    8.734573   7.708069   8.220118   6.515115   7.766688
                   16         17         18         19
    16  H    0.000000
    17  H    2.815958   0.000000
    18  H    2.868435   1.753887   0.000000
    19  H    4.259250   3.517203   3.504343   0.000000
 Stoichiometry    C5H9NO3S
 Framework group  C1[X(C5H9NO3S)]
 Deg. of freedom    51
 Full point group                 C1      NOp   1
 RotChk:  IX=3 Diff= 2.40D-02
 Largest Abelian subgroup         C1      NOp   1
 Largest concise Abelian subgroup C1      NOp   1
                         Standard orientation:                         
 ---------------------------------------------------------------------
 Center     Atomic      Atomic             Coordinates (Angstroms)
 Number     Number       Type             X           Y           Z
 ---------------------------------------------------------------------
      1          6           0        2.886085   -0.953757    1.130088
      2          6           0        1.893727    0.079925    0.598087
      3         16           0        2.658921    1.242027   -0.629142
      4          6           0        0.692159   -0.600147   -0.064528
      5          8           0        0.827848   -1.538873   -0.842320
      6          7           0       -0.528975   -0.099738    0.268864
      7          6           0       -1.733241   -0.584739   -0.365538
      8          6           0       -2.911770    0.233868    0.114167
      9          8           0       -2.837778    1.171326    0.879786
     10          8           0       -4.067033   -0.202950   -0.421557
     11          1           0        3.771192   -0.461427    1.541261
     12          1           0        2.419597   -1.557146    1.919046
     13          1           0        3.190030   -1.629039    0.326095
     14          1           0        1.562032    0.740282    1.406818
     15          1           0        2.845135    0.303825   -1.583001
     16          1           0       -0.627171    0.731808    0.838786
     17          1           0       -1.666898   -0.519317   -1.459751
     18          1           0       -1.907251   -1.643292   -0.134975
     19          1           0       -4.772636    0.373114   -0.070982
 ---------------------------------------------------------------------
 Rotational constants (GHZ):           2.3547788           0.4737273           0.4466777
 Leave Link  202 at Fri Mar 14 14:25:48 2025, MaxMem=  8589934592 cpu:               0.2 elap:               0.2
 (Enter /home/enzo/gaussian_versions/gdv.j21/gdv/l301.exe)
 Standard basis: 6-31G(d) (6D, 7F)
 Ernie: Thresh=  0.10000D-02 Tol=  0.10000D-05 Strict=F.
 There are   172 symmetry adapted cartesian basis functions of A   symmetry.
 There are   172 symmetry adapted basis functions of A   symmetry.
   172 basis functions,   340 primitive gaussians,   172 cartesian basis functions
    43 alpha electrons       43 beta electrons
       nuclear repulsion energy       610.3304180255 Hartrees.
 IExCor=      4002 DFT=T Ex+Corr=B3LYP ScaHFX=  0.200000
 ScaDFX=  0.800000  0.720000  1.000000  0.810000  1.000000  0.000000
 ScaDFX=  0.000000  0.000000  0.000000  0.000000  0.000000  0.000000
 IRadAn=      5 IRanWt=     -1 IRanGd=            0 ICorTp=0 IEmpDi=  4
 NAtoms=   19 NActive=   19 NUniq=   19 SFac= 1.00D+00 NAtFMM=   60 NAOKFM=F Big=F
 Integral buffers will be    131072 words long.
 Raffenetti 2 integral format.
 Two-electron integral symmetry is turned on.
 Leave Link  301 at Fri Mar 14 14:25:48 2025, MaxMem=  8589934592 cpu:               0.3 elap:               0.2
 (Enter /home/enzo/gaussian_versions/gdv.j21/gdv/l302.exe)
 NPDir=0 NMtPBC=     1 NCelOv=     1 NCel=       1 NClECP=     1 NCelD=      1
         NCelK=      1 NCelE2=     1 NClLst=     1 CellRange=     0.0.
 One-electron integrals computed using PRISM.
 One-electron integral symmetry used in STVInt
 NBasis=   172 RedAO= T EigKep=  2.54D-03  NBF=   172
 NBsUse=   172 1.00D-06 EigRej= -1.00D+00 NBFU=   172
 Precomputing XC quadrature grid using
 IXCGrd= 4 IRadAn=           5 IRanWt=          -1 IRanGd=           0 AccXCQ= 0.00D+00.
 Generated NRdTot=       0 NPtTot=      408639 NUsed=           0 NTot=          64
 NSgBfM=   171   171   171   171   171 MxSgAt=    19 MxSgA2=    19 SizInc=   0.000
 NMBTot=     3483 MaxBatPerAtom=       85 MaxMicBPerAtom=      202 NBfPt=            49985975.
 Leave Link  302 at Fri Mar 14 14:25:48 2025, MaxMem=  8589934592 cpu:               2.5 elap:               0.5
 (Enter /home/enzo/gaussian_versions/gdv.j21/gdv/l303.exe)
 DipDrv:  MaxL=1.
 Leave Link  303 at Fri Mar 14 14:25:49 2025, MaxMem=  8589934592 cpu:               1.1 elap:               0.3
 (Enter /home/enzo/gaussian_versions/gdv.j21/gdv/l401.exe)
 Initial guess from the checkpoint file:  "/local/home/enzo/scratch/Gau-2270961.chk"
 B after Tr=     0.000000   -0.000000    0.000000
         Rot=    0.999978    0.005745    0.002336    0.002355 Ang=   0.76 deg.
 AO Guess basis will be translated and rotated to current coordinates.
 JPrj=2 DoOrth=T DoCkMO=T.
 Generating alternative initial guess.
 ExpMin= 1.17D-01 ExpMax= 2.19D+04 ExpMxC= 3.30D+03 IAcc=3 IRadAn=         5 AccDes= 0.00D+00
 Harris functional with IExCor= 4002 and IRadAn=       5 diagonalized for initial guess.
 HarFok:  IExCor=    4002 AccDes= 0.00D+00 IRadAn=         5 IDoV= 1 UseB2=F ITyADJ=14 ICtDFT=  3500011
 FoFCou: FMM=F IPFlag=           0 FMFlag=      100000 FMFlg1=           0
         NFxFlg=           0 DoJE=T BraDBF=F KetDBF=T FulRan=T
         wScrn=  0.000000 ICntrl=       500 IOpCl=  0 I1Cent=   200000004 NGrid=           0
         NMat0=    1 NMatS0=      1 NMatT0=    0 NMatD0=    1 NMtDS0=    0 NMtDT0=    0
 Petite list used in FoFCou.
 Harris En= -874.549819607150    
 Leave Link  401 at Fri Mar 14 14:25:50 2025, MaxMem=  8589934592 cpu:               8.0 elap:               1.3
 (Enter /home/enzo/gaussian_versions/gdv.j21/gdv/l502.exe)
 Integral symmetry usage will be decided dynamically.
 Closed shell SCF:
 Using DIIS extrapolation, IDIIS=  1040.
 NGot=  8589934592 LenX=  8589843591 LenY=  8589813566
 Requested convergence on RMS density matrix=1.00D-08 within 128 cycles.
 Requested convergence on MAX density matrix=1.00D-06.
 Requested convergence on             energy=1.00D-06.
 No special actions if energy rises.
 Fock matrices will be formed incrementally for  20 cycles.
 Integral accuracy reduced to 1.0D-05 until final iterations.

 Cycle   1  Pass 0  IDiag  1:
 FoFJK:  IHMeth= 1 ICntrl=       0 DoSepK=F KAlg= 0 I1Cent=           0 FoldK=F
 IRaf= 890000000 NMat=       1 IRICut=       1 DoRegI=T DoRafI=F ISym2E= 0 IDoP0=0 IntGTp=1.
 FoFCou: FMM=F IPFlag=           0 FMFlag=      100000 FMFlg1=           0
         NFxFlg=           0 DoJE=F BraDBF=F KetDBF=F FulRan=T
         wScrn=  0.000000 ICntrl=         0 IOpCl=  0 I1Cent=           0 NGrid=           0
         NMat0=    1 NMatS0=      1 NMatT0=    0 NMatD0=    1 NMtDS0=    0 NMtDT0=    0
 Symmetry not used in FoFCou.
 E= -874.586941868676    
 DIIS: error= 1.79D-03 at cycle   1 NSaved=   1.
 NSaved= 1 IEnMin= 1 EnMin= -874.586941868676     IErMin= 1 ErrMin= 1.79D-03
 ErrMax= 1.79D-03  0.00D+00 EMaxC= 1.00D-01 BMatC= 1.01D-03 BMatP= 1.01D-03
 IDIUse=3 WtCom= 9.82D-01 WtEn= 1.79D-02
 Coeff-Com:  0.100D+01
 Coeff-En:   0.100D+01
 Coeff:      0.100D+01
 Gap=     1.613 Goal=   None    Shift=    0.000
 GapD=    1.613 DampG=2.000 DampE=1.000 DampFc=2.0000 IDamp=-1.
 RMSDP=3.42D-04 MaxDP=5.30D-03              OVMax= 1.14D-02

 Cycle   2  Pass 0  IDiag  1:
 RMSU=  3.42D-04    CP:  1.00D+00
 E= -874.589105811598     Delta-E=       -0.002163942922 Rises=F Damp=F
 DIIS: error= 1.73D-04 at cycle   2 NSaved=   2.
 NSaved= 2 IEnMin= 2 EnMin= -874.589105811598     IErMin= 2 ErrMin= 1.73D-04
 ErrMax= 1.73D-04  0.00D+00 EMaxC= 1.00D-01 BMatC= 1.40D-05 BMatP= 1.01D-03
 IDIUse=3 WtCom= 9.98D-01 WtEn= 1.73D-03
 Coeff-Com: -0.743D-01 0.107D+01
 Coeff-En:   0.000D+00 0.100D+01
 Coeff:     -0.741D-01 0.107D+01
 Gap=     0.225 Goal=   None    Shift=    0.000
 RMSDP=5.17D-05 MaxDP=9.06D-04 DE=-2.16D-03 OVMax= 1.97D-03

 Cycle   3  Pass 0  IDiag  1:
 RMSU=  4.17D-05    CP:  1.00D+00  1.09D+00
 E= -874.589132261089     Delta-E=       -0.000026449491 Rises=F Damp=F
 DIIS: error= 7.37D-05 at cycle   3 NSaved=   3.
 NSaved= 3 IEnMin= 3 EnMin= -874.589132261089     IErMin= 3 ErrMin= 7.37D-05
 ErrMax= 7.37D-05  0.00D+00 EMaxC= 1.00D-01 BMatC= 3.11D-06 BMatP= 1.40D-05
 IDIUse=1 WtCom= 1.00D+00 WtEn= 0.00D+00
 Coeff-Com: -0.308D-01 0.370D+00 0.661D+00
 Coeff:     -0.308D-01 0.370D+00 0.661D+00
 Gap=     0.225 Goal=   None    Shift=    0.000
 RMSDP=1.79D-05 MaxDP=5.82D-04 DE=-2.64D-05 OVMax= 5.41D-04

 Cycle   4  Pass 0  IDiag  1:
 RMSU=  1.41D-05    CP:  1.00D+00  1.10D+00  7.55D-01
 E= -874.589134276623     Delta-E=       -0.000002015534 Rises=F Damp=F
 DIIS: error= 5.78D-05 at cycle   4 NSaved=   4.
 NSaved= 4 IEnMin= 4 EnMin= -874.589134276623     IErMin= 4 ErrMin= 5.78D-05
 ErrMax= 5.78D-05  0.00D+00 EMaxC= 1.00D-01 BMatC= 1.25D-06 BMatP= 3.11D-06
 IDIUse=1 WtCom= 1.00D+00 WtEn= 0.00D+00
 Coeff-Com: -0.115D-01 0.125D+00 0.401D+00 0.486D+00
 Coeff:     -0.115D-01 0.125D+00 0.401D+00 0.486D+00
 Gap=     0.225 Goal=   None    Shift=    0.000
 RMSDP=6.93D-06 MaxDP=2.28D-04 DE=-2.02D-06 OVMax= 3.68D-04

 Initial convergence to 1.0D-05 achieved.  Increase integral accuracy.
 Cycle   5  Pass 1  IDiag  1:
 E= -874.589134602740     Delta-E=       -0.000000326117 Rises=F Damp=F
 DIIS: error= 1.91D-05 at cycle   1 NSaved=   1.
 NSaved= 1 IEnMin= 1 EnMin= -874.589134602740     IErMin= 1 ErrMin= 1.91D-05
 ErrMax= 1.91D-05  0.00D+00 EMaxC= 1.00D-01 BMatC= 1.69D-07 BMatP= 1.69D-07
 IDIUse=1 WtCom= 1.00D+00 WtEn= 0.00D+00
 Coeff-Com:  0.100D+01
 Coeff:      0.100D+01
 Gap=     0.225 Goal=   None    Shift=    0.000
 RMSDP=6.93D-06 MaxDP=2.28D-04 DE=-3.26D-07 OVMax= 3.27D-04

 Cycle   6  Pass 1  IDiag  1:
 RMSU=  7.81D-06    CP:  1.00D+00
 E= -874.589134189155     Delta-E=        0.000000413585 Rises=F Damp=F
 DIIS: error= 4.42D-05 at cycle   2 NSaved=   2.
 NSaved= 2 IEnMin= 1 EnMin= -874.589134602740     IErMin= 1 ErrMin= 1.91D-05
 ErrMax= 4.42D-05  0.00D+00 EMaxC= 1.00D-01 BMatC= 7.16D-07 BMatP= 1.69D-07
 IDIUse=1 WtCom= 1.00D+00 WtEn= 0.00D+00
 Coeff-Com:  0.680D+00 0.320D+00
 Coeff:      0.680D+00 0.320D+00
 Gap=     0.225 Goal=   None    Shift=    0.000
 RMSDP=4.51D-06 MaxDP=1.36D-04 DE= 4.14D-07 OVMax= 2.32D-04

 Cycle   7  Pass 1  IDiag  1:
 RMSU=  2.56D-06    CP:  1.00D+00  5.26D-01
 E= -874.589134743596     Delta-E=       -0.000000554441 Rises=F Damp=F
 DIIS: error= 3.12D-06 at cycle   3 NSaved=   3.
 NSaved= 3 IEnMin= 3 EnMin= -874.589134743596     IErMin= 3 ErrMin= 3.12D-06
 ErrMax= 3.12D-06  0.00D+00 EMaxC= 1.00D-01 BMatC= 4.04D-09 BMatP= 1.69D-07
 IDIUse=1 WtCom= 1.00D+00 WtEn= 0.00D+00
 Coeff-Com:  0.145D+00 0.103D+00 0.753D+00
 Coeff:      0.145D+00 0.103D+00 0.753D+00
 Gap=     0.225 Goal=   None    Shift=    0.000
 RMSDP=6.58D-07 MaxDP=2.39D-05 DE=-5.54D-07 OVMax= 1.97D-05

 Cycle   8  Pass 1  IDiag  1:
 RMSU=  6.47D-07    CP:  1.00D+00  5.32D-01  9.58D-01
 E= -874.589134746501     Delta-E=       -0.000000002905 Rises=F Damp=F
 DIIS: error= 1.59D-06 at cycle   4 NSaved=   4.
 NSaved= 4 IEnMin= 4 EnMin= -874.589134746501     IErMin= 4 ErrMin= 1.59D-06
 ErrMax= 1.59D-06  0.00D+00 EMaxC= 1.00D-01 BMatC= 9.04D-10 BMatP= 4.04D-09
 IDIUse=1 WtCom= 1.00D+00 WtEn= 0.00D+00
 Coeff-Com:  0.152D-02 0.178D-01 0.373D+00 0.608D+00
 Coeff:      0.152D-02 0.178D-01 0.373D+00 0.608D+00
 Gap=     0.225 Goal=   None    Shift=    0.000
 RMSDP=2.43D-07 MaxDP=5.46D-06 DE=-2.91D-09 OVMax= 6.39D-06

 Cycle   9  Pass 1  IDiag  1:
 RMSU=  1.33D-07    CP:  1.00D+00  5.41D-01  9.72D-01  7.10D-01
 E= -874.589134747397     Delta-E=       -0.000000000895 Rises=F Damp=F
 DIIS: error= 2.99D-07 at cycle   5 NSaved=   5.
 NSaved= 5 IEnMin= 5 EnMin= -874.589134747397     IErMin= 5 ErrMin= 2.99D-07
 ErrMax= 2.99D-07  0.00D+00 EMaxC= 1.00D-01 BMatC= 4.76D-11 BMatP= 9.04D-10
 IDIUse=1 WtCom= 1.00D+00 WtEn= 0.00D+00
 Coeff-Com: -0.648D-02 0.384D-02 0.148D+00 0.295D+00 0.559D+00
 Coeff:     -0.648D-02 0.384D-02 0.148D+00 0.295D+00 0.559D+00
 Gap=     0.225 Goal=   None    Shift=    0.000
 RMSDP=5.50D-08 MaxDP=1.35D-06 DE=-8.95D-10 OVMax= 1.88D-06

 Cycle  10  Pass 1  IDiag  1:
 RMSU=  4.51D-08    CP:  1.00D+00  5.41D-01  9.75D-01  7.01D-01  7.73D-01
 E= -874.589134747443     Delta-E=       -0.000000000047 Rises=F Damp=F
 DIIS: error= 8.97D-08 at cycle   6 NSaved=   6.
 NSaved= 6 IEnMin= 6 EnMin= -874.589134747443     IErMin= 6 ErrMin= 8.97D-08
 ErrMax= 8.97D-08  0.00D+00 EMaxC= 1.00D-01 BMatC= 4.49D-12 BMatP= 4.76D-11
 IDIUse=1 WtCom= 1.00D+00 WtEn= 0.00D+00
 Coeff-Com: -0.346D-02 0.562D-04 0.347D-01 0.830D-01 0.263D+00 0.622D+00
 Coeff:     -0.346D-02 0.562D-04 0.347D-01 0.830D-01 0.263D+00 0.622D+00
 Gap=     0.225 Goal=   None    Shift=    0.000
 RMSDP=1.68D-08 MaxDP=4.09D-07 DE=-4.66D-11 OVMax= 7.75D-07

 Cycle  11  Pass 1  IDiag  1:
 RMSU=  1.51D-08    CP:  1.00D+00  5.41D-01  9.76D-01  7.06D-01  8.16D-01
                    CP:  9.25D-01
 E= -874.589134747440     Delta-E=        0.000000000004 Rises=F Damp=F
 DIIS: error= 3.11D-08 at cycle   7 NSaved=   7.
 NSaved= 7 IEnMin= 6 EnMin= -874.589134747443     IErMin= 7 ErrMin= 3.11D-08
 ErrMax= 3.11D-08  0.00D+00 EMaxC= 1.00D-01 BMatC= 6.71D-13 BMatP= 4.49D-12
 IDIUse=1 WtCom= 1.00D+00 WtEn= 0.00D+00
 Coeff-Com: -0.181D-03-0.734D-03-0.141D-01-0.228D-01 0.283D-02 0.291D+00
 Coeff-Com:  0.744D+00
 Coeff:     -0.181D-03-0.734D-03-0.141D-01-0.228D-01 0.283D-02 0.291D+00
 Coeff:      0.744D+00
 Gap=     0.225 Goal=   None    Shift=    0.000
 RMSDP=7.44D-09 MaxDP=1.55D-07 DE= 3.64D-12 OVMax= 5.06D-07

 SCF Done:  E(RB3LYP) =  -874.589134747     A.U. after   11 cycles
            NFock= 11  Conv=0.74D-08     -V/T= 2.0064
 KE= 8.690170996212D+02 PE=-3.280408204882D+03 EE= 9.264715524881D+02
 Leave Link  502 at Fri Mar 14 14:25:58 2025, MaxMem=  8589934592 cpu:              68.0 elap:               8.6
 (Enter /home/enzo/gaussian_versions/gdv.j21/gdv/l701.exe)
 ... and contract with generalized density number  0.
 Compute integral first derivatives.
 Leave Link  701 at Fri Mar 14 14:25:59 2025, MaxMem=  8589934592 cpu:               1.6 elap:               0.4
 (Enter /home/enzo/gaussian_versions/gdv.j21/gdv/l702.exe)
 L702 exits ... SP integral derivatives will be done elsewhere.
 Leave Link  702 at Fri Mar 14 14:25:59 2025, MaxMem=  8589934592 cpu:               0.2 elap:               0.3
 (Enter /home/enzo/gaussian_versions/gdv.j21/gdv/l703.exe)
 Integral derivatives from FoFJK, PRISM(SPDF).
 Compute integral first derivatives, UseDBF=F ICtDFT=           0.
 Calling FoFJK, ICntrl=      2127 FMM=F ISym2X=0 I1Cent= 0 IOpClX= 0 NMat=1 NMatS=1 NMatT=0.
 FoFJK:  IHMeth= 1 ICntrl=    2127 DoSepK=F KAlg= 0 I1Cent=           0 FoldK=F
 IRaf=         0 NMat=       1 IRICut=       1 DoRegI=T DoRafI=F ISym2E= 0 IDoP0=0 IntGTp=1.
 FoFCou: FMM=F IPFlag=           0 FMFlag=      100000 FMFlg1=         800
         NFxFlg=           0 DoJE=F BraDBF=F KetDBF=F FulRan=T
         wScrn=  0.000000 ICntrl=      2127 IOpCl=  0 I1Cent=           0 NGrid=           0
         NMat0=    1 NMatS0=      1 NMatT0=    0 NMatD0=    1 NMtDS0=    0 NMtDT0=    0
 Symmetry not used in FoFCou.
 Leave Link  703 at Fri Mar 14 14:26:01 2025, MaxMem=  8589934592 cpu:              13.9 elap:               1.8
 (Enter /home/enzo/gaussian_versions/gdv.j21/gdv/l716.exe)
 Dipole        =-9.85519744D-01 4.48751397D-02 4.69163491D-01
 ***** Axes restored to original set *****
 -------------------------------------------------------------------
 Center     Atomic                   Forces (Hartrees/Bohr)
 Number     Number              X              Y              Z
 -------------------------------------------------------------------
      1        6           0.000030247    0.000012169    0.000064405
      2        6          -0.000059001    0.000346175   -0.000079696
      3       16          -0.000130908   -0.000090936    0.000115348
      4        6           0.001218314   -0.000182543    0.000035298
      5        8           0.000052667   -0.000166241   -0.000005665
      6        7          -0.000493022    0.000248937    0.000267654
      7        6          -0.000847369    0.000293636   -0.000484474
      8        6          -0.000788251    0.000404989    0.000669229
      9        8           0.000154499   -0.000177728   -0.000302827
     10        8           0.000361145    0.000003713   -0.000163488
     11        1           0.000013676   -0.000021760   -0.000015201
     12        1           0.000014565   -0.000033856   -0.000004500
     13        1          -0.000007845   -0.000000544   -0.000035939
     14        1          -0.000049306   -0.000046767    0.000127782
     15        1           0.000040937   -0.000000701    0.000041334
     16        1           0.000212074   -0.000194294   -0.000287519
     17        1           0.000130659   -0.000166439   -0.000016599
     18        1           0.000110527   -0.000093791    0.000073704
     19        1           0.000036394   -0.000134018    0.000001155
 -------------------------------------------------------------------
 Cartesian Forces:  Max     0.001218314 RMS     0.000294994
 Leave Link  716 at Fri Mar 14 14:26:01 2025, MaxMem=  8589934592 cpu:               0.3 elap:               0.2
 (Enter /home/enzo/gaussian_versions/gdv.j21/gdv/l103.exe)

 GradGradGradGradGradGradGradGradGradGradGradGradGradGradGradGradGradGrad
 Berny optimization.
 Using GEDIIS/GDIIS optimizer.
 FormGI is forming the generalized inverse of G from B-inverse, IUseBI=4.
 Internal  Forces:  Max     0.001083088 RMS     0.000206648
 Search for a local minimum.
 Step number  16 out of a maximum of   93
 All quantities printed in internal units (Hartrees-Bohrs-Radians)
 RMS Force = .20665D-03 SwitMx=.10000D-02 MixMth= 2
 Mixed Optimization -- En-DIIS/RFO-DIIS
 Swapping is turned off.
 Update second derivatives using D2CorX and points   13   14   15   16
 DE= -1.07D-05 DEPred=-1.19D-05 R= 8.99D-01
 TightC=F SS=  1.41D+00  RLast= 1.44D-01 DXNew= 2.4000D+00 4.3206D-01
 Trust test= 8.99D-01 RLast= 1.44D-01 DXMaxT set to 1.43D+00
 ITU=  1  1  1  1  1  1  1  1  1  1  1  0  1  1  1  0
     Eigenvalues ---    0.00085   0.00162   0.00435   0.00495   0.00622
     Eigenvalues ---    0.00887   0.01403   0.02159   0.04203   0.04478
     Eigenvalues ---    0.04885   0.05249   0.05655   0.05732   0.05948
     Eigenvalues ---    0.06749   0.08130   0.09828   0.13459   0.15641
     Eigenvalues ---    0.15858   0.16016   0.16043   0.16083   0.17645
     Eigenvalues ---    0.17844   0.19767   0.21685   0.22247   0.23038
     Eigenvalues ---    0.24268   0.24801   0.25262   0.26597   0.27767
     Eigenvalues ---    0.30236   0.31810   0.32573   0.32602   0.32625
     Eigenvalues ---    0.32633   0.32665   0.32959   0.35850   0.38397
     Eigenvalues ---    0.40911   0.45658   0.48099   0.52594   0.78658
     Eigenvalues ---    0.80916
 En-DIIS/RFO-DIIS/Sim-DIIS IScMMF=       -3 using points:    16   15   14   13   12   11   10
 RFO step:  Lambda=-2.18617937D-05.
 NNeg= 0 NGDIIS= 7 SimSw=  2.50D-01 Rises=F DC= -1.07D-05 SmlDif=  1.00D-05
 NRisDI= 0 DoIntr=F SqrtH=F CThrHd= 10.0 CDAdj=  3.0
 RMS Error=  0.1247213829D-01 NUsed= 7 OKEnD=T EnDIS=F
 InvSVX:  RCond= 6.83D-06 Info=           0 Equed=N FErr=  7.79D-12 BErr=  8.97D-17
 DidBck=FF Rises=F RFO-DIIS coefs:    1.24526    0.02485   -0.03269   -0.43672    0.42881
                   RFO-DIIS coefs:   -0.00156   -0.22795
 Iteration  1 RMS(Cart)=  0.05016783 RMS(Int)=  0.00094248
 Iteration  2 RMS(Cart)=  0.00134059 RMS(Int)=  0.00058134
 Iteration  3 RMS(Cart)=  0.00000042 RMS(Int)=  0.00058134
 Variable       Old X    -DE/DX   Delta X   Delta X   Delta X     New X
                                 (Linear)    (Quad)   (Total)
    R1        2.88844  -0.00005   0.00007  -0.00046  -0.00039   2.88805
    R2        2.06566  -0.00003   0.00000  -0.00007  -0.00006   2.06560
    R3        2.07366  -0.00001  -0.00007   0.00002  -0.00005   2.07361
    R4        2.06560   0.00002  -0.00000   0.00002   0.00002   2.06561
    R5        3.50599   0.00020  -0.00003   0.00095   0.00092   3.50690
    R6        2.89401   0.00028  -0.00044   0.00105   0.00061   2.89462
    R7        2.07021   0.00003  -0.00009   0.00009   0.00000   2.07021
    R8        2.55270  -0.00004   0.00006  -0.00007  -0.00001   2.55270
    R9        2.31796   0.00010  -0.00018   0.00014  -0.00004   2.31792
   R10        2.57220  -0.00108   0.00084  -0.00301  -0.00218   2.57002
   R11        2.73061  -0.00068   0.00134  -0.00211  -0.00077   2.72983
   R12        1.91406  -0.00032   0.00069  -0.00093  -0.00025   1.91382
   R13        2.85915  -0.00004  -0.00026  -0.00007  -0.00033   2.85883
   R14        2.07524   0.00013  -0.00024   0.00028   0.00003   2.07528
   R15        2.07352  -0.00006   0.00039  -0.00006   0.00033   2.07384
   R16        2.29154  -0.00035   0.00010  -0.00045  -0.00035   2.29120
   R17        2.54408   0.00043  -0.00036   0.00102   0.00066   2.54474
   R18        1.84442  -0.00001   0.00002  -0.00002  -0.00000   1.84442
    A1        1.93054   0.00001  -0.00000   0.00021   0.00020   1.93074
    A2        1.92421  -0.00003  -0.00047  -0.00009  -0.00056   1.92366
    A3        1.92018   0.00003  -0.00011   0.00005  -0.00006   1.92012
    A4        1.89804   0.00002   0.00015   0.00016   0.00031   1.89835
    A5        1.90686  -0.00002   0.00041  -0.00009   0.00031   1.90717
    A6        1.88320  -0.00002   0.00004  -0.00025  -0.00021   1.88299
    A7        1.96715   0.00008   0.00006   0.00033   0.00038   1.96753
    A8        1.93871  -0.00012   0.00090  -0.00043   0.00047   1.93919
    A9        1.92547   0.00005   0.00006   0.00034   0.00041   1.92587
   A10        1.89183   0.00003  -0.00153   0.00039  -0.00114   1.89069
   A11        1.80866  -0.00009  -0.00032  -0.00050  -0.00082   1.80784
   A12        1.92787   0.00006   0.00075  -0.00014   0.00061   1.92848
   A13        1.65982   0.00002   0.00059  -0.00008   0.00051   1.66032
   A14        2.12635   0.00011  -0.00012   0.00082   0.00070   2.12705
   A15        2.02045  -0.00001   0.00006   0.00003   0.00008   2.02054
   A16        2.13638  -0.00010   0.00007  -0.00085  -0.00079   2.13559
   A17        2.11385  -0.00065  -0.00012  -0.00314  -0.00624   2.10761
   A18        2.12541   0.00054   0.00023   0.00256  -0.00033   2.12507
   A19        2.02840   0.00011  -0.00179   0.00089  -0.00386   2.02454
   A20        1.90538  -0.00043  -0.00121  -0.00145  -0.00264   1.90274
   A21        1.94670   0.00025  -0.00201   0.00136  -0.00065   1.94605
   A22        1.94306   0.00021   0.00373   0.00155   0.00527   1.94833
   A23        1.90788  -0.00002   0.00262  -0.00092   0.00170   1.90958
   A24        1.90902   0.00009  -0.00191  -0.00066  -0.00254   1.90648
   A25        1.85087  -0.00010  -0.00122   0.00009  -0.00114   1.84972
   A26        2.17843   0.00023  -0.00019   0.00098   0.00076   2.17919
   A27        1.94626  -0.00018   0.00029  -0.00098  -0.00073   1.94553
   A28        2.15849  -0.00004   0.00000   0.00001  -0.00002   2.15846
   A29        1.86077   0.00020   0.00068   0.00054   0.00122   1.86199
    D1        0.94868  -0.00001  -0.00067   0.00020  -0.00047   0.94820
    D2        3.07563  -0.00001  -0.00196   0.00062  -0.00134   3.07429
    D3       -1.06369   0.00002  -0.00034   0.00039   0.00005  -1.06364
    D4        3.04861  -0.00000  -0.00079   0.00047  -0.00032   3.04829
    D5       -1.10762   0.00000  -0.00209   0.00090  -0.00119  -1.10881
    D6        1.03624   0.00003  -0.00047   0.00067   0.00020   1.03645
    D7       -1.15963  -0.00002  -0.00110   0.00014  -0.00096  -1.16059
    D8        0.96732  -0.00002  -0.00240   0.00057  -0.00183   0.96549
    D9        3.11118   0.00001  -0.00078   0.00034  -0.00044   3.11074
   D10        1.18265  -0.00000   0.00045  -0.00006   0.00038   1.18304
   D11       -0.97058   0.00008   0.00037  -0.00002   0.00035  -0.97023
   D12       -3.01898   0.00004   0.00035   0.00021   0.00056  -3.01841
   D13       -0.78931  -0.00004   0.00748  -0.00117   0.00631  -0.78300
   D14        2.34830  -0.00000   0.00688  -0.00151   0.00537   2.35368
   D15        1.38096  -0.00001   0.00709  -0.00077   0.00631   1.38727
   D16       -1.76461   0.00004   0.00649  -0.00112   0.00538  -1.75924
   D17       -2.93178  -0.00006   0.00625  -0.00122   0.00503  -2.92675
   D18        0.20582  -0.00002   0.00565  -0.00156   0.00410   0.20992
   D19        3.05740  -0.00002  -0.02206   0.00168  -0.02050   3.03690
   D20        0.11139   0.00002   0.03663  -0.00030   0.03648   0.14787
   D21       -0.08821   0.00003  -0.02262   0.00134  -0.02143  -0.10964
   D22       -3.03422   0.00007   0.03607  -0.00064   0.03555  -2.99867
   D23       -3.05585   0.00008   0.08544   0.00005   0.08516  -2.97070
   D24       -0.94563  -0.00007   0.08662  -0.00119   0.08511  -0.86051
   D25        1.11801   0.00012   0.08618   0.00084   0.08672   1.20473
   D26       -0.09947   0.00010   0.02928   0.00214   0.03172  -0.06776
   D27        2.01076  -0.00005   0.03046   0.00090   0.03167   2.04243
   D28       -2.20880   0.00013   0.03002   0.00293   0.03328  -2.17551
   D29        0.03468  -0.00004  -0.00278  -0.00204  -0.00483   0.02985
   D30       -3.11229   0.00005  -0.00070  -0.00075  -0.00145  -3.11374
   D31       -2.09906  -0.00006  -0.00121  -0.00222  -0.00343  -2.10250
   D32        1.03715   0.00003   0.00087  -0.00094  -0.00006   1.03709
   D33        2.16466   0.00001  -0.00015  -0.00145  -0.00160   2.16306
   D34       -0.98232   0.00010   0.00193  -0.00017   0.00178  -0.98054
   D35       -3.13632   0.00004   0.00004   0.00053   0.00059  -3.13573
   D36       -0.00003   0.00012   0.00213   0.00181   0.00392   0.00389
         Item               Value     Threshold  Converged?
 Maximum Force            0.001083     0.000450     NO 
 RMS     Force            0.000207     0.000300     YES
 Maximum Displacement     0.145779     0.001800     NO 
 RMS     Displacement     0.050279     0.001200     NO 
 Predicted change in Energy=-6.929322D-06
 Lowest energy point so far.  Saving SCF results.
 GradGradGradGradGradGradGradGradGradGradGradGradGradGradGradGradGradGrad

 Leave Link  103 at Fri Mar 14 14:26:02 2025, MaxMem=  8589934592 cpu:               1.5 elap:               0.5
 (Enter /home/enzo/gaussian_versions/gdv.j21/gdv/l202.exe)
                          Input orientation:                          
 ---------------------------------------------------------------------
 Center     Atomic      Atomic             Coordinates (Angstroms)
 Number     Number       Type             X           Y           Z
 ---------------------------------------------------------------------
      1          6           0       -2.524602    1.478852   -1.010229
      2          6           0       -1.666371    0.897436    0.112744
      3         16           0       -2.642160   -0.154263    1.289886
      4          6           0       -0.519359    0.052771   -0.450477
      5          8           0       -0.694734   -0.756451   -1.355424
      6          7           0        0.700932    0.262580    0.112073
      7          6           0        1.830912   -0.563495   -0.245020
      8          6           0        2.975918   -0.267117    0.698253
      9          8           0        2.927360    0.516115    1.622493
     10          8           0        4.070003   -0.987947    0.387182
     11          1           0       -3.379034    2.022945   -0.599493
     12          1           0       -1.930093    2.166889   -1.624436
     13          1           0       -2.885746    0.676504   -1.658785
     14          1           0       -1.275694    1.699919    0.747988
     15          1           0       -2.891005   -1.136441    0.396500
     16          1           0        0.815785    0.839657    0.936361
     17          1           0        1.581391   -1.631641   -0.191875
     18          1           0        2.155995   -0.380135   -1.277034
     19          1           0        4.757582   -0.748301    1.037129
 ---------------------------------------------------------------------
                    Distance matrix (angstroms):
                    1          2          3          4          5
     1  C    0.000000
     2  C    1.528291   0.000000
     3  S    2.823370   1.855774   0.000000
     4  C    2.523495   1.531768   2.752819   0.000000
     5  O    2.909322   2.415562   3.339575   1.226591   0.000000
     6  N    3.625321   2.450952   3.568931   1.359997   2.267125
     7  C    4.871060   3.807007   4.746765   2.438395   2.765703
     8  C    6.018557   4.821810   5.650270   3.693083   4.234467
     9  O    6.130414   4.850475   5.619571   4.048674   4.858701
    10  O    7.178208   6.044500   6.823711   4.779855   5.078679
    11  H    1.093067   2.169623   2.975394   3.475850   3.937250
    12  H    1.097308   2.167685   3.793160   2.799615   3.185027
    13  H    1.093075   2.161944   3.073137   2.729256   2.635512
    14  H    2.167941   1.095510   2.366194   2.172891   3.285667
    15  H    2.992139   2.391004   1.350828   2.785014   2.835002
    16  H    3.918669   2.615871   3.615278   2.079691   3.175138
    17  H    5.215750   4.127588   4.713454   2.705045   2.701953
    18  H    5.043313   4.263116   5.446319   2.833394   2.876528
    19  H    7.885562   6.695529   7.427849   5.540829   5.954168
                    6          7          8          9         10
     6  N    0.000000
     7  C    1.444565   0.000000
     8  C    2.408266   1.512826   0.000000
     9  O    2.702338   2.419786   1.212449   0.000000
    10  O    3.604184   2.365031   1.346620   2.256952   0.000000
    11  H    4.500148   5.827422   6.878512   6.854076   8.094884
    12  H    3.682954   4.847983   5.948799   6.071446   7.071121
    13  H    4.021384   5.077715   6.387891   6.677178   7.439007
    14  H    2.525348   3.969900   4.684859   4.453292   5.994271
    15  H    3.865252   4.799616   5.938649   6.171497   6.962598
    16  H    1.012748   2.096420   2.438815   2.243704   3.772489
    17  H    2.110845   1.098190   2.144517   3.117117   2.634927
    18  H    2.111849   1.097430   2.141683   3.131378   2.608156
    19  H    4.281824   3.200540   1.876354   2.300242   0.976025
                   11         12         13         14         15
    11  H    0.000000
    12  H    1.780634   0.000000
    13  H    1.782789   1.770791   0.000000
    14  H    2.518747   2.504934   3.071188   0.000000
    15  H    3.348417   3.989928   2.740619   3.282942   0.000000
    16  H    4.621203   3.982345   4.523575   2.269321   4.235174
    17  H    6.174784   5.367642   5.237812   4.488382   4.538032
    18  H    6.072100   4.827436   5.165401   4.494867   5.370747
    19  H    8.750020   7.765775   8.229124   6.517500   7.685176
                   16         17         18         19
    16  H    0.000000
    17  H    2.822478   0.000000
    18  H    2.860624   1.753284   0.000000
    19  H    4.250827   3.518370   3.501307   0.000000
 Stoichiometry    C5H9NO3S
 Framework group  C1[X(C5H9NO3S)]
 Deg. of freedom    51
 Full point group                 C1      NOp   1
 RotChk:  IX=3 Diff= 2.07D-02
 Largest Abelian subgroup         C1      NOp   1
 Largest concise Abelian subgroup C1      NOp   1
                         Standard orientation:                         
 ---------------------------------------------------------------------
 Center     Atomic      Atomic             Coordinates (Angstroms)
 Number     Number       Type             X           Y           Z
 ---------------------------------------------------------------------
      1          6           0        2.924271   -0.962743    1.070562
      2          6           0        1.898747    0.066273    0.596113
      3         16           0        2.608550    1.280463   -0.614598
      4          6           0        0.693499   -0.616908   -0.057304
      5          8           0        0.826011   -1.532699   -0.862470
      6          7           0       -0.526843   -0.147471    0.316844
      7          6           0       -1.730099   -0.623295   -0.325445
      8          6           0       -2.895995    0.234503    0.114455
      9          8           0       -2.813150    1.186641    0.860512
     10          8           0       -4.052534   -0.188881   -0.430108
     11          1           0        3.810509   -0.465608    1.473344
     12          1           0        2.489924   -1.598257    1.852580
     13          1           0        3.219159   -1.607927    0.238943
     14          1           0        1.575895    0.695821    1.432520
     15          1           0        2.787469    0.376020   -1.601871
     16          1           0       -0.626458    0.684680    0.885403
     17          1           0       -1.643275   -0.587843   -1.419623
     18          1           0       -1.936458   -1.671051   -0.072511
     19          1           0       -4.750813    0.411585   -0.106888
 ---------------------------------------------------------------------
 Rotational constants (GHZ):           2.3306973           0.4795809           0.4490655
 Leave Link  202 at Fri Mar 14 14:26:02 2025, MaxMem=  8589934592 cpu:               0.1 elap:               0.2
 (Enter /home/enzo/gaussian_versions/gdv.j21/gdv/l301.exe)
 Standard basis: 6-31G(d) (6D, 7F)
 Ernie: Thresh=  0.10000D-02 Tol=  0.10000D-05 Strict=F.
 There are   172 symmetry adapted cartesian basis functions of A   symmetry.
 There are   172 symmetry adapted basis functions of A   symmetry.
   172 basis functions,   340 primitive gaussians,   172 cartesian basis functions
    43 alpha electrons       43 beta electrons
       nuclear repulsion energy       610.9775552765 Hartrees.
 IExCor=      4002 DFT=T Ex+Corr=B3LYP ScaHFX=  0.200000
 ScaDFX=  0.800000  0.720000  1.000000  0.810000  1.000000  0.000000
 ScaDFX=  0.000000  0.000000  0.000000  0.000000  0.000000  0.000000
 IRadAn=      5 IRanWt=     -1 IRanGd=            0 ICorTp=0 IEmpDi=  4
 NAtoms=   19 NActive=   19 NUniq=   19 SFac= 1.00D+00 NAtFMM=   60 NAOKFM=F Big=F
 Integral buffers will be    131072 words long.
 Raffenetti 2 integral format.
 Two-electron integral symmetry is turned on.
 Leave Link  301 at Fri Mar 14 14:26:02 2025, MaxMem=  8589934592 cpu:               0.6 elap:               0.3
 (Enter /home/enzo/gaussian_versions/gdv.j21/gdv/l302.exe)
 NPDir=0 NMtPBC=     1 NCelOv=     1 NCel=       1 NClECP=     1 NCelD=      1
         NCelK=      1 NCelE2=     1 NClLst=     1 CellRange=     0.0.
 One-electron integrals computed using PRISM.
 One-electron integral symmetry used in STVInt
 NBasis=   172 RedAO= T EigKep=  2.55D-03  NBF=   172
 NBsUse=   172 1.00D-06 EigRej= -1.00D+00 NBFU=   172
 Precomputing XC quadrature grid using
 IXCGrd= 4 IRadAn=           5 IRanWt=          -1 IRanGd=           0 AccXCQ= 0.00D+00.
 Generated NRdTot=       0 NPtTot=      408557 NUsed=           0 NTot=          64
 NSgBfM=   171   171   171   171   171 MxSgAt=    19 MxSgA2=    19 SizInc=   0.000
 NMBTot=     3505 MaxBatPerAtom=       85 MaxMicBPerAtom=      202 NBfPt=            50012794.
 Leave Link  302 at Fri Mar 14 14:26:03 2025, MaxMem=  8589934592 cpu:               4.2 elap:               0.7
 (Enter /home/enzo/gaussian_versions/gdv.j21/gdv/l303.exe)
 DipDrv:  MaxL=1.
 Leave Link  303 at Fri Mar 14 14:26:03 2025, MaxMem=  8589934592 cpu:               0.2 elap:               0.2
 (Enter /home/enzo/gaussian_versions/gdv.j21/gdv/l401.exe)
 Initial guess from the checkpoint file:  "/local/home/enzo/scratch/Gau-2270961.chk"
 B after Tr=    -0.000000    0.000000   -0.000000
         Rot=    0.999980   -0.005729   -0.002087   -0.001886 Ang=  -0.73 deg.
 AO Guess basis will be translated and rotated to current coordinates.
 JPrj=2 DoOrth=T DoCkMO=T.
 Generating alternative initial guess.
 ExpMin= 1.17D-01 ExpMax= 2.19D+04 ExpMxC= 3.30D+03 IAcc=3 IRadAn=         5 AccDes= 0.00D+00
 Harris functional with IExCor= 4002 and IRadAn=       5 diagonalized for initial guess.
 HarFok:  IExCor=    4002 AccDes= 0.00D+00 IRadAn=         5 IDoV= 1 UseB2=F ITyADJ=14 ICtDFT=  3500011
 FoFCou: FMM=F IPFlag=           0 FMFlag=      100000 FMFlg1=           0
         NFxFlg=           0 DoJE=T BraDBF=F KetDBF=T FulRan=T
         wScrn=  0.000000 ICntrl=       500 IOpCl=  0 I1Cent=   200000004 NGrid=           0
         NMat0=    1 NMatS0=      1 NMatT0=    0 NMatD0=    1 NMtDS0=    0 NMtDT0=    0
 Petite list used in FoFCou.
 Harris En= -874.549670718583    
 Leave Link  401 at Fri Mar 14 14:26:04 2025, MaxMem=  8589934592 cpu:               7.0 elap:               1.0
 (Enter /home/enzo/gaussian_versions/gdv.j21/gdv/l502.exe)
 Integral symmetry usage will be decided dynamically.
 Closed shell SCF:
 Using DIIS extrapolation, IDIIS=  1040.
 NGot=  8589934592 LenX=  8589843591 LenY=  8589813566
 Requested convergence on RMS density matrix=1.00D-08 within 128 cycles.
 Requested convergence on MAX density matrix=1.00D-06.
 Requested convergence on             energy=1.00D-06.
 No special actions if energy rises.
 Fock matrices will be formed incrementally for  20 cycles.
 Integral accuracy reduced to 1.0D-05 until final iterations.

 Cycle   1  Pass 0  IDiag  1:
 FoFJK:  IHMeth= 1 ICntrl=       0 DoSepK=F KAlg= 0 I1Cent=           0 FoldK=F
 IRaf= 890000000 NMat=       1 IRICut=       1 DoRegI=T DoRafI=F ISym2E= 0 IDoP0=0 IntGTp=1.
 FoFCou: FMM=F IPFlag=           0 FMFlag=      100000 FMFlg1=           0
         NFxFlg=           0 DoJE=F BraDBF=F KetDBF=F FulRan=T
         wScrn=  0.000000 ICntrl=         0 IOpCl=  0 I1Cent=           0 NGrid=           0
         NMat0=    1 NMatS0=      1 NMatT0=    0 NMatD0=    1 NMtDS0=    0 NMtDT0=    0
 Symmetry not used in FoFCou.
 E= -874.585589884729    
 DIIS: error= 2.15D-03 at cycle   1 NSaved=   1.
 NSaved= 1 IEnMin= 1 EnMin= -874.585589884729     IErMin= 1 ErrMin= 2.15D-03
 ErrMax= 2.15D-03  0.00D+00 EMaxC= 1.00D-01 BMatC= 1.71D-03 BMatP= 1.71D-03
 IDIUse=3 WtCom= 9.79D-01 WtEn= 2.15D-02
 Coeff-Com:  0.100D+01
 Coeff-En:   0.100D+01
 Coeff:      0.100D+01
 Gap=     1.611 Goal=   None    Shift=    0.000
 GapD=    1.611 DampG=2.000 DampE=1.000 DampFc=2.0000 IDamp=-1.
 RMSDP=4.30D-04 MaxDP=1.05D-02              OVMax= 1.61D-02

 Cycle   2  Pass 0  IDiag  1:
 RMSU=  4.30D-04    CP:  1.00D+00
 E= -874.589098616153     Delta-E=       -0.003508731424 Rises=F Damp=F
 DIIS: error= 2.64D-04 at cycle   2 NSaved=   2.
 NSaved= 2 IEnMin= 2 EnMin= -874.589098616153     IErMin= 2 ErrMin= 2.64D-04
 ErrMax= 2.64D-04  0.00D+00 EMaxC= 1.00D-01 BMatC= 2.56D-05 BMatP= 1.71D-03
 IDIUse=3 WtCom= 9.97D-01 WtEn= 2.64D-03
 Coeff-Com: -0.772D-01 0.108D+01
 Coeff-En:   0.000D+00 0.100D+01
 Coeff:     -0.770D-01 0.108D+01
 Gap=     0.226 Goal=   None    Shift=    0.000
 RMSDP=6.47D-05 MaxDP=1.07D-03 DE=-3.51D-03 OVMax= 2.28D-03

 Cycle   3  Pass 0  IDiag  1:
 RMSU=  5.19D-05    CP:  1.00D+00  1.09D+00
 E= -874.589144984696     Delta-E=       -0.000046368544 Rises=F Damp=F
 DIIS: error= 1.10D-04 at cycle   3 NSaved=   3.
 NSaved= 3 IEnMin= 3 EnMin= -874.589144984696     IErMin= 3 ErrMin= 1.10D-04
 ErrMax= 1.10D-04  0.00D+00 EMaxC= 1.00D-01 BMatC= 3.98D-06 BMatP= 2.56D-05
 IDIUse=3 WtCom= 9.99D-01 WtEn= 1.10D-03
 Coeff-Com: -0.271D-01 0.322D+00 0.705D+00
 Coeff-En:   0.000D+00 0.000D+00 0.100D+01
 Coeff:     -0.271D-01 0.321D+00 0.706D+00
 Gap=     0.226 Goal=   None    Shift=    0.000
 RMSDP=2.03D-05 MaxDP=4.40D-04 DE=-4.64D-05 OVMax= 8.91D-04

 Cycle   4  Pass 0  IDiag  1:
 RMSU=  1.63D-05    CP:  1.00D+00  1.10D+00  7.95D-01
 E= -874.589147368556     Delta-E=       -0.000002383860 Rises=F Damp=F
 DIIS: error= 1.23D-04 at cycle   4 NSaved=   4.
 NSaved= 4 IEnMin= 4 EnMin= -874.589147368556     IErMin= 3 ErrMin= 1.10D-04
 ErrMax= 1.23D-04  0.00D+00 EMaxC= 1.00D-01 BMatC= 2.22D-06 BMatP= 3.98D-06
 IDIUse=3 WtCom= 9.99D-01 WtEn= 1.23D-03
 Coeff-Com: -0.121D-01 0.134D+00 0.446D+00 0.433D+00
 Coeff-En:   0.000D+00 0.000D+00 0.260D+00 0.740D+00
 Coeff:     -0.120D-01 0.133D+00 0.446D+00 0.433D+00
 Gap=     0.226 Goal=   None    Shift=    0.000
 RMSDP=8.39D-06 MaxDP=3.05D-04 DE=-2.38D-06 OVMax= 6.42D-04

 Initial convergence to 1.0D-05 achieved.  Increase integral accuracy.
 Cycle   5  Pass 1  IDiag  1:
 E= -874.589142572550     Delta-E=        0.000004796006 Rises=F Damp=F
 DIIS: error= 3.41D-05 at cycle   1 NSaved=   1.
 NSaved= 1 IEnMin= 1 EnMin= -874.589142572550     IErMin= 1 ErrMin= 3.41D-05
 ErrMax= 3.41D-05  0.00D+00 EMaxC= 1.00D-01 BMatC= 2.24D-07 BMatP= 2.24D-07
 IDIUse=1 WtCom= 1.00D+00 WtEn= 0.00D+00
 Coeff-Com:  0.100D+01
 Coeff:      0.100D+01
 Gap=     0.226 Goal=   None    Shift=    0.000
 RMSDP=8.39D-06 MaxDP=3.05D-04 DE= 4.80D-06 OVMax= 4.69D-04

 Cycle   6  Pass 1  IDiag  1:
 RMSU=  8.09D-06    CP:  1.00D+00
 E= -874.589142063412     Delta-E=        0.000000509138 Rises=F Damp=F
 DIIS: error= 7.47D-05 at cycle   2 NSaved=   2.
 NSaved= 2 IEnMin= 1 EnMin= -874.589142572550     IErMin= 1 ErrMin= 3.41D-05
 ErrMax= 7.47D-05  0.00D+00 EMaxC= 1.00D-01 BMatC= 9.27D-07 BMatP= 2.24D-07
 IDIUse=1 WtCom= 1.00D+00 WtEn= 0.00D+00
 Coeff-Com:  0.677D+00 0.323D+00
 Coeff:      0.677D+00 0.323D+00
 Gap=     0.226 Goal=   None    Shift=    0.000
 RMSDP=4.54D-06 MaxDP=1.75D-04 DE= 5.09D-07 OVMax= 3.45D-04

 Cycle   7  Pass 1  IDiag  1:
 RMSU=  2.83D-06    CP:  1.00D+00  5.61D-01
 E= -874.589142763850     Delta-E=       -0.000000700438 Rises=F Damp=F
 DIIS: error= 4.64D-06 at cycle   3 NSaved=   3.
 NSaved= 3 IEnMin= 3 EnMin= -874.589142763850     IErMin= 3 ErrMin= 4.64D-06
 ErrMax= 4.64D-06  0.00D+00 EMaxC= 1.00D-01 BMatC= 5.90D-09 BMatP= 2.24D-07
 IDIUse=1 WtCom= 1.00D+00 WtEn= 0.00D+00
 Coeff-Com:  0.160D+00 0.112D+00 0.728D+00
 Coeff:      0.160D+00 0.112D+00 0.728D+00
 Gap=     0.226 Goal=   None    Shift=    0.000
 RMSDP=7.23D-07 MaxDP=1.84D-05 DE=-7.00D-07 OVMax= 2.08D-05

 Cycle   8  Pass 1  IDiag  1:
 RMSU=  6.86D-07    CP:  1.00D+00  5.65D-01  9.20D-01
 E= -874.589142768548     Delta-E=       -0.000000004697 Rises=F Damp=F
 DIIS: error= 1.30D-06 at cycle   4 NSaved=   4.
 NSaved= 4 IEnMin= 4 EnMin= -874.589142768548     IErMin= 4 ErrMin= 1.30D-06
 ErrMax= 1.30D-06  0.00D+00 EMaxC= 1.00D-01 BMatC= 9.73D-10 BMatP= 5.90D-09
 IDIUse=1 WtCom= 1.00D+00 WtEn= 0.00D+00
 Coeff-Com:  0.501D-02 0.184D-01 0.333D+00 0.644D+00
 Coeff:      0.501D-02 0.184D-01 0.333D+00 0.644D+00
 Gap=     0.226 Goal=   None    Shift=    0.000
 RMSDP=2.67D-07 MaxDP=6.90D-06 DE=-4.70D-09 OVMax= 8.67D-06

 Cycle   9  Pass 1  IDiag  1:
 RMSU=  1.71D-07    CP:  1.00D+00  5.75D-01  9.51D-01  7.54D-01
 E= -874.589142769440     Delta-E=       -0.000000000893 Rises=F Damp=F
 DIIS: error= 8.64D-07 at cycle   5 NSaved=   5.
 NSaved= 5 IEnMin= 5 EnMin= -874.589142769440     IErMin= 5 ErrMin= 8.64D-07
 ErrMax= 8.64D-07  0.00D+00 EMaxC= 1.00D-01 BMatC= 1.69D-10 BMatP= 9.73D-10
 IDIUse=1 WtCom= 1.00D+00 WtEn= 0.00D+00
 Coeff-Com: -0.983D-02 0.203D-02 0.140D+00 0.371D+00 0.497D+00
 Coeff:     -0.983D-02 0.203D-02 0.140D+00 0.371D+00 0.497D+00
 Gap=     0.226 Goal=   None    Shift=    0.000
 RMSDP=8.83D-08 MaxDP=2.66D-06 DE=-8.93D-10 OVMax= 4.20D-06

 Cycle  10  Pass 1  IDiag  1:
 RMSU=  7.61D-08    CP:  1.00D+00  5.77D-01  9.53D-01  7.66D-01  7.60D-01
 E= -874.589142769560     Delta-E=       -0.000000000119 Rises=F Damp=F
 DIIS: error= 3.47D-07 at cycle   6 NSaved=   6.
 NSaved= 6 IEnMin= 6 EnMin= -874.589142769560     IErMin= 6 ErrMin= 3.47D-07
 ErrMax= 3.47D-07  0.00D+00 EMaxC= 1.00D-01 BMatC= 3.17D-11 BMatP= 1.69D-10
 IDIUse=1 WtCom= 1.00D+00 WtEn= 0.00D+00
 Coeff-Com: -0.755D-02-0.145D-02 0.451D-01 0.153D+00 0.327D+00 0.484D+00
 Coeff:     -0.755D-02-0.145D-02 0.451D-01 0.153D+00 0.327D+00 0.484D+00
 Gap=     0.226 Goal=   None    Shift=    0.000
 RMSDP=3.91D-08 MaxDP=1.12D-06 DE=-1.19D-10 OVMax= 2.30D-06

 Cycle  11  Pass 1  IDiag  1:
 RMSU=  3.05D-08    CP:  1.00D+00  5.76D-01  9.56D-01  7.76D-01  8.11D-01
                    CP:  7.37D-01
 E= -874.589142769589     Delta-E=       -0.000000000029 Rises=F Damp=F
 DIIS: error= 5.01D-08 at cycle   7 NSaved=   7.
 NSaved= 7 IEnMin= 7 EnMin= -874.589142769589     IErMin= 7 ErrMin= 5.01D-08
 ErrMax= 5.01D-08  0.00D+00 EMaxC= 1.00D-01 BMatC= 1.25D-12 BMatP= 3.17D-11
 IDIUse=1 WtCom= 1.00D+00 WtEn= 0.00D+00
 Coeff-Com: -0.785D-03-0.918D-03-0.111D-01-0.198D-01 0.124D-01 0.171D+00
 Coeff-Com:  0.849D+00
 Coeff:     -0.785D-03-0.918D-03-0.111D-01-0.198D-01 0.124D-01 0.171D+00
 Coeff:      0.849D+00
 Gap=     0.226 Goal=   None    Shift=    0.000
 RMSDP=1.20D-08 MaxDP=2.17D-07 DE=-2.91D-11 OVMax= 7.09D-07

 Cycle  12  Pass 1  IDiag  1:
 RMSU=  5.69D-09    CP:  1.00D+00  5.77D-01  9.56D-01  7.79D-01  8.46D-01
                    CP:  8.39D-01  9.22D-01
 E= -874.589142769587     Delta-E=        0.000000000002 Rises=F Damp=F
 DIIS: error= 1.80D-08 at cycle   8 NSaved=   8.
 NSaved= 8 IEnMin= 7 EnMin= -874.589142769589     IErMin= 8 ErrMin= 1.80D-08
 ErrMax= 1.80D-08  0.00D+00 EMaxC= 1.00D-01 BMatC= 1.30D-13 BMatP= 1.25D-12
 IDIUse=1 WtCom= 1.00D+00 WtEn= 0.00D+00
 Coeff-Com:  0.128D-03-0.298D-03-0.735D-02-0.175D-01-0.134D-01 0.459D-01
 Coeff-Com:  0.379D+00 0.614D+00
 Coeff:      0.128D-03-0.298D-03-0.735D-02-0.175D-01-0.134D-01 0.459D-01
 Coeff:      0.379D+00 0.614D+00
 Gap=     0.226 Goal=   None    Shift=    0.000
 RMSDP=2.78D-09 MaxDP=6.19D-08 DE= 2.05D-12 OVMax= 1.01D-07

 SCF Done:  E(RB3LYP) =  -874.589142770     A.U. after   12 cycles
            NFock= 12  Conv=0.28D-08     -V/T= 2.0064
 KE= 8.690238860394D+02 PE=-3.281708447443D+03 EE= 9.271178633580D+02
 Leave Link  502 at Fri Mar 14 14:26:12 2025, MaxMem=  8589934592 cpu:              67.2 elap:               7.3
 (Enter /home/enzo/gaussian_versions/gdv.j21/gdv/l701.exe)
 ... and contract with generalized density number  0.
 Compute integral first derivatives.
 Leave Link  701 at Fri Mar 14 14:26:12 2025, MaxMem=  8589934592 cpu:               1.4 elap:               0.3
 (Enter /home/enzo/gaussian_versions/gdv.j21/gdv/l702.exe)
 L702 exits ... SP integral derivatives will be done elsewhere.
 Leave Link  702 at Fri Mar 14 14:26:12 2025, MaxMem=  8589934592 cpu:               0.1 elap:               0.2
 (Enter /home/enzo/gaussian_versions/gdv.j21/gdv/l703.exe)
 Integral derivatives from FoFJK, PRISM(SPDF).
 Compute integral first derivatives, UseDBF=F ICtDFT=           0.
 Calling FoFJK, ICntrl=      2127 FMM=F ISym2X=0 I1Cent= 0 IOpClX= 0 NMat=1 NMatS=1 NMatT=0.
 FoFJK:  IHMeth= 1 ICntrl=    2127 DoSepK=F KAlg= 0 I1Cent=           0 FoldK=F
 IRaf=         0 NMat=       1 IRICut=       1 DoRegI=T DoRafI=F ISym2E= 0 IDoP0=0 IntGTp=1.
 FoFCou: FMM=F IPFlag=           0 FMFlag=      100000 FMFlg1=         800
         NFxFlg=           0 DoJE=F BraDBF=F KetDBF=F FulRan=T
         wScrn=  0.000000 ICntrl=      2127 IOpCl=  0 I1Cent=           0 NGrid=           0
         NMat0=    1 NMatS0=      1 NMatT0=    0 NMatD0=    1 NMtDS0=    0 NMtDT0=    0
 Symmetry not used in FoFCou.
 Leave Link  703 at Fri Mar 14 14:26:14 2025, MaxMem=  8589934592 cpu:              15.3 elap:               2.1
 (Enter /home/enzo/gaussian_versions/gdv.j21/gdv/l716.exe)
 Dipole        =-9.67975884D-01 2.53371223D-02 4.73829443D-01
 ***** Axes restored to original set *****
 -------------------------------------------------------------------
 Center     Atomic                   Forces (Hartrees/Bohr)
 Number     Number              X              Y              Z
 -------------------------------------------------------------------
      1        6           0.000072011   -0.000008120    0.000040331
      2        6          -0.000165329    0.000050732   -0.000085587
      3       16          -0.000113759   -0.000057705    0.000082514
      4        6          -0.000125555    0.000134611   -0.000194160
      5        8          -0.000218040   -0.000121060   -0.000116917
      6        7           0.000238681   -0.000262097    0.000167931
      7        6          -0.000000401    0.000083708   -0.000039196
      8        6           0.000020660    0.000037291    0.000206783
      9        8           0.000100008   -0.000026185   -0.000078112
     10        8           0.000252399   -0.000027061   -0.000012790
     11        1          -0.000000382   -0.000007365   -0.000024068
     12        1          -0.000010871   -0.000001532   -0.000018747
     13        1          -0.000029476    0.000011443   -0.000029718
     14        1           0.000066170   -0.000062373    0.000038701
     15        1           0.000025891    0.000022948    0.000017057
     16        1           0.000012445    0.000080636   -0.000019630
     17        1          -0.000103025    0.000111246    0.000063975
     18        1           0.000011501    0.000074012    0.000019080
     19        1          -0.000032931   -0.000033129   -0.000017446
 -------------------------------------------------------------------
 Cartesian Forces:  Max     0.000262097 RMS     0.000099105
 Leave Link  716 at Fri Mar 14 14:26:15 2025, MaxMem=  8589934592 cpu:               0.3 elap:               0.3
 (Enter /home/enzo/gaussian_versions/gdv.j21/gdv/l103.exe)

 GradGradGradGradGradGradGradGradGradGradGradGradGradGradGradGradGradGrad
 Berny optimization.
 Using GEDIIS/GDIIS optimizer.
 FormGI is forming the generalized inverse of G from B-inverse, IUseBI=4.
 Internal  Forces:  Max     0.000573053 RMS     0.000114769
 Search for a local minimum.
 Step number  17 out of a maximum of   93
 All quantities printed in internal units (Hartrees-Bohrs-Radians)
 RMS Force = .11477D-03 SwitMx=.10000D-02 MixMth= 2
 Mixed Optimization -- En-DIIS/RFO-DIIS
 Swapping is turned off.
 Update second derivatives using D2CorX and points   14   15   16   17
 DE= -8.02D-06 DEPred=-6.93D-06 R= 1.16D+00
 TightC=F SS=  1.41D+00  RLast= 1.70D-01 DXNew= 2.4000D+00 5.1060D-01
 Trust test= 1.16D+00 RLast= 1.70D-01 DXMaxT set to 1.43D+00
 ITU=  1  1  1  1  1  1  1  1  1  1  1  1  0  1  1  1  0
     Eigenvalues ---    0.00101   0.00160   0.00441   0.00506   0.00610
     Eigenvalues ---    0.00899   0.01395   0.02118   0.04175   0.04610
     Eigenvalues ---    0.04876   0.05230   0.05653   0.05737   0.05886
     Eigenvalues ---    0.06742   0.08162   0.09774   0.13449   0.15555
     Eigenvalues ---    0.15828   0.16016   0.16039   0.16083   0.17609
     Eigenvalues ---    0.17713   0.19892   0.21791   0.22270   0.23036
     Eigenvalues ---    0.24175   0.24805   0.25293   0.26582   0.28016
     Eigenvalues ---    0.30269   0.31813   0.32562   0.32607   0.32614
     Eigenvalues ---    0.32633   0.32651   0.32947   0.36348   0.38282
     Eigenvalues ---    0.41084   0.45842   0.46883   0.53564   0.78479
     Eigenvalues ---    0.80944
 En-DIIS/RFO-DIIS/Sim-DIIS IScMMF=       -3 using points:    17   16   15   14   13   12   11   10
 RFO step:  Lambda=-9.57340877D-06.
 NNeg= 0 NGDIIS= 8 SimSw=  2.50D-01 Rises=F DC= -8.02D-06 SmlDif=  1.00D-05
 NRisDI= 0 DoIntr=F SqrtH=F CThrHd= 10.0 CDAdj=  3.0
 RMS Error=  0.8066739699D-02 NUsed= 8 OKEnD=F EnDIS=F
 InvSVX:  RCond= 2.76D-06 Info=           0 Equed=N FErr=  5.29D-12 BErr=  6.50D-17
 DidBck=FF Rises=F RFO-DIIS coefs:    0.86888    0.33841   -0.34092    0.15504   -0.13087
                   RFO-DIIS coefs:    0.07398    0.09483   -0.05935
 Iteration  1 RMS(Cart)=  0.02972176 RMS(Int)=  0.00036419
 Iteration  2 RMS(Cart)=  0.00044108 RMS(Int)=  0.00027210
 Iteration  3 RMS(Cart)=  0.00000003 RMS(Int)=  0.00027210
 Variable       Old X    -DE/DX   Delta X   Delta X   Delta X     New X
                                 (Linear)    (Quad)   (Total)
    R1        2.88805   0.00000   0.00051  -0.00027   0.00024   2.88829
    R2        2.06560  -0.00001  -0.00005   0.00001  -0.00003   2.06556
    R3        2.07361   0.00000  -0.00003   0.00009   0.00006   2.07367
    R4        2.06561   0.00002   0.00001   0.00004   0.00005   2.06566
    R5        3.50690   0.00013  -0.00018   0.00046   0.00028   3.50718
    R6        2.89462   0.00010  -0.00008   0.00029   0.00021   2.89484
    R7        2.07021   0.00000  -0.00007   0.00003  -0.00004   2.07017
    R8        2.55270  -0.00003  -0.00011  -0.00005  -0.00016   2.55254
    R9        2.31792   0.00020  -0.00017   0.00029   0.00012   2.31805
   R10        2.57002   0.00057   0.00087   0.00005   0.00092   2.57094
   R11        2.72983   0.00003   0.00047  -0.00046   0.00001   2.72984
   R12        1.91382   0.00003   0.00008  -0.00013  -0.00005   1.91377
   R13        2.85883   0.00031   0.00038   0.00027   0.00065   2.85947
   R14        2.07528  -0.00008   0.00023  -0.00010   0.00013   2.07541
   R15        2.07384  -0.00000  -0.00040   0.00004  -0.00036   2.07349
   R16        2.29120  -0.00008  -0.00012   0.00001  -0.00012   2.29108
   R17        2.54474   0.00022  -0.00001   0.00033   0.00032   2.54506
   R18        1.84442  -0.00004  -0.00006  -0.00005  -0.00010   1.84432
    A1        1.93074   0.00002  -0.00013   0.00015   0.00002   1.93076
    A2        1.92366   0.00002   0.00003   0.00019   0.00022   1.92388
    A3        1.92012   0.00005  -0.00002   0.00011   0.00009   1.92021
    A4        1.89835  -0.00002  -0.00005  -0.00007  -0.00012   1.89822
    A5        1.90717  -0.00003  -0.00006  -0.00027  -0.00033   1.90684
    A6        1.88299  -0.00003   0.00025  -0.00013   0.00012   1.88311
    A7        1.96753  -0.00000  -0.00010   0.00013   0.00003   1.96756
    A8        1.93919  -0.00007  -0.00031  -0.00032  -0.00064   1.93855
    A9        1.92587   0.00006   0.00002   0.00028   0.00031   1.92618
   A10        1.89069   0.00009  -0.00007   0.00059   0.00052   1.89121
   A11        1.80784  -0.00003  -0.00022   0.00021  -0.00000   1.80784
   A12        1.92848  -0.00005   0.00071  -0.00087  -0.00016   1.92832
   A13        1.66032  -0.00003  -0.00022  -0.00020  -0.00042   1.65990
   A14        2.12705  -0.00021  -0.00050  -0.00029  -0.00079   2.12626
   A15        2.02054  -0.00001  -0.00047   0.00042  -0.00005   2.02049
   A16        2.13559   0.00022   0.00098  -0.00013   0.00085   2.13644
   A17        2.10761   0.00016   0.00216  -0.00056   0.00302   2.11063
   A18        2.12507  -0.00008  -0.00049   0.00048   0.00142   2.12649
   A19        2.02454  -0.00006   0.00008   0.00053   0.00205   2.02659
   A20        1.90274   0.00045   0.00090   0.00067   0.00157   1.90431
   A21        1.94605  -0.00023  -0.00007  -0.00002  -0.00009   1.94597
   A22        1.94833  -0.00012  -0.00188  -0.00012  -0.00200   1.94634
   A23        1.90958  -0.00006  -0.00151  -0.00004  -0.00156   1.90803
   A24        1.90648  -0.00017   0.00239  -0.00101   0.00137   1.90786
   A25        1.84972   0.00011   0.00020   0.00048   0.00066   1.85039
   A26        2.17919   0.00008  -0.00000   0.00013   0.00013   2.17931
   A27        1.94553   0.00003  -0.00007   0.00004  -0.00003   1.94551
   A28        2.15846  -0.00011   0.00007  -0.00017  -0.00010   2.15836
   A29        1.86199   0.00001   0.00038  -0.00039  -0.00000   1.86199
    D1        0.94820  -0.00002   0.00036   0.00045   0.00081   0.94902
    D2        3.07429   0.00004  -0.00003   0.00107   0.00104   3.07532
    D3       -1.06364  -0.00002   0.00068  -0.00007   0.00060  -1.06304
    D4        3.04829  -0.00002   0.00023   0.00059   0.00082   3.04911
    D5       -1.10881   0.00004  -0.00016   0.00120   0.00104  -1.10777
    D6        1.03645  -0.00002   0.00054   0.00006   0.00061   1.03705
    D7       -1.16059  -0.00002   0.00054   0.00062   0.00116  -1.15943
    D8        0.96549   0.00004   0.00015   0.00123   0.00138   0.96687
    D9        3.11074  -0.00002   0.00086   0.00009   0.00095   3.11169
   D10        1.18304  -0.00001   0.00479   0.00030   0.00509   1.18813
   D11       -0.97023   0.00001   0.00531   0.00021   0.00551  -0.96472
   D12       -3.01841   0.00004   0.00463   0.00084   0.00547  -3.01294
   D13       -0.78300  -0.00003  -0.00989  -0.00185  -0.01174  -0.79474
   D14        2.35368  -0.00002  -0.00984  -0.00117  -0.01101   2.34267
   D15        1.38727  -0.00002  -0.01027  -0.00149  -0.01177   1.37550
   D16       -1.75924  -0.00001  -0.01022  -0.00082  -0.01104  -1.77027
   D17       -2.92675  -0.00003  -0.01020  -0.00137  -0.01157  -2.93833
   D18        0.20992  -0.00003  -0.01015  -0.00070  -0.01084   0.19908
   D19        3.03690   0.00005   0.01289   0.00024   0.01306   3.04995
   D20        0.14787  -0.00003  -0.01861  -0.00204  -0.02057   0.12730
   D21       -0.10964   0.00005   0.01295   0.00092   0.01379  -0.09585
   D22       -2.99867  -0.00003  -0.01855  -0.00136  -0.01984  -3.01850
   D23       -2.97070  -0.00006  -0.04223  -0.00053  -0.04272  -3.01342
   D24       -0.86051   0.00001  -0.04356  -0.00015  -0.04368  -0.90419
   D25        1.20473  -0.00008  -0.04462   0.00036  -0.04422   1.16051
   D26       -0.06776   0.00001  -0.01263   0.00163  -0.01104  -0.07879
   D27        2.04243   0.00008  -0.01397   0.00201  -0.01199   2.03043
   D28       -2.17551  -0.00001  -0.01502   0.00252  -0.01253  -2.18805
   D29        0.02985  -0.00005   0.00746  -0.00194   0.00552   0.03537
   D30       -3.11374  -0.00000   0.00536  -0.00057   0.00480  -3.10895
   D31       -2.10250  -0.00001   0.00793  -0.00232   0.00561  -2.09688
   D32        1.03709   0.00004   0.00583  -0.00095   0.00489   1.04198
   D33        2.16306  -0.00002   0.00723  -0.00230   0.00492   2.16798
   D34       -0.98054   0.00003   0.00513  -0.00093   0.00420  -0.97634
   D35       -3.13573  -0.00000   0.00336  -0.00126   0.00210  -3.13363
   D36        0.00389   0.00004   0.00129   0.00009   0.00138   0.00527
         Item               Value     Threshold  Converged?
 Maximum Force            0.000573     0.000450     NO 
 RMS     Force            0.000115     0.000300     YES
 Maximum Displacement     0.081913     0.001800     NO 
 RMS     Displacement     0.029712     0.001200     NO 
 Predicted change in Energy=-4.474806D-06
 Lowest energy point so far.  Saving SCF results.
 GradGradGradGradGradGradGradGradGradGradGradGradGradGradGradGradGradGrad

 Leave Link  103 at Fri Mar 14 14:26:15 2025, MaxMem=  8589934592 cpu:               1.5 elap:               0.4
 (Enter /home/enzo/gaussian_versions/gdv.j21/gdv/l202.exe)
                          Input orientation:                          
 ---------------------------------------------------------------------
 Center     Atomic      Atomic             Coordinates (Angstroms)
 Number     Number       Type             X           Y           Z
 ---------------------------------------------------------------------
      1          6           0       -2.508923    1.491780   -1.010785
      2          6           0       -1.672425    0.889356    0.117676
      3         16           0       -2.675555   -0.164007    1.270326
      4          6           0       -0.526898    0.038619   -0.439702
      5          8           0       -0.702194   -0.767289   -1.347706
      6          7           0        0.691082    0.238935    0.132414
      7          6           0        1.824540   -0.580971   -0.227877
      8          6           0        2.983468   -0.254313    0.688562
      9          8           0        2.941758    0.542007    1.601808
     10          8           0        4.081360   -0.965199    0.367449
     11          1           0       -3.362583    2.041486   -0.606011
     12          1           0       -1.898643    2.179125   -1.610176
     13          1           0       -2.870712    0.700140   -1.672061
     14          1           0       -1.281637    1.680654    0.766698
     15          1           0       -2.916587   -1.136984    0.364936
     16          1           0        0.807704    0.826846    0.948727
     17          1           0        1.588851   -1.650704   -0.148529
     18          1           0        2.127182   -0.414025   -1.269259
     19          1           0        4.777294   -0.707577    1.001348
 ---------------------------------------------------------------------
                    Distance matrix (angstroms):
                    1          2          3          4          5
     1  C    0.000000
     2  C    1.528420   0.000000
     3  S    2.823626   1.855922   0.000000
     4  C    2.523141   1.531881   2.753540   0.000000
     5  O    2.912246   2.415195   3.333496   1.226657   0.000000
     6  N    3.621679   2.451414   3.576514   1.360485   2.268140
     7  C    4.867047   3.809204   4.761232   2.440906   2.770039
     8  C    6.008576   4.828171   5.689565   3.698845   4.241891
     9  O    6.118630   4.859422   5.671202   4.056197   4.867471
    10  O    7.167155   6.050439   6.863891   4.784891   5.085599
    11  H    1.093048   2.169737   2.976046   3.475665   3.939162
    12  H    1.097340   2.167983   3.793567   2.798832   3.190883
    13  H    1.093101   2.162141   3.072862   2.729429   2.638375
    14  H    2.168260   1.095489   2.366310   2.172858   3.286165
    15  H    2.994862   2.390635   1.350745   2.782104   2.823713
    16  H    3.909199   2.616408   3.635699   2.080913   3.177210
    17  H    5.235498   4.142305   4.733769   2.723047   2.732643
    18  H    5.019200   4.249636   5.438592   2.817301   2.852423
    19  H    7.872408   6.702981   7.477484   5.546880   5.962081
                    6          7          8          9         10
     6  N    0.000000
     7  C    1.444570   0.000000
     8  C    2.409902   1.513168   0.000000
     9  O    2.704905   2.420124   1.212388   0.000000
    10  O    3.605436   2.365435   1.346789   2.256990   0.000000
    11  H    4.497406   5.824647   6.871607   6.845993   8.087031
    12  H    3.675273   4.836421   5.919529   6.035435   7.039760
    13  H    4.019355   5.076643   6.383960   6.672932   7.433994
    14  H    2.524379   3.968937   4.684157   4.453200   5.993469
    15  H    3.868139   4.810288   5.974487   6.218446   7.000056
    16  H    1.012723   2.097690   2.443469   2.249852   3.777054
    17  H    2.110841   1.098260   2.143731   3.114806   2.636049
    18  H    2.110314   1.097242   2.142848   3.133777   2.607953
    19  H    4.283463   3.200903   1.876458   2.300262   0.975972
                   11         12         13         14         15
    11  H    0.000000
    12  H    1.780565   0.000000
    13  H    1.782585   1.770916   0.000000
    14  H    2.518902   2.505734   3.071500   0.000000
    15  H    3.353255   3.991724   2.743444   3.282310   0.000000
    16  H    4.613443   3.962443   4.518332   2.264391   4.250622
    17  H    6.193404   5.382064   5.266433   4.491690   4.563609
    18  H    6.050368   4.800825   5.136395   4.489192   5.350969
    19  H    8.740627   7.727952   8.223185   6.516851   7.732090
                   16         17         18         19
    16  H    0.000000
    17  H    2.820003   0.000000
    18  H    2.863608   1.753628   0.000000
    19  H    4.256157   3.518221   3.502132   0.000000
 Stoichiometry    C5H9NO3S
 Framework group  C1[X(C5H9NO3S)]
 Deg. of freedom    51
 Full point group                 C1      NOp   1
 RotChk:  IX=3 Diff= 1.32D-02
 Largest Abelian subgroup         C1      NOp   1
 Largest concise Abelian subgroup C1      NOp   1
                         Standard orientation:                         
 ---------------------------------------------------------------------
 Center     Atomic      Atomic             Coordinates (Angstroms)
 Number     Number       Type             X           Y           Z
 ---------------------------------------------------------------------
      1          6           0        2.897999   -0.959726    1.109323
      2          6           0        1.895377    0.074359    0.597968
      3         16           0        2.642951    1.255538   -0.622849
      4          6           0        0.692015   -0.605194   -0.062931
      5          8           0        0.827127   -1.530149   -0.857217
      6          7           0       -0.528952   -0.120877    0.291461
      7          6           0       -1.732333   -0.601874   -0.346737
      8          6           0       -2.905738    0.235320    0.113593
      9          8           0       -2.828492    1.181846    0.867255
     10          8           0       -4.062010   -0.199305   -0.423040
     11          1           0        3.783848   -0.467421    1.518789
     12          1           0        2.441302   -1.574906    1.894904
     13          1           0        3.198795   -1.623909    0.294920
     14          1           0        1.566927    0.724083    1.416550
     15          1           0        2.819353    0.331213   -1.591879
     16          1           0       -0.629091    0.708074    0.864541
     17          1           0       -1.655873   -0.549775   -1.441093
     18          1           0       -1.921810   -1.655539   -0.106262
     19          1           0       -4.764931    0.389277   -0.088385
 ---------------------------------------------------------------------
 Rotational constants (GHZ):           2.3463884           0.4757646           0.4475021
 Leave Link  202 at Fri Mar 14 14:26:15 2025, MaxMem=  8589934592 cpu:               0.3 elap:               0.2
 (Enter /home/enzo/gaussian_versions/gdv.j21/gdv/l301.exe)
 Standard basis: 6-31G(d) (6D, 7F)
 Ernie: Thresh=  0.10000D-02 Tol=  0.10000D-05 Strict=F.
 There are   172 symmetry adapted cartesian basis functions of A   symmetry.
 There are   172 symmetry adapted basis functions of A   symmetry.
   172 basis functions,   340 primitive gaussians,   172 cartesian basis functions
    43 alpha electrons       43 beta electrons
       nuclear repulsion energy       610.5471675364 Hartrees.
 IExCor=      4002 DFT=T Ex+Corr=B3LYP ScaHFX=  0.200000
 ScaDFX=  0.800000  0.720000  1.000000  0.810000  1.000000  0.000000
 ScaDFX=  0.000000  0.000000  0.000000  0.000000  0.000000  0.000000
 IRadAn=      5 IRanWt=     -1 IRanGd=            0 ICorTp=0 IEmpDi=  4
 NAtoms=   19 NActive=   19 NUniq=   19 SFac= 1.00D+00 NAtFMM=   60 NAOKFM=F Big=F
 Integral buffers will be    131072 words long.
 Raffenetti 2 integral format.
 Two-electron integral symmetry is turned on.
 Leave Link  301 at Fri Mar 14 14:26:16 2025, MaxMem=  8589934592 cpu:               0.6 elap:               0.3
 (Enter /home/enzo/gaussian_versions/gdv.j21/gdv/l302.exe)
 NPDir=0 NMtPBC=     1 NCelOv=     1 NCel=       1 NClECP=     1 NCelD=      1
         NCelK=      1 NCelE2=     1 NClLst=     1 CellRange=     0.0.
 One-electron integrals computed using PRISM.
 One-electron integral symmetry used in STVInt
 NBasis=   172 RedAO= T EigKep=  2.54D-03  NBF=   172
 NBsUse=   172 1.00D-06 EigRej= -1.00D+00 NBFU=   172
 Precomputing XC quadrature grid using
 IXCGrd= 4 IRadAn=           5 IRanWt=          -1 IRanGd=           0 AccXCQ= 0.00D+00.
 Generated NRdTot=       0 NPtTot=      408548 NUsed=           0 NTot=          64
 NSgBfM=   171   171   171   171   171 MxSgAt=    19 MxSgA2=    19 SizInc=   0.000
 NMBTot=     3518 MaxBatPerAtom=       85 MaxMicBPerAtom=      206 NBfPt=            50006964.
 Leave Link  302 at Fri Mar 14 14:26:16 2025, MaxMem=  8589934592 cpu:               2.7 elap:               0.5
 (Enter /home/enzo/gaussian_versions/gdv.j21/gdv/l303.exe)
 DipDrv:  MaxL=1.
 Leave Link  303 at Fri Mar 14 14:26:17 2025, MaxMem=  8589934592 cpu:               1.3 elap:               0.4
 (Enter /home/enzo/gaussian_versions/gdv.j21/gdv/l401.exe)
 Initial guess from the checkpoint file:  "/local/home/enzo/scratch/Gau-2270961.chk"
 B after Tr=    -0.000000    0.000000   -0.000000
         Rot=    0.999992    0.003390    0.001395    0.001339 Ang=   0.45 deg.
 AO Guess basis will be translated and rotated to current coordinates.
 JPrj=2 DoOrth=T DoCkMO=T.
 Generating alternative initial guess.
 ExpMin= 1.17D-01 ExpMax= 2.19D+04 ExpMxC= 3.30D+03 IAcc=3 IRadAn=         5 AccDes= 0.00D+00
 Harris functional with IExCor= 4002 and IRadAn=       5 diagonalized for initial guess.
 HarFok:  IExCor=    4002 AccDes= 0.00D+00 IRadAn=         5 IDoV= 1 UseB2=F ITyADJ=14 ICtDFT=  3500011
 FoFCou: FMM=F IPFlag=           0 FMFlag=      100000 FMFlg1=           0
         NFxFlg=           0 DoJE=T BraDBF=F KetDBF=T FulRan=T
         wScrn=  0.000000 ICntrl=       500 IOpCl=  0 I1Cent=   200000004 NGrid=           0
         NMat0=    1 NMatS0=      1 NMatT0=    0 NMatD0=    1 NMtDS0=    0 NMtDT0=    0
 Petite list used in FoFCou.
 Harris En= -874.549747182662    
 Leave Link  401 at Fri Mar 14 14:26:18 2025, MaxMem=  8589934592 cpu:               7.4 elap:               1.1
 (Enter /home/enzo/gaussian_versions/gdv.j21/gdv/l502.exe)
 Integral symmetry usage will be decided dynamically.
 Closed shell SCF:
 Using DIIS extrapolation, IDIIS=  1040.
 NGot=  8589934592 LenX=  8589843591 LenY=  8589813566
 Requested convergence on RMS density matrix=1.00D-08 within 128 cycles.
 Requested convergence on MAX density matrix=1.00D-06.
 Requested convergence on             energy=1.00D-06.
 No special actions if energy rises.
 Fock matrices will be formed incrementally for  20 cycles.
 Integral accuracy reduced to 1.0D-05 until final iterations.

 Cycle   1  Pass 0  IDiag  1:
 FoFJK:  IHMeth= 1 ICntrl=       0 DoSepK=F KAlg= 0 I1Cent=           0 FoldK=F
 IRaf= 890000000 NMat=       1 IRICut=       1 DoRegI=T DoRafI=F ISym2E= 0 IDoP0=0 IntGTp=1.
 FoFCou: FMM=F IPFlag=           0 FMFlag=      100000 FMFlg1=           0
         NFxFlg=           0 DoJE=F BraDBF=F KetDBF=F FulRan=T
         wScrn=  0.000000 ICntrl=         0 IOpCl=  0 I1Cent=           0 NGrid=           0
         NMat0=    1 NMatS0=      1 NMatT0=    0 NMatD0=    1 NMtDS0=    0 NMtDT0=    0
 Symmetry not used in FoFCou.
 E= -874.588087173838    
 DIIS: error= 1.05D-03 at cycle   1 NSaved=   1.
 NSaved= 1 IEnMin= 1 EnMin= -874.588087173838     IErMin= 1 ErrMin= 1.05D-03
 ErrMax= 1.05D-03  0.00D+00 EMaxC= 1.00D-01 BMatC= 5.01D-04 BMatP= 5.01D-04
 IDIUse=3 WtCom= 9.90D-01 WtEn= 1.05D-02
 Coeff-Com:  0.100D+01
 Coeff-En:   0.100D+01
 Coeff:      0.100D+01
 Gap=     1.612 Goal=   None    Shift=    0.000
 GapD=    1.612 DampG=2.000 DampE=1.000 DampFc=2.0000 IDamp=-1.
 RMSDP=2.35D-04 MaxDP=4.92D-03              OVMax= 7.58D-03

 Cycle   2  Pass 0  IDiag  1:
 RMSU=  2.35D-04    CP:  1.00D+00
 E= -874.589134258394     Delta-E=       -0.001047084556 Rises=F Damp=F
 DIIS: error= 1.40D-04 at cycle   2 NSaved=   2.
 NSaved= 2 IEnMin= 2 EnMin= -874.589134258394     IErMin= 2 ErrMin= 1.40D-04
 ErrMax= 1.40D-04  0.00D+00 EMaxC= 1.00D-01 BMatC= 7.17D-06 BMatP= 5.01D-04
 IDIUse=3 WtCom= 9.99D-01 WtEn= 1.40D-03
 Coeff-Com: -0.773D-01 0.108D+01
 Coeff-En:   0.000D+00 0.100D+01
 Coeff:     -0.772D-01 0.108D+01
 Gap=     0.225 Goal=   None    Shift=    0.000
 RMSDP=3.50D-05 MaxDP=5.07D-04 DE=-1.05D-03 OVMax= 1.40D-03

 Cycle   3  Pass 0  IDiag  1:
 RMSU=  2.82D-05    CP:  1.00D+00  1.09D+00
 E= -874.589147780222     Delta-E=       -0.000013521827 Rises=F Damp=F
 DIIS: error= 4.64D-05 at cycle   3 NSaved=   3.
 NSaved= 3 IEnMin= 3 EnMin= -874.589147780222     IErMin= 3 ErrMin= 4.64D-05
 ErrMax= 4.64D-05  0.00D+00 EMaxC= 1.00D-01 BMatC= 1.17D-06 BMatP= 7.17D-06
 IDIUse=1 WtCom= 1.00D+00 WtEn= 0.00D+00
 Coeff-Com: -0.277D-01 0.331D+00 0.697D+00
 Coeff:     -0.277D-01 0.331D+00 0.697D+00
 Gap=     0.225 Goal=   None    Shift=    0.000
 RMSDP=1.17D-05 MaxDP=3.56D-04 DE=-1.35D-05 OVMax= 4.01D-04

 Cycle   4  Pass 0  IDiag  1:
 RMSU=  9.22D-06    CP:  1.00D+00  1.10D+00  7.76D-01
 E= -874.589148522279     Delta-E=       -0.000000742057 Rises=F Damp=F
 DIIS: error= 4.44D-05 at cycle   4 NSaved=   4.
 NSaved= 4 IEnMin= 4 EnMin= -874.589148522279     IErMin= 4 ErrMin= 4.44D-05
 ErrMax= 4.44D-05  0.00D+00 EMaxC= 1.00D-01 BMatC= 5.68D-07 BMatP= 1.17D-06
 IDIUse=1 WtCom= 1.00D+00 WtEn= 0.00D+00
 Coeff-Com: -0.116D-01 0.128D+00 0.429D+00 0.455D+00
 Coeff:     -0.116D-01 0.128D+00 0.429D+00 0.455D+00
 Gap=     0.225 Goal=   None    Shift=    0.000
 RMSDP=4.40D-06 MaxDP=1.80D-04 DE=-7.42D-07 OVMax= 2.98D-04

 Initial convergence to 1.0D-05 achieved.  Increase integral accuracy.
 Cycle   5  Pass 1  IDiag  1:
 E= -874.589147419972     Delta-E=        0.000001102307 Rises=F Damp=F
 DIIS: error= 1.75D-05 at cycle   1 NSaved=   1.
 NSaved= 1 IEnMin= 1 EnMin= -874.589147419972     IErMin= 1 ErrMin= 1.75D-05
 ErrMax= 1.75D-05  0.00D+00 EMaxC= 1.00D-01 BMatC= 8.12D-08 BMatP= 8.12D-08
 IDIUse=1 WtCom= 1.00D+00 WtEn= 0.00D+00
 Coeff-Com:  0.100D+01
 Coeff:      0.100D+01
 Gap=     0.225 Goal=   None    Shift=    0.000
 RMSDP=4.40D-06 MaxDP=1.80D-04 DE= 1.10D-06 OVMax= 2.65D-04

 Cycle   6  Pass 1  IDiag  1:
 RMSU=  5.46D-06    CP:  1.00D+00
 E= -874.589147276268     Delta-E=        0.000000143704 Rises=F Damp=F
 DIIS: error= 4.08D-05 at cycle   2 NSaved=   2.
 NSaved= 2 IEnMin= 1 EnMin= -874.589147419972     IErMin= 1 ErrMin= 1.75D-05
 ErrMax= 4.08D-05  0.00D+00 EMaxC= 1.00D-01 BMatC= 2.81D-07 BMatP= 8.12D-08
 IDIUse=1 WtCom= 1.00D+00 WtEn= 0.00D+00
 Coeff-Com:  0.663D+00 0.337D+00
 Coeff:      0.663D+00 0.337D+00
 Gap=     0.225 Goal=   None    Shift=    0.000
 RMSDP=2.53D-06 MaxDP=1.05D-04 DE= 1.44D-07 OVMax= 2.04D-04

 Cycle   7  Pass 1  IDiag  1:
 RMSU=  2.02D-06    CP:  1.00D+00  7.23D-01
 E= -874.589147486788     Delta-E=       -0.000000210520 Rises=F Damp=F
 DIIS: error= 4.75D-06 at cycle   3 NSaved=   3.
 NSaved= 3 IEnMin= 3 EnMin= -874.589147486788     IErMin= 3 ErrMin= 4.75D-06
 ErrMax= 4.75D-06  0.00D+00 EMaxC= 1.00D-01 BMatC= 3.54D-09 BMatP= 8.12D-08
 IDIUse=1 WtCom= 1.00D+00 WtEn= 0.00D+00
 Coeff-Com:  0.744D-01 0.114D+00 0.812D+00
 Coeff:      0.744D-01 0.114D+00 0.812D+00
 Gap=     0.225 Goal=   None    Shift=    0.000
 RMSDP=4.75D-07 MaxDP=1.46D-05 DE=-2.11D-07 OVMax= 2.21D-05

 Cycle   8  Pass 1  IDiag  1:
 RMSU=  4.30D-07    CP:  1.00D+00  7.51D-01  9.34D-01
 E= -874.589147489225     Delta-E=       -0.000000002437 Rises=F Damp=F
 DIIS: error= 8.46D-07 at cycle   4 NSaved=   4.
 NSaved= 4 IEnMin= 4 EnMin= -874.589147489225     IErMin= 4 ErrMin= 8.46D-07
 ErrMax= 8.46D-07  0.00D+00 EMaxC= 1.00D-01 BMatC= 4.89D-10 BMatP= 3.54D-09
 IDIUse=1 WtCom= 1.00D+00 WtEn= 0.00D+00
 Coeff-Com: -0.146D-02 0.371D-01 0.400D+00 0.564D+00
 Coeff:     -0.146D-02 0.371D-01 0.400D+00 0.564D+00
 Gap=     0.225 Goal=   None    Shift=    0.000
 RMSDP=1.82D-07 MaxDP=4.66D-06 DE=-2.44D-09 OVMax= 5.89D-06

 Cycle   9  Pass 1  IDiag  1:
 RMSU=  9.80D-08    CP:  1.00D+00  7.55D-01  9.39D-01  6.49D-01
 E= -874.589147489673     Delta-E=       -0.000000000448 Rises=F Damp=F
 DIIS: error= 4.75D-07 at cycle   5 NSaved=   5.
 NSaved= 5 IEnMin= 5 EnMin= -874.589147489673     IErMin= 5 ErrMin= 4.75D-07
 ErrMax= 4.75D-07  0.00D+00 EMaxC= 1.00D-01 BMatC= 5.63D-11 BMatP= 4.89D-10
 IDIUse=1 WtCom= 1.00D+00 WtEn= 0.00D+00
 Coeff-Com: -0.527D-02 0.161D-01 0.197D+00 0.335D+00 0.458D+00
 Coeff:     -0.527D-02 0.161D-01 0.197D+00 0.335D+00 0.458D+00
 Gap=     0.225 Goal=   None    Shift=    0.000
 RMSDP=4.90D-08 MaxDP=1.58D-06 DE=-4.48D-10 OVMax= 2.69D-06

 Cycle  10  Pass 1  IDiag  1:
 RMSU=  4.00D-08    CP:  1.00D+00  7.56D-01  9.40D-01  6.49D-01  7.19D-01
 E= -874.589147489717     Delta-E=       -0.000000000044 Rises=F Damp=F
 DIIS: error= 1.55D-07 at cycle   6 NSaved=   6.
 NSaved= 6 IEnMin= 6 EnMin= -874.589147489717     IErMin= 6 ErrMin= 1.55D-07
 ErrMax= 1.55D-07  0.00D+00 EMaxC= 1.00D-01 BMatC= 6.68D-12 BMatP= 5.63D-11
 IDIUse=1 WtCom= 1.00D+00 WtEn= 0.00D+00
 Coeff-Com: -0.316D-02 0.436D-02 0.620D-01 0.123D+00 0.275D+00 0.538D+00
 Coeff:     -0.316D-02 0.436D-02 0.620D-01 0.123D+00 0.275D+00 0.538D+00
 Gap=     0.225 Goal=   None    Shift=    0.000
 RMSDP=1.93D-08 MaxDP=5.98D-07 DE=-4.41D-11 OVMax= 1.12D-06

 Cycle  11  Pass 1  IDiag  1:
 RMSU=  1.55D-08    CP:  1.00D+00  7.56D-01  9.41D-01  6.56D-01  7.83D-01
                    CP:  7.72D-01
 E= -874.589147489717     Delta-E=        0.000000000001 Rises=F Damp=F
 DIIS: error= 5.15D-08 at cycle   7 NSaved=   7.
 NSaved= 7 IEnMin= 6 EnMin= -874.589147489717     IErMin= 7 ErrMin= 5.15D-08
 ErrMax= 5.15D-08  0.00D+00 EMaxC= 1.00D-01 BMatC= 8.07D-13 BMatP= 6.68D-12
 IDIUse=1 WtCom= 1.00D+00 WtEn= 0.00D+00
 Coeff-Com: -0.453D-03-0.116D-02-0.101D-01-0.951D-02 0.402D-01 0.280D+00
 Coeff-Com:  0.701D+00
 Coeff:     -0.453D-03-0.116D-02-0.101D-01-0.951D-02 0.402D-01 0.280D+00
 Coeff:      0.701D+00
 Gap=     0.225 Goal=   None    Shift=    0.000
 RMSDP=7.47D-09 MaxDP=1.98D-07 DE= 9.09D-13 OVMax= 4.18D-07

 SCF Done:  E(RB3LYP) =  -874.589147490     A.U. after   11 cycles
            NFock= 11  Conv=0.75D-08     -V/T= 2.0064
 KE= 8.690191065989D+02 PE=-3.280842700739D+03 EE= 9.266872791143D+02
 Leave Link  502 at Fri Mar 14 14:26:25 2025, MaxMem=  8589934592 cpu:              63.4 elap:               7.0
 (Enter /home/enzo/gaussian_versions/gdv.j21/gdv/l701.exe)
 ... and contract with generalized density number  0.
 Compute integral first derivatives.
 Leave Link  701 at Fri Mar 14 14:26:25 2025, MaxMem=  8589934592 cpu:               2.7 elap:               0.5
 (Enter /home/enzo/gaussian_versions/gdv.j21/gdv/l702.exe)
 L702 exits ... SP integral derivatives will be done elsewhere.
 Leave Link  702 at Fri Mar 14 14:26:26 2025, MaxMem=  8589934592 cpu:               0.1 elap:               0.2
 (Enter /home/enzo/gaussian_versions/gdv.j21/gdv/l703.exe)
 Integral derivatives from FoFJK, PRISM(SPDF).
 Compute integral first derivatives, UseDBF=F ICtDFT=           0.
 Calling FoFJK, ICntrl=      2127 FMM=F ISym2X=0 I1Cent= 0 IOpClX= 0 NMat=1 NMatS=1 NMatT=0.
 FoFJK:  IHMeth= 1 ICntrl=    2127 DoSepK=F KAlg= 0 I1Cent=           0 FoldK=F
 IRaf=         0 NMat=       1 IRICut=       1 DoRegI=T DoRafI=F ISym2E= 0 IDoP0=0 IntGTp=1.
 FoFCou: FMM=F IPFlag=           0 FMFlag=      100000 FMFlg1=         800
         NFxFlg=           0 DoJE=F BraDBF=F KetDBF=F FulRan=T
         wScrn=  0.000000 ICntrl=      2127 IOpCl=  0 I1Cent=           0 NGrid=           0
         NMat0=    1 NMatS0=      1 NMatT0=    0 NMatD0=    1 NMtDS0=    0 NMtDT0=    0
 Symmetry not used in FoFCou.
 Leave Link  703 at Fri Mar 14 14:26:28 2025, MaxMem=  8589934592 cpu:              15.1 elap:               2.0
 (Enter /home/enzo/gaussian_versions/gdv.j21/gdv/l716.exe)
 Dipole        =-9.83229690D-01 3.20445981D-02 4.77256815D-01
 ***** Axes restored to original set *****
 -------------------------------------------------------------------
 Center     Atomic                   Forces (Hartrees/Bohr)
 Number     Number              X              Y              Z
 -------------------------------------------------------------------
      1        6           0.000050948   -0.000022859    0.000038843
      2        6          -0.000053833    0.000031159   -0.000001068
      3       16          -0.000028543    0.000017231    0.000014458
      4        6           0.000279477    0.000022551    0.000074453
      5        8           0.000050607   -0.000058223   -0.000020442
      6        7          -0.000091123   -0.000016469    0.000067412
      7        6          -0.000252341    0.000017636   -0.000080152
      8        6          -0.000125575    0.000086431    0.000110164
      9        8           0.000018624   -0.000008693   -0.000059916
     10        8           0.000045058   -0.000051275   -0.000041488
     11        1          -0.000009365    0.000001413   -0.000008662
     12        1          -0.000002696   -0.000002362   -0.000007172
     13        1          -0.000011804    0.000001622   -0.000007747
     14        1           0.000002755   -0.000007505    0.000031803
     15        1           0.000013887   -0.000004356   -0.000007952
     16        1           0.000033729   -0.000032010   -0.000085806
     17        1           0.000019080    0.000007035   -0.000016344
     18        1           0.000068087    0.000012743   -0.000004321
     19        1          -0.000006972    0.000005931    0.000003939
 -------------------------------------------------------------------
 Cartesian Forces:  Max     0.000279477 RMS     0.000065768
 Leave Link  716 at Fri Mar 14 14:26:28 2025, MaxMem=  8589934592 cpu:               0.2 elap:               0.3
 (Enter /home/enzo/gaussian_versions/gdv.j21/gdv/l103.exe)

 GradGradGradGradGradGradGradGradGradGradGradGradGradGradGradGradGradGrad
 Berny optimization.
 Using GEDIIS/GDIIS optimizer.
 FormGI is forming the generalized inverse of G from B-inverse, IUseBI=4.
 Internal  Forces:  Max     0.000303954 RMS     0.000055702
 Search for a local minimum.
 Step number  18 out of a maximum of   93
 All quantities printed in internal units (Hartrees-Bohrs-Radians)
 RMS Force = .55702D-04 SwitMx=.10000D-02 MixMth= 2
 Mixed Optimization -- En-DIIS/RFO-DIIS
 Swapping is turned off.
 Update second derivatives using D2CorX and points   14   15   16   17   18
 DE= -4.72D-06 DEPred=-4.47D-06 R= 1.05D+00
 TightC=F SS=  1.41D+00  RLast= 9.13D-02 DXNew= 2.4000D+00 2.7400D-01
 Trust test= 1.05D+00 RLast= 9.13D-02 DXMaxT set to 1.43D+00
 ITU=  1  1  1  1  1  1  1  1  1  1  1  1  1  0  1  1  1  0
     Eigenvalues ---    0.00103   0.00159   0.00437   0.00488   0.00533
     Eigenvalues ---    0.00862   0.01400   0.02090   0.04177   0.04561
     Eigenvalues ---    0.04875   0.05203   0.05649   0.05734   0.05838
     Eigenvalues ---    0.06743   0.08083   0.09691   0.13426   0.15614
     Eigenvalues ---    0.15790   0.15995   0.16034   0.16087   0.17505
     Eigenvalues ---    0.17732   0.19483   0.21614   0.22285   0.22550
     Eigenvalues ---    0.24114   0.24684   0.25246   0.26612   0.28348
     Eigenvalues ---    0.30240   0.31507   0.32582   0.32601   0.32620
     Eigenvalues ---    0.32640   0.32651   0.32921   0.35767   0.38326
     Eigenvalues ---    0.40980   0.45411   0.47289   0.55654   0.78498
     Eigenvalues ---    0.80338
 En-DIIS/RFO-DIIS/Sim-DIIS IScMMF=       -3 using points:    18   17   16   15   14   13   12   11   10
 RFO step:  Lambda=-1.37906133D-06.
 NNeg= 0 NGDIIS= 9 SimSw=  2.50D-01 Rises=F DC= -4.72D-06 SmlDif=  1.00D-05
 NRisDI= 0 DoIntr=F SqrtH=F CThrHd= 10.0 CDAdj=  3.0
 RMS Error=  0.2008277997D-02 NUsed= 9 OKEnD=F EnDIS=F
 InvSVX:  RCond= 6.69D-07 Info=           0 Equed=N FErr=  3.50D-12 BErr=  5.14D-17
 DidBck=FF Rises=F RFO-DIIS coefs:    1.88263   -0.40510   -0.56699    0.05776    0.04464
                   RFO-DIIS coefs:    0.09149   -0.10830   -0.04701    0.05090
 Iteration  1 RMS(Cart)=  0.00882646 RMS(Int)=  0.00023859
 Iteration  2 RMS(Cart)=  0.00004582 RMS(Int)=  0.00023728
 Iteration  3 RMS(Cart)=  0.00000000 RMS(Int)=  0.00023728
 Variable       Old X    -DE/DX   Delta X   Delta X   Delta X     New X
                                 (Linear)    (Quad)   (Total)
    R1        2.88829  -0.00003  -0.00029   0.00011  -0.00018   2.88812
    R2        2.06556   0.00000  -0.00000   0.00003   0.00002   2.06558
    R3        2.07367   0.00000   0.00006  -0.00004   0.00002   2.07369
    R4        2.06566   0.00001   0.00009  -0.00006   0.00003   2.06569
    R5        3.50718   0.00000   0.00066  -0.00054   0.00012   3.50731
    R6        2.89484   0.00006   0.00062  -0.00034   0.00028   2.89511
    R7        2.07017   0.00001   0.00007  -0.00002   0.00004   2.07022
    R8        2.55254   0.00001  -0.00000   0.00002   0.00002   2.55256
    R9        2.31805   0.00005   0.00028  -0.00016   0.00012   2.31817
   R10        2.57094  -0.00030  -0.00070  -0.00012  -0.00082   2.57013
   R11        2.72984  -0.00020  -0.00099   0.00040  -0.00058   2.72926
   R12        1.91377  -0.00008  -0.00032   0.00012  -0.00020   1.91357
   R13        2.85947  -0.00004   0.00029  -0.00029  -0.00001   2.85947
   R14        2.07541  -0.00001  -0.00003  -0.00016  -0.00020   2.07521
   R15        2.07349   0.00002   0.00008   0.00013   0.00022   2.07370
   R16        2.29108  -0.00005  -0.00018   0.00006  -0.00011   2.29097
   R17        2.54506   0.00006   0.00067  -0.00039   0.00028   2.54534
   R18        1.84432  -0.00000  -0.00002   0.00001  -0.00001   1.84431
    A1        1.93076   0.00001   0.00020  -0.00001   0.00018   1.93095
    A2        1.92388   0.00000  -0.00003   0.00007   0.00004   1.92392
    A3        1.92021   0.00001   0.00019  -0.00010   0.00009   1.92030
    A4        1.89822  -0.00001   0.00003  -0.00008  -0.00004   1.89818
    A5        1.90684  -0.00001  -0.00022   0.00001  -0.00020   1.90663
    A6        1.88311  -0.00001  -0.00019   0.00011  -0.00009   1.88302
    A7        1.96756  -0.00000   0.00026  -0.00027  -0.00001   1.96755
    A8        1.93855  -0.00005  -0.00038   0.00009  -0.00029   1.93826
    A9        1.92618   0.00002   0.00044  -0.00016   0.00028   1.92646
   A10        1.89121   0.00004   0.00042  -0.00023   0.00020   1.89141
   A11        1.80784  -0.00002  -0.00013   0.00007  -0.00006   1.80778
   A12        1.92832   0.00001  -0.00062   0.00051  -0.00011   1.92821
   A13        1.65990  -0.00003  -0.00020  -0.00007  -0.00027   1.65963
   A14        2.12626   0.00005  -0.00004   0.00020   0.00016   2.12642
   A15        2.02049   0.00004   0.00026   0.00007   0.00033   2.02081
   A16        2.13644  -0.00009  -0.00022  -0.00027  -0.00049   2.13594
   A17        2.11063  -0.00018  -0.00095   0.00039  -0.00179   2.10884
   A18        2.12649   0.00012   0.00179  -0.00016   0.00039   2.12688
   A19        2.02659   0.00006   0.00089  -0.00004  -0.00041   2.02619
   A20        1.90431  -0.00011  -0.00005  -0.00050  -0.00055   1.90377
   A21        1.94597   0.00003  -0.00023  -0.00023  -0.00046   1.94550
   A22        1.94634   0.00008   0.00124   0.00029   0.00152   1.94786
   A23        1.90803   0.00003   0.00027   0.00037   0.00064   1.90867
   A24        1.90786  -0.00001  -0.00154   0.00027  -0.00127   1.90659
   A25        1.85039  -0.00001   0.00025  -0.00016   0.00011   1.85049
   A26        2.17931   0.00003   0.00060  -0.00040   0.00020   2.17951
   A27        1.94551  -0.00004  -0.00036   0.00015  -0.00021   1.94530
   A28        2.15836   0.00001  -0.00024   0.00025   0.00001   2.15838
   A29        1.86199  -0.00002   0.00012  -0.00024  -0.00012   1.86187
    D1        0.94902  -0.00001   0.00045   0.00015   0.00060   0.94961
    D2        3.07532   0.00001   0.00091  -0.00027   0.00064   3.07596
    D3       -1.06304   0.00000   0.00017   0.00033   0.00050  -1.06254
    D4        3.04911  -0.00000   0.00060   0.00009   0.00069   3.04980
    D5       -1.10777   0.00001   0.00106  -0.00033   0.00073  -1.10704
    D6        1.03705   0.00000   0.00032   0.00027   0.00059   1.03764
    D7       -1.15943  -0.00001   0.00046   0.00021   0.00067  -1.15876
    D8        0.96687   0.00001   0.00092  -0.00021   0.00071   0.96758
    D9        3.11169   0.00000   0.00019   0.00038   0.00057   3.11226
   D10        1.18813  -0.00001   0.00305  -0.00011   0.00294   1.19107
   D11       -0.96472   0.00003   0.00305   0.00012   0.00317  -0.96154
   D12       -3.01294   0.00001   0.00363  -0.00040   0.00324  -3.00971
   D13       -0.79474  -0.00001  -0.00245  -0.00016  -0.00261  -0.79734
   D14        2.34267  -0.00001  -0.00264  -0.00074  -0.00338   2.33929
   D15        1.37550  -0.00001  -0.00208  -0.00060  -0.00267   1.37283
   D16       -1.77027  -0.00002  -0.00227  -0.00117  -0.00345  -1.77372
   D17       -2.93833  -0.00001  -0.00232  -0.00037  -0.00269  -2.94101
   D18        0.19908  -0.00001  -0.00251  -0.00095  -0.00346   0.19562
   D19        3.04995   0.00001  -0.00304   0.00064  -0.00232   3.04763
   D20        0.12730   0.00001   0.00801  -0.00037   0.00755   0.13485
   D21       -0.09585   0.00000  -0.00325   0.00007  -0.00310  -0.09895
   D22       -3.01850   0.00000   0.00780  -0.00095   0.00678  -3.01173
   D23       -3.01342  -0.00000   0.01759   0.00009   0.01765  -2.99577
   D24       -0.90419  -0.00002   0.01776   0.00006   0.01780  -0.88640
   D25        1.16051   0.00004   0.01876  -0.00010   0.01863   1.17915
   D26       -0.07879   0.00001   0.00739   0.00102   0.00843  -0.07036
   D27        2.03043  -0.00001   0.00755   0.00100   0.00858   2.03901
   D28       -2.18805   0.00005   0.00855   0.00084   0.00941  -2.17863
   D29        0.03537  -0.00003  -0.00259  -0.00103  -0.00362   0.03175
   D30       -3.10895  -0.00001  -0.00028  -0.00208  -0.00236  -3.11131
   D31       -2.09688  -0.00002  -0.00245  -0.00066  -0.00311  -2.09999
   D32        1.04198  -0.00000  -0.00014  -0.00171  -0.00185   1.04013
   D33        2.16798  -0.00001  -0.00207  -0.00082  -0.00289   2.16509
   D34       -0.97634   0.00000   0.00024  -0.00187  -0.00163  -0.97797
   D35       -3.13363  -0.00001  -0.00076   0.00013  -0.00063  -3.13427
   D36        0.00527   0.00001   0.00151  -0.00091   0.00061   0.00588
         Item               Value     Threshold  Converged?
 Maximum Force            0.000304     0.000450     YES
 RMS     Force            0.000056     0.000300     YES
 Maximum Displacement     0.028790     0.001800     NO 
 RMS     Displacement     0.008834     0.001200     NO 
 Predicted change in Energy=-9.058062D-08
 Lowest energy point so far.  Saving SCF results.
 GradGradGradGradGradGradGradGradGradGradGradGradGradGradGradGradGradGrad

 Leave Link  103 at Fri Mar 14 14:26:28 2025, MaxMem=  8589934592 cpu:               0.6 elap:               0.3
 (Enter /home/enzo/gaussian_versions/gdv.j21/gdv/l202.exe)
                          Input orientation:                          
 ---------------------------------------------------------------------
 Center     Atomic      Atomic             Coordinates (Angstroms)
 Number     Number       Type             X           Y           Z
 ---------------------------------------------------------------------
      1          6           0       -2.511372    1.488288   -1.010808
      2          6           0       -1.671755    0.890612    0.117735
      3         16           0       -2.670828   -0.161601    1.275053
      4          6           0       -0.525538    0.040655   -0.439824
      5          8           0       -0.701390   -0.769913   -1.343648
      6          7           0        0.693775    0.247394    0.126105
      7          6           0        1.825811   -0.573924   -0.234200
      8          6           0        2.980733   -0.257601    0.690876
      9          8           0        2.937912    0.534973    1.607244
     10          8           0        4.077124   -0.972264    0.372403
     11          1           0       -3.365123    2.037984   -0.606182
     12          1           0       -1.903346    2.174664   -1.613603
     13          1           0       -2.873394    0.694137   -1.668965
     14          1           0       -1.281141    1.684249    0.764037
     15          1           0       -2.908066   -1.139196    0.373629
     16          1           0        0.811422    0.834443    0.942761
     17          1           0        1.585298   -1.643101   -0.163764
     18          1           0        2.136292   -0.401014   -1.272418
     19          1           0        4.770670   -0.720906    1.011404
 ---------------------------------------------------------------------
                    Distance matrix (angstroms):
                    1          2          3          4          5
     1  C    0.000000
     2  C    1.528326   0.000000
     3  S    2.823600   1.855986   0.000000
     4  C    2.522935   1.532029   2.753902   0.000000
     5  O    2.913124   2.415490   3.332615   1.226720   0.000000
     6  N    3.620132   2.451435   3.578814   1.360052   2.267503
     7  C    4.864874   3.808109   4.761052   2.439023   2.766953
     8  C    6.008916   4.826234   5.682484   3.696130   4.237898
     9  O    6.120270   4.857381   5.661584   4.053434   4.863641
    10  O    7.167696   6.048535   6.856151   4.782281   5.081335
    11  H    1.093059   2.169795   2.976452   3.475664   3.940003
    12  H    1.097348   2.167938   3.793613   2.798232   3.191882
    13  H    1.093118   2.162137   3.072550   2.729516   2.639485
    14  H    2.168396   1.095512   2.366333   2.172928   3.286542
    15  H    2.996281   2.390412   1.350755   2.780323   2.820431
    16  H    3.909592   2.617249   3.637112   2.080650   3.176511
    17  H    5.225494   4.136102   4.730713   2.714199   2.717264
    18  H    5.023811   4.254650   5.445670   2.823760   2.862446
    19  H    7.873882   6.700782   7.467143   5.543993   5.957525
                    6          7          8          9         10
     6  N    0.000000
     7  C    1.444260   0.000000
     8  C    2.409183   1.513166   0.000000
     9  O    2.704187   2.420193   1.212327   0.000000
    10  O    3.604896   2.365386   1.346937   2.257077   0.000000
    11  H    4.496344   5.822906   6.871824   6.847375   8.087414
    12  H    3.672328   4.833643   5.922902   6.041541   7.043677
    13  H    4.018278   5.074353   6.383217   6.673092   7.433288
    14  H    2.524244   3.968498   4.683984   4.453341   5.993450
    15  H    3.867448   4.806098   5.962869   6.204846   6.987184
    16  H    1.012618   2.097074   2.441704   2.247928   3.775488
    17  H    2.110168   1.098156   2.144122   3.116094   2.635658
    18  H    2.111197   1.097357   2.142001   3.132270   2.607410
    19  H    4.282806   3.200832   1.876503   2.300273   0.975967
                   11         12         13         14         15
    11  H    0.000000
    12  H    1.780554   0.000000
    13  H    1.782479   1.770881   0.000000
    14  H    2.519049   2.506156   3.071659   0.000000
    15  H    3.356100   3.992521   2.744905   3.281943   0.000000
    16  H    4.614246   3.962469   4.518703   2.265598   4.248971
    17  H    6.184884   5.371034   5.254355   4.488714   4.553353
    18  H    6.054597   4.803040   5.143302   4.491583   5.357231
    19  H    8.741807   7.734175   8.223043   6.516930   7.716522
                   16         17         18         19
    16  H    0.000000
    17  H    2.821614   0.000000
    18  H    2.861582   1.753707   0.000000
    19  H    4.254346   3.518247   3.501160   0.000000
 Stoichiometry    C5H9NO3S
 Framework group  C1[X(C5H9NO3S)]
 Deg. of freedom    51
 Full point group                 C1      NOp   1
 RotChk:  IX=3 Diff= 2.89D-03
 Largest Abelian subgroup         C1      NOp   1
 Largest concise Abelian subgroup C1      NOp   1
                         Standard orientation:                         
 ---------------------------------------------------------------------
 Center     Atomic      Atomic             Coordinates (Angstroms)
 Number     Number       Type             X           Y           Z
 ---------------------------------------------------------------------
      1          6           0        2.901723   -0.962345    1.100911
      2          6           0        1.895943    0.072461    0.597557
      3         16           0        2.637767    1.260282   -0.620418
      4          6           0        0.691457   -0.606381   -0.062365
      5          8           0        0.825448   -1.525912   -0.863209
      6          7           0       -0.529127   -0.128923    0.300887
      7          6           0       -1.731887   -0.609008   -0.338468
      8          6           0       -2.903181    0.235654    0.113510
      9          8           0       -2.825008    1.183931    0.864774
     10          8           0       -4.059207   -0.195672   -0.426677
     11          1           0        3.788011   -0.470719    1.510272
     12          1           0        2.448347   -1.582231    1.884725
     13          1           0        3.201401   -1.622034    0.282431
     14          1           0        1.568965    0.718099    1.419981
     15          1           0        2.808596    0.341142   -1.595374
     16          1           0       -0.629978    0.699240    0.874794
     17          1           0       -1.651026   -0.563478   -1.432696
     18          1           0       -1.928061   -1.660340   -0.092684
     19          1           0       -4.760834    0.397207   -0.096942
 ---------------------------------------------------------------------
 Rotational constants (GHZ):           2.3436362           0.4765488           0.4479145
 Leave Link  202 at Fri Mar 14 14:26:28 2025, MaxMem=  8589934592 cpu:               0.2 elap:               0.2
 (Enter /home/enzo/gaussian_versions/gdv.j21/gdv/l301.exe)
 Standard basis: 6-31G(d) (6D, 7F)
 Ernie: Thresh=  0.10000D-02 Tol=  0.10000D-05 Strict=F.
 There are   172 symmetry adapted cartesian basis functions of A   symmetry.
 There are   172 symmetry adapted basis functions of A   symmetry.
   172 basis functions,   340 primitive gaussians,   172 cartesian basis functions
    43 alpha electrons       43 beta electrons
       nuclear repulsion energy       610.6643032858 Hartrees.
 IExCor=      4002 DFT=T Ex+Corr=B3LYP ScaHFX=  0.200000
 ScaDFX=  0.800000  0.720000  1.000000  0.810000  1.000000  0.000000
 ScaDFX=  0.000000  0.000000  0.000000  0.000000  0.000000  0.000000
 IRadAn=      5 IRanWt=     -1 IRanGd=            0 ICorTp=0 IEmpDi=  4
 NAtoms=   19 NActive=   19 NUniq=   19 SFac= 1.00D+00 NAtFMM=   60 NAOKFM=F Big=F
 Integral buffers will be    131072 words long.
 Raffenetti 2 integral format.
 Two-electron integral symmetry is turned on.
 Leave Link  301 at Fri Mar 14 14:26:29 2025, MaxMem=  8589934592 cpu:               0.8 elap:               0.2
 (Enter /home/enzo/gaussian_versions/gdv.j21/gdv/l302.exe)
 NPDir=0 NMtPBC=     1 NCelOv=     1 NCel=       1 NClECP=     1 NCelD=      1
         NCelK=      1 NCelE2=     1 NClLst=     1 CellRange=     0.0.
 One-electron integrals computed using PRISM.
 One-electron integral symmetry used in STVInt
 NBasis=   172 RedAO= T EigKep=  2.55D-03  NBF=   172
 NBsUse=   172 1.00D-06 EigRej= -1.00D+00 NBFU=   172
 Precomputing XC quadrature grid using
 IXCGrd= 4 IRadAn=           5 IRanWt=          -1 IRanGd=           0 AccXCQ= 0.00D+00.
 Generated NRdTot=       0 NPtTot=      408599 NUsed=           0 NTot=          64
 NSgBfM=   171   171   171   171   171 MxSgAt=    19 MxSgA2=    19 SizInc=   0.000
 NMBTot=     3516 MaxBatPerAtom=       85 MaxMicBPerAtom=      208 NBfPt=            50001547.
 Leave Link  302 at Fri Mar 14 14:26:29 2025, MaxMem=  8589934592 cpu:               3.1 elap:               0.5
 (Enter /home/enzo/gaussian_versions/gdv.j21/gdv/l303.exe)
 DipDrv:  MaxL=1.
 Leave Link  303 at Fri Mar 14 14:26:29 2025, MaxMem=  8589934592 cpu:               0.6 elap:               0.2
 (Enter /home/enzo/gaussian_versions/gdv.j21/gdv/l401.exe)
 Initial guess from the checkpoint file:  "/local/home/enzo/scratch/Gau-2270961.chk"
 B after Tr=     0.000000   -0.000000   -0.000000
         Rot=    0.999999   -0.001094   -0.000241   -0.000138 Ang=  -0.13 deg.
 AO Guess basis will be translated and rotated to current coordinates.
 JPrj=2 DoOrth=T DoCkMO=T.
 Generating alternative initial guess.
 ExpMin= 1.17D-01 ExpMax= 2.19D+04 ExpMxC= 3.30D+03 IAcc=3 IRadAn=         5 AccDes= 0.00D+00
 Harris functional with IExCor= 4002 and IRadAn=       5 diagonalized for initial guess.
 HarFok:  IExCor=    4002 AccDes= 0.00D+00 IRadAn=         5 IDoV= 1 UseB2=F ITyADJ=14 ICtDFT=  3500011
 FoFCou: FMM=F IPFlag=           0 FMFlag=      100000 FMFlg1=           0
         NFxFlg=           0 DoJE=T BraDBF=F KetDBF=T FulRan=T
         wScrn=  0.000000 ICntrl=       500 IOpCl=  0 I1Cent=   200000004 NGrid=           0
         NMat0=    1 NMatS0=      1 NMatT0=    0 NMatD0=    1 NMtDS0=    0 NMtDT0=    0
 Petite list used in FoFCou.
 Harris En= -874.549709340649    
 Leave Link  401 at Fri Mar 14 14:26:31 2025, MaxMem=  8589934592 cpu:               8.1 elap:               1.2
 (Enter /home/enzo/gaussian_versions/gdv.j21/gdv/l502.exe)
 Integral symmetry usage will be decided dynamically.
 Closed shell SCF:
 Using DIIS extrapolation, IDIIS=  1040.
 NGot=  8589934592 LenX=  8589843591 LenY=  8589813566
 Requested convergence on RMS density matrix=1.00D-08 within 128 cycles.
 Requested convergence on MAX density matrix=1.00D-06.
 Requested convergence on             energy=1.00D-06.
 No special actions if energy rises.
 Fock matrices will be formed incrementally for  20 cycles.
 Integral accuracy reduced to 1.0D-05 until final iterations.

 Cycle   1  Pass 0  IDiag  1:
 FoFJK:  IHMeth= 1 ICntrl=       0 DoSepK=F KAlg= 0 I1Cent=           0 FoldK=F
 IRaf= 890000000 NMat=       1 IRICut=       1 DoRegI=T DoRafI=F ISym2E= 0 IDoP0=0 IntGTp=1.
 FoFCou: FMM=F IPFlag=           0 FMFlag=      100000 FMFlg1=           0
         NFxFlg=           0 DoJE=F BraDBF=F KetDBF=F FulRan=T
         wScrn=  0.000000 ICntrl=         0 IOpCl=  0 I1Cent=           0 NGrid=           0
         NMat0=    1 NMatS0=      1 NMatT0=    0 NMatD0=    1 NMtDS0=    0 NMtDT0=    0
 Symmetry not used in FoFCou.
 E= -874.589028183217    
 DIIS: error= 3.65D-04 at cycle   1 NSaved=   1.
 NSaved= 1 IEnMin= 1 EnMin= -874.589028183217     IErMin= 1 ErrMin= 3.65D-04
 ErrMax= 3.65D-04  0.00D+00 EMaxC= 1.00D-01 BMatC= 5.80D-05 BMatP= 5.80D-05
 IDIUse=3 WtCom= 9.96D-01 WtEn= 3.65D-03
 Coeff-Com:  0.100D+01
 Coeff-En:   0.100D+01
 Coeff:      0.100D+01
 Gap=     1.612 Goal=   None    Shift=    0.000
 RMSDP=8.17D-05 MaxDP=1.61D-03              OVMax= 2.89D-03

 Cycle   2  Pass 0  IDiag  1:
 RMSU=  8.17D-05    CP:  1.00D+00
 E= -874.589148658003     Delta-E=       -0.000120474785 Rises=F Damp=F
 DIIS: error= 4.91D-05 at cycle   2 NSaved=   2.
 NSaved= 2 IEnMin= 2 EnMin= -874.589148658003     IErMin= 2 ErrMin= 4.91D-05
 ErrMax= 4.91D-05  0.00D+00 EMaxC= 1.00D-01 BMatC= 9.71D-07 BMatP= 5.80D-05
 IDIUse=1 WtCom= 1.00D+00 WtEn= 0.00D+00
 Coeff-Com: -0.741D-01 0.107D+01
 Coeff:     -0.741D-01 0.107D+01
 Gap=     0.226 Goal=   None    Shift=    0.000
 RMSDP=1.32D-05 MaxDP=2.23D-04 DE=-1.20D-04 OVMax= 4.57D-04

 Cycle   3  Pass 0  IDiag  1:
 RMSU=  1.08D-05    CP:  1.00D+00  1.09D+00
 E= -874.589150162262     Delta-E=       -0.000001504259 Rises=F Damp=F
 DIIS: error= 3.16D-05 at cycle   3 NSaved=   3.
 NSaved= 3 IEnMin= 3 EnMin= -874.589150162262     IErMin= 3 ErrMin= 3.16D-05
 ErrMax= 3.16D-05  0.00D+00 EMaxC= 1.00D-01 BMatC= 3.58D-07 BMatP= 9.71D-07
 IDIUse=1 WtCom= 1.00D+00 WtEn= 0.00D+00
 Coeff-Com: -0.356D-01 0.433D+00 0.603D+00
 Coeff:     -0.356D-01 0.433D+00 0.603D+00
 Gap=     0.225 Goal=   None    Shift=    0.000
 RMSDP=4.98D-06 MaxDP=1.40D-04 DE=-1.50D-06 OVMax= 2.80D-04

 Initial convergence to 1.0D-05 achieved.  Increase integral accuracy.
 Cycle   4  Pass 1  IDiag  1:
 E= -874.589148146208     Delta-E=        0.000002016054 Rises=F Damp=F
 DIIS: error= 3.09D-05 at cycle   1 NSaved=   1.
 NSaved= 1 IEnMin= 1 EnMin= -874.589148146208     IErMin= 1 ErrMin= 3.09D-05
 ErrMax= 3.09D-05  0.00D+00 EMaxC= 1.00D-01 BMatC= 2.13D-07 BMatP= 2.13D-07
 IDIUse=1 WtCom= 1.00D+00 WtEn= 0.00D+00
 Coeff-Com:  0.100D+01
 Coeff:      0.100D+01
 Gap=     0.226 Goal=   None    Shift=    0.000
 RMSDP=4.98D-06 MaxDP=1.40D-04 DE= 2.02D-06 OVMax= 4.52D-04

 Cycle   5  Pass 1  IDiag  1:
 RMSU=  7.90D-06    CP:  1.00D+00
 E= -874.589147582067     Delta-E=        0.000000564141 Rises=F Damp=F
 DIIS: error= 7.16D-05 at cycle   2 NSaved=   2.
 NSaved= 2 IEnMin= 1 EnMin= -874.589148146208     IErMin= 1 ErrMin= 3.09D-05
 ErrMax= 7.16D-05  0.00D+00 EMaxC= 1.00D-01 BMatC= 9.58D-07 BMatP= 2.13D-07
 IDIUse=1 WtCom= 1.00D+00 WtEn= 0.00D+00
 Coeff-Com:  0.684D+00 0.316D+00
 Coeff:      0.684D+00 0.316D+00
 Gap=     0.225 Goal=   None    Shift=    0.000
 RMSDP=4.56D-06 MaxDP=1.62D-04 DE= 5.64D-07 OVMax= 3.25D-04

 Cycle   6  Pass 1  IDiag  1:
 RMSU=  2.62D-06    CP:  1.00D+00  5.28D-01
 E= -874.589148314694     Delta-E=       -0.000000732627 Rises=F Damp=F
 DIIS: error= 2.58D-06 at cycle   3 NSaved=   3.
 NSaved= 3 IEnMin= 3 EnMin= -874.589148314694     IErMin= 3 ErrMin= 2.58D-06
 ErrMax= 2.58D-06  0.00D+00 EMaxC= 1.00D-01 BMatC= 3.31D-09 BMatP= 2.13D-07
 IDIUse=1 WtCom= 1.00D+00 WtEn= 0.00D+00
 Coeff-Com:  0.155D+00 0.928D-01 0.752D+00
 Coeff:      0.155D+00 0.928D-01 0.752D+00
 Gap=     0.225 Goal=   None    Shift=    0.000
 RMSDP=5.19D-07 MaxDP=1.41D-05 DE=-7.33D-07 OVMax= 1.67D-05

 Cycle   7  Pass 1  IDiag  1:
 RMSU=  4.92D-07    CP:  1.00D+00  5.43D-01  9.58D-01
 E= -874.589148315633     Delta-E=       -0.000000000939 Rises=F Damp=F
 DIIS: error= 2.01D-06 at cycle   4 NSaved=   4.
 NSaved= 4 IEnMin= 4 EnMin= -874.589148315633     IErMin= 4 ErrMin= 2.01D-06
 ErrMax= 2.01D-06  0.00D+00 EMaxC= 1.00D-01 BMatC= 2.18D-09 BMatP= 3.31D-09
 IDIUse=1 WtCom= 1.00D+00 WtEn= 0.00D+00
 Coeff-Com: -0.129D-02 0.131D-01 0.478D+00 0.510D+00
 Coeff:     -0.129D-02 0.131D-01 0.478D+00 0.510D+00
 Gap=     0.225 Goal=   None    Shift=    0.000
 RMSDP=2.43D-07 MaxDP=7.35D-06 DE=-9.39D-10 OVMax= 7.87D-06

 Cycle   8  Pass 1  IDiag  1:
 RMSU=  9.91D-08    CP:  1.00D+00  5.45D-01  9.82D-01  5.70D-01
 E= -874.589148317348     Delta-E=       -0.000000001714 Rises=F Damp=F
 DIIS: error= 3.48D-07 at cycle   5 NSaved=   5.
 NSaved= 5 IEnMin= 5 EnMin= -874.589148317348     IErMin= 5 ErrMin= 3.48D-07
 ErrMax= 3.48D-07  0.00D+00 EMaxC= 1.00D-01 BMatC= 4.48D-11 BMatP= 2.18D-09
 IDIUse=1 WtCom= 1.00D+00 WtEn= 0.00D+00
 Coeff-Com: -0.436D-02 0.440D-02 0.221D+00 0.259D+00 0.519D+00
 Coeff:     -0.436D-02 0.440D-02 0.221D+00 0.259D+00 0.519D+00
 Gap=     0.225 Goal=   None    Shift=    0.000
 RMSDP=5.03D-08 MaxDP=1.19D-06 DE=-1.71D-09 OVMax= 1.84D-06

 Cycle   9  Pass 1  IDiag  1:
 RMSU=  4.28D-08    CP:  1.00D+00  5.46D-01  9.83D-01  5.68D-01  7.48D-01
 E= -874.589148317374     Delta-E=       -0.000000000026 Rises=F Damp=F
 DIIS: error= 2.00D-07 at cycle   6 NSaved=   6.
 NSaved= 6 IEnMin= 6 EnMin= -874.589148317374     IErMin= 6 ErrMin= 2.00D-07
 ErrMax= 2.00D-07  0.00D+00 EMaxC= 1.00D-01 BMatC= 9.56D-12 BMatP= 4.48D-11
 IDIUse=1 WtCom= 1.00D+00 WtEn= 0.00D+00
 Coeff-Com: -0.245D-02 0.748D-03 0.627D-01 0.810D-01 0.328D+00 0.530D+00
 Coeff:     -0.245D-02 0.748D-03 0.627D-01 0.810D-01 0.328D+00 0.530D+00
 Gap=     0.225 Goal=   None    Shift=    0.000
 RMSDP=1.99D-08 MaxDP=5.52D-07 DE=-2.61D-11 OVMax= 1.07D-06

 Cycle  10  Pass 1  IDiag  1:
 RMSU=  1.52D-08    CP:  1.00D+00  5.46D-01  9.84D-01  5.69D-01  8.41D-01
                    CP:  8.04D-01
 E= -874.589148317384     Delta-E=       -0.000000000010 Rises=F Damp=F
 DIIS: error= 5.41D-08 at cycle   7 NSaved=   7.
 NSaved= 7 IEnMin= 7 EnMin= -874.589148317384     IErMin= 7 ErrMin= 5.41D-08
 ErrMax= 5.41D-08  0.00D+00 EMaxC= 1.00D-01 BMatC= 1.18D-12 BMatP= 9.56D-12
 IDIUse=1 WtCom= 1.00D+00 WtEn= 0.00D+00
 Coeff-Com: -0.759D-03-0.263D-03 0.147D-02 0.658D-02 0.113D+00 0.312D+00
 Coeff-Com:  0.568D+00
 Coeff:     -0.759D-03-0.263D-03 0.147D-02 0.658D-02 0.113D+00 0.312D+00
 Coeff:      0.568D+00
 Gap=     0.225 Goal=   None    Shift=    0.000
 RMSDP=8.96D-09 MaxDP=2.00D-07 DE=-1.00D-11 OVMax= 5.23D-07

 SCF Done:  E(RB3LYP) =  -874.589148317     A.U. after   10 cycles
            NFock= 10  Conv=0.90D-08     -V/T= 2.0064
 KE= 8.690212215113D+02 PE=-3.281077972239D+03 EE= 9.268032991246D+02
 Leave Link  502 at Fri Mar 14 14:26:36 2025, MaxMem=  8589934592 cpu:              54.2 elap:               5.5
 (Enter /home/enzo/gaussian_versions/gdv.j21/gdv/l701.exe)
 ... and contract with generalized density number  0.
 Compute integral first derivatives.
 Leave Link  701 at Fri Mar 14 14:26:37 2025, MaxMem=  8589934592 cpu:               3.5 elap:               0.6
 (Enter /home/enzo/gaussian_versions/gdv.j21/gdv/l702.exe)
 L702 exits ... SP integral derivatives will be done elsewhere.
 Leave Link  702 at Fri Mar 14 14:26:37 2025, MaxMem=  8589934592 cpu:               0.2 elap:               0.2
 (Enter /home/enzo/gaussian_versions/gdv.j21/gdv/l703.exe)
 Integral derivatives from FoFJK, PRISM(SPDF).
 Compute integral first derivatives, UseDBF=F ICtDFT=           0.
 Calling FoFJK, ICntrl=      2127 FMM=F ISym2X=0 I1Cent= 0 IOpClX= 0 NMat=1 NMatS=1 NMatT=0.
 FoFJK:  IHMeth= 1 ICntrl=    2127 DoSepK=F KAlg= 0 I1Cent=           0 FoldK=F
 IRaf=         0 NMat=       1 IRICut=       1 DoRegI=T DoRafI=F ISym2E= 0 IDoP0=0 IntGTp=1.
 FoFCou: FMM=F IPFlag=           0 FMFlag=      100000 FMFlg1=         800
         NFxFlg=           0 DoJE=F BraDBF=F KetDBF=F FulRan=T
         wScrn=  0.000000 ICntrl=      2127 IOpCl=  0 I1Cent=           0 NGrid=           0
         NMat0=    1 NMatS0=      1 NMatT0=    0 NMatD0=    1 NMtDS0=    0 NMtDT0=    0
 Symmetry not used in FoFCou.
 Leave Link  703 at Fri Mar 14 14:26:39 2025, MaxMem=  8589934592 cpu:              14.2 elap:               1.7
 (Enter /home/enzo/gaussian_versions/gdv.j21/gdv/l716.exe)
 Dipole        =-9.81779476D-01 2.75055872D-02 4.80249517D-01
 ***** Axes restored to original set *****
 -------------------------------------------------------------------
 Center     Atomic                   Forces (Hartrees/Bohr)
 Number     Number              X              Y              Z
 -------------------------------------------------------------------
      1        6           0.000001594    0.000010684   -0.000018769
      2        6           0.000005707   -0.000046837    0.000032579
      3       16           0.000017806   -0.000001020   -0.000025992
      4        6          -0.000155269    0.000038076   -0.000053110
      5        8          -0.000052293    0.000000413   -0.000009644
      6        7           0.000050711   -0.000063686    0.000035713
      7        6           0.000114897   -0.000045193    0.000066401
      8        6           0.000057366   -0.000034378   -0.000052776
      9        8           0.000007807    0.000023911    0.000022691
     10        8          -0.000024053    0.000000577    0.000033734
     11        1          -0.000000501    0.000000152    0.000002341
     12        1          -0.000000758    0.000004974   -0.000000857
     13        1          -0.000001185   -0.000004460    0.000003817
     14        1           0.000000662   -0.000002911   -0.000007965
     15        1          -0.000008880    0.000000340   -0.000000571
     16        1           0.000003259    0.000072392    0.000008023
     17        1          -0.000006727    0.000013336   -0.000028337
     18        1          -0.000020619    0.000027910   -0.000003786
     19        1           0.000010477    0.000005720   -0.000003492
 -------------------------------------------------------------------
 Cartesian Forces:  Max     0.000155269 RMS     0.000037829
 Leave Link  716 at Fri Mar 14 14:26:39 2025, MaxMem=  8589934592 cpu:               0.1 elap:               0.2
 (Enter /home/enzo/gaussian_versions/gdv.j21/gdv/l103.exe)

 GradGradGradGradGradGradGradGradGradGradGradGradGradGradGradGradGradGrad
 Berny optimization.
 Using GEDIIS/GDIIS optimizer.
 FormGI is forming the generalized inverse of G from B-inverse, IUseBI=4.
 Internal  Forces:  Max     0.000204425 RMS     0.000034305
 Search for a local minimum.
 Step number  19 out of a maximum of   93
 All quantities printed in internal units (Hartrees-Bohrs-Radians)
 RMS Force = .34305D-04 SwitMx=.10000D-02 MixMth= 2
 Mixed Optimization -- En-DIIS/RFO-DIIS
 Swapping is turned off.
 Update second derivatives using D2CorX and points   14   15   16   17   18
                                                     19
 DE= -8.28D-07 DEPred=-9.06D-08 R= 9.14D+00
 Trust test= 9.14D+00 RLast= 3.83D-02 DXMaxT set to 1.43D+00
 ITU=  0  1  1  1  1  1  1  1  1  1  1  1  1  1  0  1  1  1  0
     Eigenvalues ---    0.00100   0.00145   0.00375   0.00443   0.00515
     Eigenvalues ---    0.00728   0.01445   0.02130   0.04166   0.04526
     Eigenvalues ---    0.04876   0.05234   0.05649   0.05734   0.05981
     Eigenvalues ---    0.06759   0.08138   0.09690   0.13360   0.15602
     Eigenvalues ---    0.15780   0.15996   0.16026   0.16098   0.17594
     Eigenvalues ---    0.17617   0.19639   0.21574   0.22267   0.22963
     Eigenvalues ---    0.24105   0.24856   0.25195   0.26616   0.28151
     Eigenvalues ---    0.30223   0.31821   0.32511   0.32598   0.32613
     Eigenvalues ---    0.32636   0.32656   0.32949   0.36377   0.38304
     Eigenvalues ---    0.41105   0.45721   0.47273   0.53937   0.78529
     Eigenvalues ---    0.80533
 En-DIIS/RFO-DIIS/Sim-DIIS IScMMF=       -3 using points:    19   18   17   16   15   14   13   12   11   10
 RFO step:  Lambda=-9.34543790D-07.
 NNeg= 0 NGDIIS=10 SimSw=  2.50D-01 Rises=F DC= -8.28D-07 SmlDif=  1.00D-05
 NRisDI= 0 DoIntr=F SqrtH=F CThrHd= 10.0 CDAdj=  3.0
 RMS Error=  0.2098852385D-02 NUsed=10 OKEnD=F EnDIS=F
 InvSVX:  RCond= 5.83D-08 Info=           0 Equed=N FErr=  3.81D-11 BErr=  9.43D-17
 DIIS inversion failure, remove point  10.
 InvSVX:  RCond= 8.77D-08 Info=           0 Equed=N FErr=  1.26D-11 BErr=  5.60D-17
 DIIS inversion failure, remove point   9.
 InvSVX:  RCond= 1.10D-07 Info=           0 Equed=N FErr=  7.20D-12 BErr=  4.83D-17
 RFO-DIIS uses    8 points instead of   10
 DidBck=FF Rises=F RFO-DIIS coefs:    2.09832   -0.99701   -0.38865    0.17568    0.24035
                   RFO-DIIS coefs:   -0.19703    0.00947    0.05888    0.00000    0.00000
 Iteration  1 RMS(Cart)=  0.01379892 RMS(Int)=  0.00024305
 Iteration  2 RMS(Cart)=  0.00009569 RMS(Int)=  0.00023696
 Iteration  3 RMS(Cart)=  0.00000000 RMS(Int)=  0.00023696
 Variable       Old X    -DE/DX   Delta X   Delta X   Delta X     New X
                                 (Linear)    (Quad)   (Total)
    R1        2.88812   0.00002   0.00002   0.00011   0.00013   2.88825
    R2        2.06558   0.00000  -0.00000   0.00001   0.00001   2.06559
    R3        2.07369   0.00000   0.00003   0.00001   0.00003   2.07372
    R4        2.06569   0.00000  -0.00004   0.00006   0.00002   2.06571
    R5        3.50731  -0.00002  -0.00001  -0.00016  -0.00017   3.50714
    R6        2.89511  -0.00004  -0.00001  -0.00013  -0.00014   2.89498
    R7        2.07022  -0.00001  -0.00004   0.00002  -0.00002   2.07020
    R8        2.55256   0.00000  -0.00013   0.00010  -0.00003   2.55253
    R9        2.31817   0.00001   0.00006   0.00000   0.00006   2.31822
   R10        2.57013   0.00020  -0.00009   0.00047   0.00038   2.57051
   R11        2.72926   0.00011   0.00003   0.00011   0.00014   2.72939
   R12        1.91357   0.00005  -0.00005   0.00007   0.00002   1.91359
   R13        2.85947   0.00004   0.00008   0.00009   0.00017   2.85964
   R14        2.07521  -0.00001  -0.00012   0.00012   0.00000   2.07522
   R15        2.07370   0.00000  -0.00001  -0.00008  -0.00008   2.07362
   R16        2.29097   0.00003  -0.00005   0.00008   0.00003   2.29100
   R17        2.54534  -0.00002   0.00001  -0.00009  -0.00008   2.54526
   R18        1.84431   0.00001  -0.00009   0.00011   0.00002   1.84433
    A1        1.93095  -0.00000   0.00012  -0.00012  -0.00001   1.93094
    A2        1.92392   0.00001   0.00028  -0.00011   0.00018   1.92410
    A3        1.92030  -0.00001  -0.00004  -0.00003  -0.00007   1.92023
    A4        1.89818  -0.00000  -0.00016   0.00008  -0.00008   1.89810
    A5        1.90663   0.00000  -0.00027   0.00014  -0.00013   1.90650
    A6        1.88302   0.00000   0.00007   0.00004   0.00011   1.88314
    A7        1.96755  -0.00000  -0.00017   0.00008  -0.00009   1.96746
    A8        1.93826   0.00000  -0.00035   0.00002  -0.00033   1.93793
    A9        1.92646  -0.00000   0.00018  -0.00015   0.00004   1.92649
   A10        1.89141  -0.00000   0.00023  -0.00018   0.00006   1.89146
   A11        1.80778   0.00001   0.00007   0.00007   0.00015   1.80793
   A12        1.92821  -0.00000   0.00007   0.00015   0.00022   1.92844
   A13        1.65963   0.00001  -0.00029   0.00009  -0.00020   1.65943
   A14        2.12642  -0.00005  -0.00026  -0.00010  -0.00035   2.12607
   A15        2.02081  -0.00001   0.00034  -0.00035  -0.00001   2.02081
   A16        2.13594   0.00007  -0.00009   0.00045   0.00036   2.13630
   A17        2.10884   0.00010  -0.00024   0.00062   0.00162   2.11045
   A18        2.12688  -0.00006  -0.00007  -0.00034   0.00084   2.12772
   A19        2.02619  -0.00003  -0.00008  -0.00020   0.00097   2.02715
   A20        1.90377   0.00007   0.00024   0.00014   0.00039   1.90415
   A21        1.94550  -0.00002  -0.00003   0.00018   0.00014   1.94565
   A22        1.94786  -0.00004  -0.00037  -0.00060  -0.00096   1.94690
   A23        1.90867  -0.00000  -0.00053   0.00028  -0.00025   1.90842
   A24        1.90659  -0.00001   0.00040   0.00019   0.00058   1.90717
   A25        1.85049   0.00001   0.00030  -0.00018   0.00011   1.85060
   A26        2.17951  -0.00000  -0.00025   0.00027   0.00002   2.17953
   A27        1.94530   0.00002   0.00007   0.00001   0.00009   1.94538
   A28        2.15838  -0.00002   0.00017  -0.00028  -0.00010   2.15827
   A29        1.86187   0.00001  -0.00036   0.00039   0.00003   1.86190
    D1        0.94961   0.00000   0.00074  -0.00022   0.00052   0.95013
    D2        3.07596  -0.00000   0.00066  -0.00037   0.00028   3.07625
    D3       -1.06254  -0.00000   0.00064  -0.00027   0.00037  -1.06218
    D4        3.04980   0.00000   0.00079  -0.00026   0.00053   3.05033
    D5       -1.10704  -0.00000   0.00071  -0.00042   0.00029  -1.10675
    D6        1.03764  -0.00000   0.00069  -0.00031   0.00037   1.03802
    D7       -1.15876   0.00001   0.00103  -0.00029   0.00074  -1.15803
    D8        0.96758   0.00000   0.00095  -0.00045   0.00050   0.96808
    D9        3.11226  -0.00000   0.00093  -0.00034   0.00058   3.11285
   D10        1.19107  -0.00001   0.00190  -0.00149   0.00041   1.19148
   D11       -0.96154  -0.00001   0.00230  -0.00144   0.00086  -0.96069
   D12       -3.00971  -0.00001   0.00208  -0.00158   0.00050  -3.00920
   D13       -0.79734  -0.00001  -0.00596  -0.00073  -0.00668  -0.80403
   D14        2.33929  -0.00001  -0.00564  -0.00054  -0.00618   2.33311
   D15        1.37283  -0.00001  -0.00625  -0.00073  -0.00698   1.36585
   D16       -1.77372  -0.00001  -0.00594  -0.00054  -0.00648  -1.78020
   D17       -2.94101  -0.00001  -0.00600  -0.00066  -0.00666  -2.94767
   D18        0.19562  -0.00000  -0.00568  -0.00047  -0.00616   0.18947
   D19        3.04763   0.00000   0.00672  -0.00029   0.00639   3.05402
   D20        0.13485  -0.00003  -0.01209  -0.00068  -0.01272   0.12213
   D21       -0.09895   0.00000   0.00704  -0.00010   0.00689  -0.09205
   D22       -3.01173  -0.00003  -0.01177  -0.00049  -0.01222  -3.02395
   D23       -2.99577  -0.00002  -0.01871  -0.00029  -0.01895  -3.01472
   D24       -0.88640   0.00001  -0.01924   0.00027  -0.01892  -0.90532
   D25        1.17915  -0.00002  -0.01913  -0.00023  -0.01932   1.15982
   D26       -0.07036   0.00000  -0.00092   0.00005  -0.00091  -0.07128
   D27        2.03901   0.00004  -0.00145   0.00062  -0.00088   2.03813
   D28       -2.17863   0.00000  -0.00134   0.00011  -0.00128  -2.17992
   D29        0.03175   0.00000   0.00031  -0.00070  -0.00039   0.03137
   D30       -3.11131  -0.00000  -0.00038  -0.00034  -0.00071  -3.11202
   D31       -2.09999  -0.00001   0.00054  -0.00119  -0.00065  -2.10064
   D32        1.04013  -0.00002  -0.00015  -0.00082  -0.00097   1.03916
   D33        2.16509  -0.00001   0.00028  -0.00123  -0.00096   2.16413
   D34       -0.97797  -0.00002  -0.00041  -0.00087  -0.00129  -0.97926
   D35       -3.13427  -0.00001   0.00089  -0.00102  -0.00013  -3.13440
   D36        0.00588  -0.00001   0.00021  -0.00066  -0.00045   0.00543
         Item               Value     Threshold  Converged?
 Maximum Force            0.000204     0.000450     YES
 RMS     Force            0.000034     0.000300     YES
 Maximum Displacement     0.035012     0.001800     NO 
 RMS     Displacement     0.013798     0.001200     NO 
 Predicted change in Energy=-1.939120D-07
 Lowest energy point so far.  Saving SCF results.
 GradGradGradGradGradGradGradGradGradGradGradGradGradGradGradGradGradGrad

 Leave Link  103 at Fri Mar 14 14:26:40 2025, MaxMem=  8589934592 cpu:               3.6 elap:               0.7
 (Enter /home/enzo/gaussian_versions/gdv.j21/gdv/l202.exe)
                          Input orientation:                          
 ---------------------------------------------------------------------
 Center     Atomic      Atomic             Coordinates (Angstroms)
 Number     Number       Type             X           Y           Z
 ---------------------------------------------------------------------
      1          6           0       -2.503626    1.494101   -1.010312
      2          6           0       -1.674394    0.886292    0.120587
      3         16           0       -2.686366   -0.166877    1.265619
      4          6           0       -0.529179    0.033420   -0.434373
      5          8           0       -0.705422   -0.776283   -1.338938
      6          7           0        0.689339    0.236232    0.135165
      7          6           0        1.823223   -0.581888   -0.226893
      8          6           0        2.983976   -0.251278    0.685954
      9          8           0        2.944434    0.549296    1.595514
     10          8           0        4.081386   -0.963343    0.365358
     11          1           0       -3.356980    2.046377   -0.608361
     12          1           0       -1.888242    2.180214   -1.605930
     13          1           0       -2.865849    0.705111   -1.674553
     14          1           0       -1.283954    1.674540    0.773542
     15          1           0       -2.921905   -1.138618    0.357469
     16          1           0        0.808872    0.830859    0.946059
     17          1           0        1.589510   -1.651776   -0.145237
     18          1           0        2.123498   -0.415984   -1.269201
     19          1           0        4.778760   -0.702518    0.996366
 ---------------------------------------------------------------------
                    Distance matrix (angstroms):
                    1          2          3          4          5
     1  C    0.000000
     2  C    1.528394   0.000000
     3  S    2.823491   1.855896   0.000000
     4  C    2.522644   1.531956   2.753824   0.000000
     5  O    2.914819   2.415217   3.328547   1.226751   0.000000
     6  N    3.617924   2.451535   3.582709   1.360254   2.267934
     7  C    4.862622   3.809149   4.768251   2.440378   2.769202
     8  C    6.003119   4.828469   5.700518   3.698438   4.241164
     9  O    6.112638   4.860304   5.685740   4.056175   4.867199
    10  O    7.161974   6.050625   6.873666   4.784392   5.084599
    11  H    1.093063   2.169852   2.976578   3.475446   3.941054
    12  H    1.097365   2.168139   3.793630   2.797914   3.195500
    13  H    1.093128   2.162157   3.072000   2.729331   2.640949
    14  H    2.168476   1.095503   2.366372   2.173021   3.286914
    15  H    2.996162   2.390117   1.350739   2.779537   2.814583
    16  H    3.903833   2.617458   3.648874   2.081317   3.177610
    17  H    5.234373   4.143130   4.741156   2.722559   2.730957
    18  H    5.012556   4.248696   5.442624   2.817019   2.852625
    19  H    7.866704   6.703320   7.489159   5.546425   5.961152
                    6          7          8          9         10
     6  N    0.000000
     7  C    1.444334   0.000000
     8  C    2.409646   1.513254   0.000000
     9  O    2.704826   2.420302   1.212346   0.000000
    10  O    3.605267   2.365495   1.346895   2.256993   0.000000
    11  H    4.494680   5.821322   6.867473   6.841501   8.083058
    12  H    3.668024   4.827621   5.907909   6.021951   7.028825
    13  H    4.016751   5.073410   6.380214   6.669109   7.430280
    14  H    2.523914   3.968235   4.683126   4.452087   5.992655
    15  H    3.870493   4.813281   5.981196   6.228624   7.005489
    16  H    1.012630   2.097756   2.443308   2.249822   3.776999
    17  H    2.110333   1.098158   2.144016   3.116208   2.635164
    18  H    2.110555   1.097312   2.142470   3.132458   2.608584
    19  H    4.283256   3.200955   1.876492   2.300167   0.975977
                   11         12         13         14         15
    11  H    0.000000
    12  H    1.780519   0.000000
    13  H    1.782405   1.770976   0.000000
    14  H    2.518998   2.506543   3.071702   0.000000
    15  H    3.356532   3.992248   2.744374   3.281746   0.000000
    16  H    4.609558   3.950674   4.515196   2.263069   4.259575
    17  H    6.193430   5.377038   5.267253   4.490582   4.568251
    18  H    6.044466   4.790375   5.129791   4.489300   5.350173
    19  H    8.736236   7.715633   8.219202   6.515869   7.739420
                   16         17         18         19
    16  H    0.000000
    17  H    2.822021   0.000000
    18  H    2.861859   1.753744   0.000000
    19  H    4.256029   3.517905   3.502186   0.000000
 Stoichiometry    C5H9NO3S
 Framework group  C1[X(C5H9NO3S)]
 Deg. of freedom    51
 Full point group                 C1      NOp   1
 RotChk:  IX=3 Diff= 7.09D-03
 Largest Abelian subgroup         C1      NOp   1
 Largest concise Abelian subgroup C1      NOp   1
                         Standard orientation:                         
 ---------------------------------------------------------------------
 Center     Atomic      Atomic             Coordinates (Angstroms)
 Number     Number       Type             X           Y           Z
 ---------------------------------------------------------------------
      1          6           0        2.888691   -0.959300    1.120093
      2          6           0        1.893956    0.077144    0.598292
      3         16           0        2.653720    1.247729   -0.625161
      4          6           0        0.690765   -0.600640   -0.064905
      5          8           0        0.826334   -1.524346   -0.860709
      6          7           0       -0.530258   -0.116865    0.289151
      7          6           0       -1.733171   -0.600088   -0.347713
      8          6           0       -2.907458    0.235740    0.113134
      9          8           0       -2.831714    1.180412    0.869203
     10          8           0       -4.063068   -0.198688   -0.425351
     11          1           0        3.774667   -0.469489    1.532304
     12          1           0        2.424796   -1.568815    1.905906
     13          1           0        3.191113   -1.628564    0.310430
     14          1           0        1.564502    0.732989    1.411591
     15          1           0        2.825677    0.317743   -1.589553
     16          1           0       -0.631992    0.708269    0.867272
     17          1           0       -1.657243   -0.548621   -1.442033
     18          1           0       -1.921665   -1.653775   -0.106243
     19          1           0       -4.766691    0.388495   -0.089701
 ---------------------------------------------------------------------
 Rotational constants (GHZ):           2.3512476           0.4747985           0.4473223
 Leave Link  202 at Fri Mar 14 14:26:40 2025, MaxMem=  8589934592 cpu:               0.7 elap:               0.3
 (Enter /home/enzo/gaussian_versions/gdv.j21/gdv/l301.exe)
 Standard basis: 6-31G(d) (6D, 7F)
 Ernie: Thresh=  0.10000D-02 Tol=  0.10000D-05 Strict=F.
 There are   172 symmetry adapted cartesian basis functions of A   symmetry.
 There are   172 symmetry adapted basis functions of A   symmetry.
   172 basis functions,   340 primitive gaussians,   172 cartesian basis functions
    43 alpha electrons       43 beta electrons
       nuclear repulsion energy       610.4939133533 Hartrees.
 IExCor=      4002 DFT=T Ex+Corr=B3LYP ScaHFX=  0.200000
 ScaDFX=  0.800000  0.720000  1.000000  0.810000  1.000000  0.000000
 ScaDFX=  0.000000  0.000000  0.000000  0.000000  0.000000  0.000000
 IRadAn=      5 IRanWt=     -1 IRanGd=            0 ICorTp=0 IEmpDi=  4
 NAtoms=   19 NActive=   19 NUniq=   19 SFac= 1.00D+00 NAtFMM=   60 NAOKFM=F Big=F
 Integral buffers will be    131072 words long.
 Raffenetti 2 integral format.
 Two-electron integral symmetry is turned on.
 Leave Link  301 at Fri Mar 14 14:26:40 2025, MaxMem=  8589934592 cpu:               0.5 elap:               0.3
 (Enter /home/enzo/gaussian_versions/gdv.j21/gdv/l302.exe)
 NPDir=0 NMtPBC=     1 NCelOv=     1 NCel=       1 NClECP=     1 NCelD=      1
         NCelK=      1 NCelE2=     1 NClLst=     1 CellRange=     0.0.
 One-electron integrals computed using PRISM.
 One-electron integral symmetry used in STVInt
 NBasis=   172 RedAO= T EigKep=  2.54D-03  NBF=   172
 NBsUse=   172 1.00D-06 EigRej= -1.00D+00 NBFU=   172
 Precomputing XC quadrature grid using
 IXCGrd= 4 IRadAn=           5 IRanWt=          -1 IRanGd=           0 AccXCQ= 0.00D+00.
 Generated NRdTot=       0 NPtTot=      408602 NUsed=           0 NTot=          64
 NSgBfM=   171   171   171   171   171 MxSgAt=    19 MxSgA2=    19 SizInc=   0.000
 NMBTot=     3511 MaxBatPerAtom=       85 MaxMicBPerAtom=      205 NBfPt=            49993796.
 Leave Link  302 at Fri Mar 14 14:26:41 2025, MaxMem=  8589934592 cpu:               1.7 elap:               0.4
 (Enter /home/enzo/gaussian_versions/gdv.j21/gdv/l303.exe)
 DipDrv:  MaxL=1.
 Leave Link  303 at Fri Mar 14 14:26:41 2025, MaxMem=  8589934592 cpu:               0.3 elap:               0.2
 (Enter /home/enzo/gaussian_versions/gdv.j21/gdv/l401.exe)
 Initial guess from the checkpoint file:  "/local/home/enzo/scratch/Gau-2270961.chk"
 B after Tr=     0.000000    0.000000   -0.000000
         Rot=    0.999998    0.001777    0.000679    0.000629 Ang=   0.23 deg.
 AO Guess basis will be translated and rotated to current coordinates.
 JPrj=2 DoOrth=T DoCkMO=T.
 Generating alternative initial guess.
 ExpMin= 1.17D-01 ExpMax= 2.19D+04 ExpMxC= 3.30D+03 IAcc=3 IRadAn=         5 AccDes= 0.00D+00
 Harris functional with IExCor= 4002 and IRadAn=       5 diagonalized for initial guess.
 HarFok:  IExCor=    4002 AccDes= 0.00D+00 IRadAn=         5 IDoV= 1 UseB2=F ITyADJ=14 ICtDFT=  3500011
 FoFCou: FMM=F IPFlag=           0 FMFlag=      100000 FMFlg1=           0
         NFxFlg=           0 DoJE=T BraDBF=F KetDBF=T FulRan=T
         wScrn=  0.000000 ICntrl=       500 IOpCl=  0 I1Cent=   200000004 NGrid=           0
         NMat0=    1 NMatS0=      1 NMatT0=    0 NMatD0=    1 NMtDS0=    0 NMtDT0=    0
 Petite list used in FoFCou.
 Harris En= -874.549743183988    
 Leave Link  401 at Fri Mar 14 14:26:42 2025, MaxMem=  8589934592 cpu:               7.2 elap:               1.2
 (Enter /home/enzo/gaussian_versions/gdv.j21/gdv/l502.exe)
 Integral symmetry usage will be decided dynamically.
 Closed shell SCF:
 Using DIIS extrapolation, IDIIS=  1040.
 NGot=  8589934592 LenX=  8589843591 LenY=  8589813566
 Requested convergence on RMS density matrix=1.00D-08 within 128 cycles.
 Requested convergence on MAX density matrix=1.00D-06.
 Requested convergence on             energy=1.00D-06.
 No special actions if energy rises.
 Fock matrices will be formed incrementally for  20 cycles.
 Integral accuracy reduced to 1.0D-05 until final iterations.

 Cycle   1  Pass 0  IDiag  1:
 FoFJK:  IHMeth= 1 ICntrl=       0 DoSepK=F KAlg= 0 I1Cent=           0 FoldK=F
 IRaf= 890000000 NMat=       1 IRICut=       1 DoRegI=T DoRafI=F ISym2E= 0 IDoP0=0 IntGTp=1.
 FoFCou: FMM=F IPFlag=           0 FMFlag=      100000 FMFlg1=           0
         NFxFlg=           0 DoJE=F BraDBF=F KetDBF=F FulRan=T
         wScrn=  0.000000 ICntrl=         0 IOpCl=  0 I1Cent=           0 NGrid=           0
         NMat0=    1 NMatS0=      1 NMatT0=    0 NMatD0=    1 NMtDS0=    0 NMtDT0=    0
 Symmetry not used in FoFCou.
 E= -874.588904379520    
 DIIS: error= 5.48D-04 at cycle   1 NSaved=   1.
 NSaved= 1 IEnMin= 1 EnMin= -874.588904379520     IErMin= 1 ErrMin= 5.48D-04
 ErrMax= 5.48D-04  0.00D+00 EMaxC= 1.00D-01 BMatC= 1.19D-04 BMatP= 1.19D-04
 IDIUse=3 WtCom= 9.95D-01 WtEn= 5.48D-03
 Coeff-Com:  0.100D+01
 Coeff-En:   0.100D+01
 Coeff:      0.100D+01
 Gap=     1.613 Goal=   None    Shift=    0.000
 RMSDP=1.13D-04 MaxDP=2.79D-03              OVMax= 3.96D-03

 Cycle   2  Pass 0  IDiag  1:
 RMSU=  1.13D-04    CP:  1.00D+00
 E= -874.589146467627     Delta-E=       -0.000242088107 Rises=F Damp=F
 DIIS: error= 6.97D-05 at cycle   2 NSaved=   2.
 NSaved= 2 IEnMin= 2 EnMin= -874.589146467627     IErMin= 2 ErrMin= 6.97D-05
 ErrMax= 6.97D-05  0.00D+00 EMaxC= 1.00D-01 BMatC= 1.61D-06 BMatP= 1.19D-04
 IDIUse=1 WtCom= 1.00D+00 WtEn= 0.00D+00
 Coeff-Com: -0.776D-01 0.108D+01
 Coeff:     -0.776D-01 0.108D+01
 Gap=     0.225 Goal=   None    Shift=    0.000
 RMSDP=1.67D-05 MaxDP=3.22D-04 DE=-2.42D-04 OVMax= 6.03D-04

 Cycle   3  Pass 0  IDiag  1:
 RMSU=  1.32D-05    CP:  1.00D+00  1.09D+00
 E= -874.589149607761     Delta-E=       -0.000003140134 Rises=F Damp=F
 DIIS: error= 2.17D-05 at cycle   3 NSaved=   3.
 NSaved= 3 IEnMin= 3 EnMin= -874.589149607761     IErMin= 3 ErrMin= 2.17D-05
 ErrMax= 2.17D-05  0.00D+00 EMaxC= 1.00D-01 BMatC= 2.22D-07 BMatP= 1.61D-06
 IDIUse=1 WtCom= 1.00D+00 WtEn= 0.00D+00
 Coeff-Com: -0.262D-01 0.312D+00 0.714D+00
 Coeff:     -0.262D-01 0.312D+00 0.714D+00
 Gap=     0.225 Goal=   None    Shift=    0.000
 RMSDP=5.48D-06 MaxDP=1.97D-04 DE=-3.14D-06 OVMax= 1.88D-04

 Initial convergence to 1.0D-05 achieved.  Increase integral accuracy.
 Cycle   4  Pass 1  IDiag  1:
 E= -874.589148519871     Delta-E=        0.000001087890 Rises=F Damp=F
 DIIS: error= 2.24D-05 at cycle   1 NSaved=   1.
 NSaved= 1 IEnMin= 1 EnMin= -874.589148519871     IErMin= 1 ErrMin= 2.24D-05
 ErrMax= 2.24D-05  0.00D+00 EMaxC= 1.00D-01 BMatC= 1.36D-07 BMatP= 1.36D-07
 IDIUse=1 WtCom= 1.00D+00 WtEn= 0.00D+00
 Coeff-Com:  0.100D+01
 Coeff:      0.100D+01
 Gap=     0.225 Goal=   None    Shift=    0.000
 RMSDP=5.48D-06 MaxDP=1.97D-04 DE= 1.09D-06 OVMax= 3.47D-04

 Cycle   5  Pass 1  IDiag  1:
 RMSU=  6.42D-06    CP:  1.00D+00
 E= -874.589148231249     Delta-E=        0.000000288622 Rises=F Damp=F
 DIIS: error= 5.25D-05 at cycle   2 NSaved=   2.
 NSaved= 2 IEnMin= 1 EnMin= -874.589148519871     IErMin= 1 ErrMin= 2.24D-05
 ErrMax= 5.25D-05  0.00D+00 EMaxC= 1.00D-01 BMatC= 5.23D-07 BMatP= 1.36D-07
 IDIUse=1 WtCom= 1.00D+00 WtEn= 0.00D+00
 Coeff-Com:  0.670D+00 0.330D+00
 Coeff:      0.670D+00 0.330D+00
 Gap=     0.225 Goal=   None    Shift=    0.000
 RMSDP=3.39D-06 MaxDP=1.38D-04 DE= 2.89D-07 OVMax= 2.61D-04

 Cycle   6  Pass 1  IDiag  1:
 RMSU=  2.35D-06    CP:  1.00D+00  6.19D-01
 E= -874.589148626335     Delta-E=       -0.000000395086 Rises=F Damp=F
 DIIS: error= 4.71D-06 at cycle   3 NSaved=   3.
 NSaved= 3 IEnMin= 3 EnMin= -874.589148626335     IErMin= 3 ErrMin= 4.71D-06
 ErrMax= 4.71D-06  0.00D+00 EMaxC= 1.00D-01 BMatC= 5.37D-09 BMatP= 1.36D-07
 IDIUse=1 WtCom= 1.00D+00 WtEn= 0.00D+00
 Coeff-Com:  0.179D+00 0.129D+00 0.692D+00
 Coeff:      0.179D+00 0.129D+00 0.692D+00
 Gap=     0.225 Goal=   None    Shift=    0.000
 RMSDP=6.55D-07 MaxDP=1.64D-05 DE=-3.95D-07 OVMax= 2.48D-05

 Cycle   7  Pass 1  IDiag  1:
 RMSU=  6.27D-07    CP:  1.00D+00  6.31D-01  9.28D-01
 E= -874.589148629630     Delta-E=       -0.000000003295 Rises=F Damp=F
 DIIS: error= 1.66D-06 at cycle   4 NSaved=   4.
 NSaved= 4 IEnMin= 4 EnMin= -874.589148629630     IErMin= 4 ErrMin= 1.66D-06
 ErrMax= 1.66D-06  0.00D+00 EMaxC= 1.00D-01 BMatC= 1.35D-09 BMatP= 5.37D-09
 IDIUse=1 WtCom= 1.00D+00 WtEn= 0.00D+00
 Coeff-Com: -0.216D-02 0.219D-01 0.381D+00 0.599D+00
 Coeff:     -0.216D-02 0.219D-01 0.381D+00 0.599D+00
 Gap=     0.225 Goal=   None    Shift=    0.000
 RMSDP=2.46D-07 MaxDP=5.26D-06 DE=-3.29D-09 OVMax= 7.79D-06

 Cycle   8  Pass 1  IDiag  1:
 RMSU=  1.01D-07    CP:  1.00D+00  6.38D-01  9.52D-01  6.62D-01
 E= -874.589148630792     Delta-E=       -0.000000001162 Rises=F Damp=F
 DIIS: error= 4.22D-07 at cycle   5 NSaved=   5.
 NSaved= 5 IEnMin= 5 EnMin= -874.589148630792     IErMin= 5 ErrMin= 4.22D-07
 ErrMax= 4.22D-07  0.00D+00 EMaxC= 1.00D-01 BMatC= 6.64D-11 BMatP= 1.35D-09
 IDIUse=1 WtCom= 1.00D+00 WtEn= 0.00D+00
 Coeff-Com: -0.523D-02 0.101D-01 0.211D+00 0.357D+00 0.427D+00
 Coeff:     -0.523D-02 0.101D-01 0.211D+00 0.357D+00 0.427D+00
 Gap=     0.225 Goal=   None    Shift=    0.000
 RMSDP=5.26D-08 MaxDP=1.42D-06 DE=-1.16D-09 OVMax= 2.54D-06

 Cycle   9  Pass 1  IDiag  1:
 RMSU=  3.86D-08    CP:  1.00D+00  6.39D-01  9.51D-01  6.55D-01  6.60D-01
 E= -874.589148630841     Delta-E=       -0.000000000050 Rises=F Damp=F
 DIIS: error= 1.56D-07 at cycle   6 NSaved=   6.
 NSaved= 6 IEnMin= 6 EnMin= -874.589148630841     IErMin= 6 ErrMin= 1.56D-07
 ErrMax= 1.56D-07  0.00D+00 EMaxC= 1.00D-01 BMatC= 5.31D-12 BMatP= 6.64D-11
 IDIUse=1 WtCom= 1.00D+00 WtEn= 0.00D+00
 Coeff-Com: -0.279D-02 0.307D-02 0.744D-01 0.132D+00 0.244D+00 0.549D+00
 Coeff:     -0.279D-02 0.307D-02 0.744D-01 0.132D+00 0.244D+00 0.549D+00
 Gap=     0.225 Goal=   None    Shift=    0.000
 RMSDP=1.62D-08 MaxDP=4.96D-07 DE=-4.98D-11 OVMax= 7.53D-07

 Cycle  10  Pass 1  IDiag  1:
 RMSU=  1.39D-08    CP:  1.00D+00  6.39D-01  9.51D-01  6.50D-01  7.03D-01
                    CP:  8.43D-01
 E= -874.589148630849     Delta-E=       -0.000000000007 Rises=F Damp=F
 DIIS: error= 5.61D-08 at cycle   7 NSaved=   7.
 NSaved= 7 IEnMin= 7 EnMin= -874.589148630849     IErMin= 7 ErrMin= 5.61D-08
 ErrMax= 5.61D-08  0.00D+00 EMaxC= 1.00D-01 BMatC= 9.12D-13 BMatP= 5.31D-12
 IDIUse=1 WtCom= 1.00D+00 WtEn= 0.00D+00
 Coeff-Com: -0.390D-03-0.623D-03-0.692D-02-0.809D-02 0.417D-01 0.318D+00
 Coeff-Com:  0.656D+00
 Coeff:     -0.390D-03-0.623D-03-0.692D-02-0.809D-02 0.417D-01 0.318D+00
 Coeff:      0.656D+00
 Gap=     0.225 Goal=   None    Shift=    0.000
 RMSDP=7.08D-09 MaxDP=1.66D-07 DE=-7.05D-12 OVMax= 3.42D-07

 SCF Done:  E(RB3LYP) =  -874.589148631     A.U. after   10 cycles
            NFock= 10  Conv=0.71D-08     -V/T= 2.0064
 KE= 8.690193967462D+02 PE=-3.280736019246D+03 EE= 9.266335605157D+02
 Leave Link  502 at Fri Mar 14 14:26:47 2025, MaxMem=  8589934592 cpu:              50.3 elap:               4.7
 (Enter /home/enzo/gaussian_versions/gdv.j21/gdv/l701.exe)
 ... and contract with generalized density number  0.
 Compute integral first derivatives.
 Leave Link  701 at Fri Mar 14 14:26:47 2025, MaxMem=  8589934592 cpu:               2.3 elap:               0.4
 (Enter /home/enzo/gaussian_versions/gdv.j21/gdv/l702.exe)
 L702 exits ... SP integral derivatives will be done elsewhere.
 Leave Link  702 at Fri Mar 14 14:26:47 2025, MaxMem=  8589934592 cpu:               0.1 elap:               0.2
 (Enter /home/enzo/gaussian_versions/gdv.j21/gdv/l703.exe)
 Integral derivatives from FoFJK, PRISM(SPDF).
 Compute integral first derivatives, UseDBF=F ICtDFT=           0.
 Calling FoFJK, ICntrl=      2127 FMM=F ISym2X=0 I1Cent= 0 IOpClX= 0 NMat=1 NMatS=1 NMatT=0.
 FoFJK:  IHMeth= 1 ICntrl=    2127 DoSepK=F KAlg= 0 I1Cent=           0 FoldK=F
 IRaf=         0 NMat=       1 IRICut=       1 DoRegI=T DoRafI=F ISym2E= 0 IDoP0=0 IntGTp=1.
 FoFCou: FMM=F IPFlag=           0 FMFlag=      100000 FMFlg1=         800
         NFxFlg=           0 DoJE=F BraDBF=F KetDBF=F FulRan=T
         wScrn=  0.000000 ICntrl=      2127 IOpCl=  0 I1Cent=           0 NGrid=           0
         NMat0=    1 NMatS0=      1 NMatT0=    0 NMatD0=    1 NMtDS0=    0 NMtDT0=    0
 Symmetry not used in FoFCou.
 Leave Link  703 at Fri Mar 14 14:26:49 2025, MaxMem=  8589934592 cpu:              14.5 elap:               1.7
 (Enter /home/enzo/gaussian_versions/gdv.j21/gdv/l716.exe)
 Dipole        =-9.89666464D-01 2.98536891D-02 4.83696292D-01
 ***** Axes restored to original set *****
 -------------------------------------------------------------------
 Center     Atomic                   Forces (Hartrees/Bohr)
 Number     Number              X              Y              Z
 -------------------------------------------------------------------
      1        6          -0.000017194    0.000016176   -0.000016742
      2        6           0.000015692   -0.000025974    0.000044800
      3       16           0.000011749    0.000020894   -0.000017529
      4        6           0.000109385   -0.000013656    0.000047947
      5        8           0.000058996    0.000008328    0.000028047
      6        7          -0.000093449    0.000028488   -0.000023476
      7        6          -0.000070017   -0.000000829    0.000018522
      8        6          -0.000023753    0.000005714   -0.000001583
      9        8          -0.000023406    0.000019100   -0.000014409
     10        8          -0.000020085   -0.000021397   -0.000004768
     11        1          -0.000001211   -0.000000452    0.000004629
     12        1           0.000004407    0.000000497    0.000003612
     13        1           0.000002486   -0.000004373    0.000004204
     14        1          -0.000012504    0.000008482   -0.000001691
     15        1           0.000003383   -0.000006529   -0.000001826
     16        1           0.000005630   -0.000023491   -0.000025331
     17        1           0.000027036   -0.000015171   -0.000027055
     18        1           0.000026911    0.000000915   -0.000013104
     19        1          -0.000004058    0.000003278   -0.000004248
 -------------------------------------------------------------------
 Cartesian Forces:  Max     0.000109385 RMS     0.000028293
 Leave Link  716 at Fri Mar 14 14:26:49 2025, MaxMem=  8589934592 cpu:               0.2 elap:               0.2
 (Enter /home/enzo/gaussian_versions/gdv.j21/gdv/l103.exe)

 GradGradGradGradGradGradGradGradGradGradGradGradGradGradGradGradGradGrad
 Berny optimization.
 Using GEDIIS/GDIIS optimizer.
 FormGI is forming the generalized inverse of G from B-inverse, IUseBI=4.
 Internal  Forces:  Max     0.000198782 RMS     0.000031897
 Search for a local minimum.
 Step number  20 out of a maximum of   93
 All quantities printed in internal units (Hartrees-Bohrs-Radians)
 RMS Force = .31897D-04 SwitMx=.10000D-02 MixMth= 2
 Mixed Optimization -- En-DIIS/RFO-DIIS
 Swapping is turned off.
 Update second derivatives using D2CorX and points   14   15   16   17   18
                                                     19   20
 DE= -3.13D-07 DEPred=-1.94D-07 R= 1.62D+00
 Trust test= 1.62D+00 RLast= 4.20D-02 DXMaxT set to 1.43D+00
 ITU=  0  0  1  1  1  1  1  1  1  1  1  1  1  1  1  0  1  1  1  0
     Eigenvalues ---    0.00107   0.00122   0.00235   0.00444   0.00541
     Eigenvalues ---    0.00672   0.01456   0.02098   0.04163   0.04529
     Eigenvalues ---    0.04882   0.05216   0.05651   0.05733   0.05907
     Eigenvalues ---    0.06779   0.08171   0.09680   0.13415   0.15650
     Eigenvalues ---    0.15771   0.16026   0.16064   0.16098   0.17541
     Eigenvalues ---    0.17697   0.19886   0.21663   0.22278   0.23156
     Eigenvalues ---    0.24237   0.24972   0.25318   0.26642   0.28235
     Eigenvalues ---    0.30363   0.31838   0.32496   0.32597   0.32626
     Eigenvalues ---    0.32638   0.32654   0.32966   0.36788   0.39011
     Eigenvalues ---    0.41379   0.45750   0.46946   0.53624   0.78478
     Eigenvalues ---    0.81340
 En-DIIS/RFO-DIIS/Sim-DIIS IScMMF=       -3 using points:    20   19   18   17   16   15   14   13   12   11
 RFO step:  Lambda=-8.40463629D-07.
 NNeg= 0 NGDIIS=10 SimSw=  2.50D-01 Rises=F DC= -3.13D-07 SmlDif=  1.00D-05
 NRisDI= 0 DoIntr=F SqrtH=F CThrHd= 10.0 CDAdj=  3.0
 RMS Error=  0.2339995245D-02 NUsed=10 OKEnD=F EnDIS=F
 InvSVX:  RCond= 4.86D-08 Info=           0 Equed=N FErr=  2.41D-11 BErr=  7.31D-17
 DIIS inversion failure, remove point  10.
 InvSVX:  RCond= 8.00D-08 Info=           0 Equed=N FErr=  7.17D-12 BErr=  5.06D-17
 DIIS inversion failure, remove point   9.
 InvSVX:  RCond= 1.01D-07 Info=           0 Equed=N FErr=  5.06D-12 BErr=  1.05D-16
 RFO-DIIS uses    8 points instead of   10
 DidBck=FF Rises=F RFO-DIIS coefs:    1.32176    0.33625   -0.80685    0.07705    0.02349
                   RFO-DIIS coefs:    0.06417   -0.00646   -0.00941    0.00000    0.00000
 Iteration  1 RMS(Cart)=  0.00608312 RMS(Int)=  0.00001725
 Iteration  2 RMS(Cart)=  0.00002042 RMS(Int)=  0.00001364
 Iteration  3 RMS(Cart)=  0.00000000 RMS(Int)=  0.00001364
 Variable       Old X    -DE/DX   Delta X   Delta X   Delta X     New X
                                 (Linear)    (Quad)   (Total)
    R1        2.88825   0.00002  -0.00015   0.00018   0.00003   2.88828
    R2        2.06559   0.00000   0.00003  -0.00002   0.00001   2.06560
    R3        2.07372   0.00000   0.00002  -0.00000   0.00001   2.07373
    R4        2.06571  -0.00000   0.00002  -0.00001   0.00001   2.06572
    R5        3.50714  -0.00003  -0.00009  -0.00004  -0.00012   3.50701
    R6        2.89498   0.00001   0.00005  -0.00002   0.00003   2.89501
    R7        2.07020   0.00000   0.00004  -0.00004   0.00001   2.07021
    R8        2.55253   0.00000   0.00005  -0.00003   0.00002   2.55254
    R9        2.31822  -0.00003   0.00012  -0.00010   0.00002   2.31825
   R10        2.57051  -0.00020  -0.00048   0.00012  -0.00036   2.57015
   R11        2.72939  -0.00005  -0.00036   0.00025  -0.00011   2.72929
   R12        1.91359  -0.00003  -0.00011   0.00005  -0.00005   1.91354
   R13        2.85964  -0.00007  -0.00009   0.00000  -0.00009   2.85955
   R14        2.07522   0.00001  -0.00019   0.00006  -0.00013   2.07508
   R15        2.07362   0.00002   0.00021  -0.00002   0.00019   2.07381
   R16        2.29100   0.00000   0.00001  -0.00000   0.00000   2.29101
   R17        2.54526  -0.00001   0.00004  -0.00001   0.00002   2.54529
   R18        1.84433  -0.00001   0.00002  -0.00003  -0.00001   1.84432
    A1        1.93094  -0.00000   0.00012  -0.00008   0.00004   1.93098
    A2        1.92410  -0.00001   0.00010  -0.00010  -0.00000   1.92410
    A3        1.92023  -0.00001   0.00006  -0.00008  -0.00002   1.92021
    A4        1.89810   0.00000  -0.00006   0.00006   0.00000   1.89810
    A5        1.90650   0.00000  -0.00015   0.00012  -0.00003   1.90647
    A6        1.88314   0.00001  -0.00007   0.00008   0.00001   1.88314
    A7        1.96746   0.00000  -0.00008   0.00008  -0.00000   1.96746
    A8        1.93793   0.00000  -0.00019   0.00016  -0.00003   1.93789
    A9        1.92649  -0.00001   0.00010  -0.00017  -0.00006   1.92643
   A10        1.89146  -0.00000   0.00021  -0.00017   0.00004   1.89150
   A11        1.80793   0.00000   0.00012  -0.00006   0.00006   1.80799
   A12        1.92844   0.00001  -0.00015   0.00016   0.00001   1.92844
   A13        1.65943   0.00000  -0.00018   0.00014  -0.00005   1.65938
   A14        2.12607   0.00006   0.00011   0.00002   0.00013   2.12620
   A15        2.02081   0.00002   0.00030  -0.00015   0.00015   2.02095
   A16        2.13630  -0.00007  -0.00041   0.00013  -0.00028   2.13603
   A17        2.11045  -0.00007  -0.00101   0.00039  -0.00069   2.10976
   A18        2.12772   0.00004   0.00037  -0.00022   0.00008   2.12780
   A19        2.02715   0.00002  -0.00002  -0.00019  -0.00028   2.02687
   A20        1.90415  -0.00008  -0.00041   0.00019  -0.00022   1.90393
   A21        1.94565   0.00004  -0.00013  -0.00004  -0.00017   1.94548
   A22        1.94690   0.00004   0.00078  -0.00008   0.00069   1.94759
   A23        1.90842   0.00002   0.00067  -0.00007   0.00060   1.90902
   A24        1.90717   0.00001  -0.00100   0.00021  -0.00079   1.90638
   A25        1.85060  -0.00002   0.00008  -0.00020  -0.00013   1.85047
   A26        2.17953  -0.00002   0.00003  -0.00005  -0.00002   2.17951
   A27        1.94538  -0.00002  -0.00002  -0.00004  -0.00006   1.94532
   A28        2.15827   0.00004  -0.00002   0.00010   0.00008   2.15835
   A29        1.86190  -0.00000  -0.00026   0.00022  -0.00004   1.86186
    D1        0.95013  -0.00000   0.00040  -0.00028   0.00012   0.95026
    D2        3.07625  -0.00000   0.00048  -0.00033   0.00015   3.07639
    D3       -1.06218   0.00000   0.00023  -0.00014   0.00009  -1.06209
    D4        3.05033  -0.00000   0.00046  -0.00032   0.00015   3.05048
    D5       -1.10675  -0.00000   0.00054  -0.00037   0.00017  -1.10657
    D6        1.03802   0.00000   0.00029  -0.00018   0.00011   1.03813
    D7       -1.15803  -0.00000   0.00047  -0.00033   0.00014  -1.15788
    D8        0.96808  -0.00000   0.00055  -0.00038   0.00017   0.96825
    D9        3.11285   0.00000   0.00030  -0.00019   0.00011   3.11296
   D10        1.19148   0.00001   0.00082   0.00013   0.00096   1.19244
   D11       -0.96069   0.00001   0.00097   0.00000   0.00097  -0.95972
   D12       -3.00920  -0.00000   0.00099  -0.00007   0.00092  -3.00829
   D13       -0.80403  -0.00000  -0.00071  -0.00020  -0.00092  -0.80494
   D14        2.33311  -0.00000  -0.00115   0.00000  -0.00115   2.33196
   D15        1.36585  -0.00000  -0.00079  -0.00012  -0.00091   1.36494
   D16       -1.78020  -0.00000  -0.00123   0.00009  -0.00115  -1.78135
   D17       -2.94767   0.00000  -0.00061  -0.00021  -0.00082  -2.94849
   D18        0.18947   0.00000  -0.00105  -0.00000  -0.00105   0.18841
   D19        3.05402  -0.00001  -0.00153  -0.00047  -0.00200   3.05202
   D20        0.12213   0.00000   0.00344  -0.00027   0.00317   0.12530
   D21       -0.09205  -0.00001  -0.00198  -0.00027  -0.00224  -0.09429
   D22       -3.02395   0.00001   0.00300  -0.00006   0.00293  -3.02102
   D23       -3.01472   0.00001   0.01069   0.00017   0.01085  -3.00387
   D24       -0.90532  -0.00000   0.01118   0.00017   0.01135  -0.89396
   D25        1.15982   0.00003   0.01170  -0.00016   0.01154   1.17136
   D26       -0.07128  -0.00000   0.00604  -0.00003   0.00601  -0.06526
   D27        2.03813  -0.00001   0.00654  -0.00003   0.00651   2.04464
   D28       -2.17992   0.00002   0.00706  -0.00036   0.00670  -2.17321
   D29        0.03137  -0.00001  -0.00416  -0.00021  -0.00437   0.02700
   D30       -3.11202  -0.00001  -0.00337  -0.00037  -0.00373  -3.11575
   D31       -2.10064  -0.00002  -0.00418  -0.00023  -0.00441  -2.10505
   D32        1.03916  -0.00002  -0.00338  -0.00039  -0.00377   1.03539
   D33        2.16413  -0.00001  -0.00409  -0.00006  -0.00415   2.15998
   D34       -0.97926  -0.00001  -0.00329  -0.00022  -0.00351  -0.98277
   D35       -3.13440  -0.00000  -0.00135   0.00041  -0.00094  -3.13533
   D36        0.00543  -0.00000  -0.00056   0.00025  -0.00031   0.00512
         Item               Value     Threshold  Converged?
 Maximum Force            0.000199     0.000450     YES
 RMS     Force            0.000032     0.000300     YES
 Maximum Displacement     0.019307     0.001800     NO 
 RMS     Displacement     0.006085     0.001200     NO 
 Predicted change in Energy=-3.847089D-07
 Lowest energy point so far.  Saving SCF results.
 GradGradGradGradGradGradGradGradGradGradGradGradGradGradGradGradGradGrad

 Leave Link  103 at Fri Mar 14 14:26:49 2025, MaxMem=  8589934592 cpu:               0.4 elap:               0.2
 (Enter /home/enzo/gaussian_versions/gdv.j21/gdv/l202.exe)
                          Input orientation:                          
 ---------------------------------------------------------------------
 Center     Atomic      Atomic             Coordinates (Angstroms)
 Number     Number       Type             X           Y           Z
 ---------------------------------------------------------------------
      1          6           0       -2.505918    1.491811   -1.009990
      2          6           0       -1.673772    0.887079    0.120439
      3         16           0       -2.682095   -0.165748    1.268893
      4          6           0       -0.528214    0.035091   -0.435214
      5          8           0       -0.704848   -0.777029   -1.337549
      6          7           0        0.691180    0.241506    0.130689
      7          6           0        1.824483   -0.577453   -0.231061
      8          6           0        2.982532   -0.253279    0.687430
      9          8           0        2.942551    0.546523    1.597653
     10          8           0        4.078247   -0.969628    0.370548
     11          1           0       -3.359356    2.043551   -0.607461
     12          1           0       -1.892582    2.177791   -1.607882
     13          1           0       -2.868216    0.701172   -1.672235
     14          1           0       -1.283392    1.677022    0.771383
     15          1           0       -2.916642   -1.139889    0.363047
     16          1           0        0.811318    0.836133    0.941458
     17          1           0        1.587833   -1.647068   -0.155453
     18          1           0        2.129787   -0.407536   -1.271367
     19          1           0        4.774186   -0.712170    1.004507
 ---------------------------------------------------------------------
                    Distance matrix (angstroms):
                    1          2          3          4          5
     1  C    0.000000
     2  C    1.528410   0.000000
     3  S    2.823446   1.855831   0.000000
     4  C    2.522640   1.531971   2.753819   0.000000
     5  O    2.915268   2.415326   3.328169   1.226763   0.000000
     6  N    3.617436   2.451503   3.583343   1.360065   2.267605
     7  C    4.862197   3.808700   4.767453   2.439687   2.767971
     8  C    6.004137   4.827325   5.695065   3.697138   4.239296
     9  O    6.113852   4.858866   5.679089   4.054667   4.865257
    10  O    7.163504   6.049432   6.866983   4.783116   5.082586
    11  H    1.093070   2.169898   2.976641   3.475477   3.941461
    12  H    1.097372   2.168157   3.793592   2.797823   3.196053
    13  H    1.093132   2.162160   3.071876   2.729376   2.641449
    14  H    2.168447   1.095506   2.366366   2.173041   3.287046
    15  H    2.996627   2.390018   1.350748   2.778918   2.813490
    16  H    3.904116   2.617697   3.648961   2.081164   3.177251
    17  H    5.228919   4.139575   4.738708   2.717642   2.722261
    18  H    5.016533   4.252083   5.446613   2.821355   2.859381
    19  H    7.868650   6.701891   7.480950   5.544966   5.958964
                    6          7          8          9         10
     6  N    0.000000
     7  C    1.444276   0.000000
     8  C    2.409371   1.513206   0.000000
     9  O    2.704384   2.420247   1.212348   0.000000
    10  O    3.605080   2.365414   1.346907   2.257056   0.000000
    11  H    4.494338   5.820956   6.868167   6.842343   8.084162
    12  H    3.667104   4.827378   5.911455   6.026194   7.033579
    13  H    4.016357   5.072799   6.380459   6.669415   7.430873
    14  H    2.523911   3.968178   4.683078   4.451892   5.992711
    15  H    3.870222   4.811192   5.974241   6.220802   6.996964
    16  H    1.012601   2.097506   2.442442   2.248693   3.776179
    17  H    2.110113   1.098087   2.144361   3.117769   2.633963
    18  H    2.111068   1.097414   2.141928   3.130829   2.609277
    19  H    4.282989   3.200863   1.876471   2.300221   0.975971
                   11         12         13         14         15
    11  H    0.000000
    12  H    1.780530   0.000000
    13  H    1.782398   1.770990   0.000000
    14  H    2.518965   2.506549   3.071680   0.000000
    15  H    3.357406   3.992526   2.744854   3.281651   0.000000
    16  H    4.609938   3.950982   4.515371   2.263588   4.258745
    17  H    6.188672   5.371442   5.260345   4.489157   4.562496
    18  H    6.048082   4.793393   5.135170   4.490880   5.354820
    19  H    8.737674   7.721545   8.220024   6.515891   7.729376
                   16         17         18         19
    16  H    0.000000
    17  H    2.823557   0.000000
    18  H    2.860361   1.753686   0.000000
    19  H    4.255061   3.517440   3.502177   0.000000
 Stoichiometry    C5H9NO3S
 Framework group  C1[X(C5H9NO3S)]
 Deg. of freedom    51
 Full point group                 C1      NOp   1
 RotChk:  IX=3 Diff= 2.07D-03
 Largest Abelian subgroup         C1      NOp   1
 Largest concise Abelian subgroup C1      NOp   1
                         Standard orientation:                         
 ---------------------------------------------------------------------
 Center     Atomic      Atomic             Coordinates (Angstroms)
 Number     Number       Type             X           Y           Z
 ---------------------------------------------------------------------
      1          6           0        2.892235   -0.960232    1.114184
      2          6           0        1.894420    0.076026    0.597877
      3         16           0        2.649118    1.251462   -0.623963
      4          6           0        0.690755   -0.601944   -0.064303
      5          8           0        0.825839   -1.522491   -0.863861
      6          7           0       -0.530198   -0.122465    0.295070
      7          6           0       -1.733028   -0.604914   -0.342407
      8          6           0       -2.905882    0.235582    0.113414
      9          8           0       -2.829550    1.180005    0.869738
     10          8           0       -4.061005   -0.194852   -0.429333
     11          1           0        3.778349   -0.470130    1.525770
     12          1           0        2.431282   -1.572951    1.899246
     13          1           0        3.193908   -1.626498    0.301767
     14          1           0        1.565860    0.728859    1.413959
     15          1           0        2.819097    0.324821   -1.591932
     16          1           0       -0.632306    0.701761    0.874368
     17          1           0       -1.654504   -0.557873   -1.436672
     18          1           0       -1.925627   -1.657163   -0.097468
     19          1           0       -4.763828    0.394632   -0.096065
 ---------------------------------------------------------------------
 Rotational constants (GHZ):           2.3487865           0.4753234           0.4476269
 Leave Link  202 at Fri Mar 14 14:26:50 2025, MaxMem=  8589934592 cpu:               0.3 elap:               0.2
 (Enter /home/enzo/gaussian_versions/gdv.j21/gdv/l301.exe)
 Standard basis: 6-31G(d) (6D, 7F)
 Ernie: Thresh=  0.10000D-02 Tol=  0.10000D-05 Strict=F.
 There are   172 symmetry adapted cartesian basis functions of A   symmetry.
 There are   172 symmetry adapted basis functions of A   symmetry.
   172 basis functions,   340 primitive gaussians,   172 cartesian basis functions
    43 alpha electrons       43 beta electrons
       nuclear repulsion energy       610.5649389273 Hartrees.
 IExCor=      4002 DFT=T Ex+Corr=B3LYP ScaHFX=  0.200000
 ScaDFX=  0.800000  0.720000  1.000000  0.810000  1.000000  0.000000
 ScaDFX=  0.000000  0.000000  0.000000  0.000000  0.000000  0.000000
 IRadAn=      5 IRanWt=     -1 IRanGd=            0 ICorTp=0 IEmpDi=  4
 NAtoms=   19 NActive=   19 NUniq=   19 SFac= 1.00D+00 NAtFMM=   60 NAOKFM=F Big=F
 Integral buffers will be    131072 words long.
 Raffenetti 2 integral format.
 Two-electron integral symmetry is turned on.
 Leave Link  301 at Fri Mar 14 14:26:50 2025, MaxMem=  8589934592 cpu:               0.4 elap:               0.2
 (Enter /home/enzo/gaussian_versions/gdv.j21/gdv/l302.exe)
 NPDir=0 NMtPBC=     1 NCelOv=     1 NCel=       1 NClECP=     1 NCelD=      1
         NCelK=      1 NCelE2=     1 NClLst=     1 CellRange=     0.0.
 One-electron integrals computed using PRISM.
 One-electron integral symmetry used in STVInt
 NBasis=   172 RedAO= T EigKep=  2.54D-03  NBF=   172
 NBsUse=   172 1.00D-06 EigRej= -1.00D+00 NBFU=   172
 Precomputing XC quadrature grid using
 IXCGrd= 4 IRadAn=           5 IRanWt=          -1 IRanGd=           0 AccXCQ= 0.00D+00.
 Generated NRdTot=       0 NPtTot=      408625 NUsed=           0 NTot=          64
 NSgBfM=   171   171   171   171   171 MxSgAt=    19 MxSgA2=    19 SizInc=   0.000
 NMBTot=     3503 MaxBatPerAtom=       85 MaxMicBPerAtom=      205 NBfPt=            49990124.
 Leave Link  302 at Fri Mar 14 14:26:51 2025, MaxMem=  8589934592 cpu:               4.7 elap:               0.6
 (Enter /home/enzo/gaussian_versions/gdv.j21/gdv/l303.exe)
 DipDrv:  MaxL=1.
 Leave Link  303 at Fri Mar 14 14:26:51 2025, MaxMem=  8589934592 cpu:               0.7 elap:               0.3
 (Enter /home/enzo/gaussian_versions/gdv.j21/gdv/l401.exe)
 Initial guess from the checkpoint file:  "/local/home/enzo/scratch/Gau-2270961.chk"
 B after Tr=    -0.000000    0.000000    0.000000
         Rot=    1.000000   -0.000799   -0.000193   -0.000164 Ang=  -0.10 deg.
 AO Guess basis will be translated and rotated to current coordinates.
 JPrj=2 DoOrth=T DoCkMO=T.
 Leave Link  401 at Fri Mar 14 14:26:51 2025, MaxMem=  8589934592 cpu:               0.9 elap:               0.2
 (Enter /home/enzo/gaussian_versions/gdv.j21/gdv/l502.exe)
 Integral symmetry usage will be decided dynamically.
 Closed shell SCF:
 Using DIIS extrapolation, IDIIS=  1040.
 NGot=  8589934592 LenX=  8589843591 LenY=  8589813566
 Requested convergence on RMS density matrix=1.00D-08 within 128 cycles.
 Requested convergence on MAX density matrix=1.00D-06.
 Requested convergence on             energy=1.00D-06.
 No special actions if energy rises.
 Fock matrices will be formed incrementally for  20 cycles.

 Cycle   1  Pass 1  IDiag  1:
 FoFJK:  IHMeth= 1 ICntrl=       0 DoSepK=F KAlg= 0 I1Cent=           0 FoldK=F
 IRaf= 890000000 NMat=       1 IRICut=       1 DoRegI=T DoRafI=F ISym2E= 0 IDoP0=0 IntGTp=1.
 FoFCou: FMM=F IPFlag=           0 FMFlag=      100000 FMFlg1=           0
         NFxFlg=           0 DoJE=F BraDBF=F KetDBF=F FulRan=T
         wScrn=  0.000000 ICntrl=         0 IOpCl=  0 I1Cent=           0 NGrid=           0
         NMat0=    1 NMatS0=      1 NMatT0=    0 NMatD0=    1 NMtDS0=    0 NMtDT0=    0
 Symmetry not used in FoFCou.
 E= -874.589100973502    
 DIIS: error= 2.25D-04 at cycle   1 NSaved=   1.
 NSaved= 1 IEnMin= 1 EnMin= -874.589100973502     IErMin= 1 ErrMin= 2.25D-04
 ErrMax= 2.25D-04  0.00D+00 EMaxC= 1.00D-01 BMatC= 2.20D-05 BMatP= 2.20D-05
 IDIUse=3 WtCom= 9.98D-01 WtEn= 2.25D-03
 Coeff-Com:  0.100D+01
 Coeff-En:   0.100D+01
 Coeff:      0.100D+01
 Gap=     1.613 Goal=   None    Shift=    0.000
 RMSDP=5.11D-05 MaxDP=7.45D-04              OVMax= 1.95D-03

 Cycle   2  Pass 1  IDiag  1:
 RMSU=  5.11D-05    CP:  1.00D+00
 E= -874.589148473282     Delta-E=       -0.000047499780 Rises=F Damp=F
 DIIS: error= 2.78D-05 at cycle   2 NSaved=   2.
 NSaved= 2 IEnMin= 2 EnMin= -874.589148473282     IErMin= 2 ErrMin= 2.78D-05
 ErrMax= 2.78D-05  0.00D+00 EMaxC= 1.00D-01 BMatC= 3.66D-07 BMatP= 2.20D-05
 IDIUse=1 WtCom= 1.00D+00 WtEn= 0.00D+00
 Coeff-Com: -0.740D-01 0.107D+01
 Coeff:     -0.740D-01 0.107D+01
 Gap=     0.225 Goal=   None    Shift=    0.000
 RMSDP=8.28D-06 MaxDP=1.18D-04 DE=-4.75D-05 OVMax= 3.72D-04

 Cycle   3  Pass 1  IDiag  1:
 RMSU=  6.69D-06    CP:  1.00D+00  1.10D+00
 E= -874.589149139110     Delta-E=       -0.000000665828 Rises=F Damp=F
 DIIS: error= 1.57D-05 at cycle   3 NSaved=   3.
 NSaved= 3 IEnMin= 3 EnMin= -874.589149139110     IErMin= 3 ErrMin= 1.57D-05
 ErrMax= 1.57D-05  0.00D+00 EMaxC= 1.00D-01 BMatC= 7.61D-08 BMatP= 3.66D-07
 IDIUse=1 WtCom= 1.00D+00 WtEn= 0.00D+00
 Coeff-Com: -0.300D-01 0.352D+00 0.678D+00
 Coeff:     -0.300D-01 0.352D+00 0.678D+00
 Gap=     0.225 Goal=   None    Shift=    0.000
 RMSDP=2.62D-06 MaxDP=6.10D-05 DE=-6.66D-07 OVMax= 1.10D-04

 Cycle   4  Pass 1  IDiag  1:
 RMSU=  2.08D-06    CP:  1.00D+00  1.11D+00  7.81D-01
 E= -874.589149184751     Delta-E=       -0.000000045641 Rises=F Damp=F
 DIIS: error= 1.32D-05 at cycle   4 NSaved=   4.
 NSaved= 4 IEnMin= 4 EnMin= -874.589149184751     IErMin= 4 ErrMin= 1.32D-05
 ErrMax= 1.32D-05  0.00D+00 EMaxC= 1.00D-01 BMatC= 3.91D-08 BMatP= 7.61D-08
 IDIUse=1 WtCom= 1.00D+00 WtEn= 0.00D+00
 Coeff-Com: -0.143D-01 0.156D+00 0.436D+00 0.422D+00
 Coeff:     -0.143D-01 0.156D+00 0.436D+00 0.422D+00
 Gap=     0.225 Goal=   None    Shift=    0.000
 RMSDP=1.13D-06 MaxDP=3.96D-05 DE=-4.56D-08 OVMax= 7.58D-05

 Cycle   5  Pass 1  IDiag  1:
 RMSU=  8.53D-07    CP:  1.00D+00  1.11D+00  8.19D-01  6.70D-01
 E= -874.589149213505     Delta-E=       -0.000000028753 Rises=F Damp=F
 DIIS: error= 3.64D-06 at cycle   5 NSaved=   5.
 NSaved= 5 IEnMin= 5 EnMin= -874.589149213505     IErMin= 5 ErrMin= 3.64D-06
 ErrMax= 3.64D-06  0.00D+00 EMaxC= 1.00D-01 BMatC= 3.18D-09 BMatP= 3.91D-08
 IDIUse=1 WtCom= 1.00D+00 WtEn= 0.00D+00
 Coeff-Com: -0.136D-02 0.644D-02 0.922D-01 0.239D+00 0.664D+00
 Coeff:     -0.136D-02 0.644D-02 0.922D-01 0.239D+00 0.664D+00
 Gap=     0.225 Goal=   None    Shift=    0.000
 RMSDP=4.09D-07 MaxDP=9.47D-06 DE=-2.88D-08 OVMax= 1.80D-05

 Cycle   6  Pass 1  IDiag  1:
 RMSU=  2.60D-07    CP:  1.00D+00  1.11D+00  8.48D-01  7.36D-01  7.68D-01
 E= -874.589149216059     Delta-E=       -0.000000002554 Rises=F Damp=F
 DIIS: error= 8.08D-07 at cycle   6 NSaved=   6.
 NSaved= 6 IEnMin= 6 EnMin= -874.589149216059     IErMin= 6 ErrMin= 8.08D-07
 ErrMax= 8.08D-07  0.00D+00 EMaxC= 1.00D-01 BMatC= 2.96D-10 BMatP= 3.18D-09
 IDIUse=1 WtCom= 1.00D+00 WtEn= 0.00D+00
 Coeff-Com:  0.876D-03-0.143D-01 0.163D-03 0.753D-01 0.329D+00 0.608D+00
 Coeff:      0.876D-03-0.143D-01 0.163D-03 0.753D-01 0.329D+00 0.608D+00
 Gap=     0.225 Goal=   None    Shift=    0.000
 RMSDP=1.49D-07 MaxDP=4.18D-06 DE=-2.55D-09 OVMax= 5.60D-06

 Cycle   7  Pass 1  IDiag  1:
 RMSU=  8.09D-08    CP:  1.00D+00  1.11D+00  8.50D-01  7.58D-01  8.26D-01
                    CP:  6.10D-01
 E= -874.589149216338     Delta-E=       -0.000000000279 Rises=F Damp=F
 DIIS: error= 1.74D-07 at cycle   7 NSaved=   7.
 NSaved= 7 IEnMin= 7 EnMin= -874.589149216338     IErMin= 7 ErrMin= 1.74D-07
 ErrMax= 1.74D-07  0.00D+00 EMaxC= 1.00D-01 BMatC= 2.45D-11 BMatP= 2.96D-10
 IDIUse=1 WtCom= 1.00D+00 WtEn= 0.00D+00
 Coeff-Com:  0.538D-03-0.730D-02-0.786D-02 0.140D-01 0.944D-01 0.286D+00
 Coeff-Com:  0.620D+00
 Coeff:      0.538D-03-0.730D-02-0.786D-02 0.140D-01 0.944D-01 0.286D+00
 Coeff:      0.620D+00
 Gap=     0.225 Goal=   None    Shift=    0.000
 RMSDP=3.99D-08 MaxDP=9.55D-07 DE=-2.79D-10 OVMax= 1.65D-06

 Cycle   8  Pass 1  IDiag  1:
 RMSU=  2.66D-08    CP:  1.00D+00  1.11D+00  8.51D-01  7.62D-01  8.32D-01
                    CP:  7.02D-01  8.28D-01
 E= -874.589149216368     Delta-E=       -0.000000000030 Rises=F Damp=F
 DIIS: error= 1.26D-07 at cycle   8 NSaved=   8.
 NSaved= 8 IEnMin= 8 EnMin= -874.589149216368     IErMin= 8 ErrMin= 1.26D-07
 ErrMax= 1.26D-07  0.00D+00 EMaxC= 1.00D-01 BMatC= 4.52D-12 BMatP= 2.45D-11
 IDIUse=1 WtCom= 1.00D+00 WtEn= 0.00D+00
 Coeff-Com:  0.214D-03-0.262D-02-0.439D-02 0.198D-03 0.195D-01 0.987D-01
 Coeff-Com:  0.349D+00 0.539D+00
 Coeff:      0.214D-03-0.262D-02-0.439D-02 0.198D-03 0.195D-01 0.987D-01
 Coeff:      0.349D+00 0.539D+00
 Gap=     0.225 Goal=   None    Shift=    0.000
 RMSDP=1.56D-08 MaxDP=4.71D-07 DE=-3.00D-11 OVMax= 9.19D-07

 Cycle   9  Pass 1  IDiag  1:
 RMSU=  1.06D-08    CP:  1.00D+00  1.11D+00  8.51D-01  7.62D-01  8.36D-01
                    CP:  7.10D-01  9.04D-01  6.78D-01
 E= -874.589149216370     Delta-E=       -0.000000000002 Rises=F Damp=F
 DIIS: error= 6.55D-08 at cycle   9 NSaved=   9.
 NSaved= 9 IEnMin= 9 EnMin= -874.589149216370     IErMin= 9 ErrMin= 6.55D-08
 ErrMax= 6.55D-08  0.00D+00 EMaxC= 1.00D-01 BMatC= 1.13D-12 BMatP= 4.52D-12
 IDIUse=1 WtCom= 1.00D+00 WtEn= 0.00D+00
 Coeff-Com:  0.869D-05 0.824D-04-0.985D-03-0.342D-02-0.106D-01-0.403D-02
 Coeff-Com:  0.849D-01 0.362D+00 0.572D+00
 Coeff:      0.869D-05 0.824D-04-0.985D-03-0.342D-02-0.106D-01-0.403D-02
 Coeff:      0.849D-01 0.362D+00 0.572D+00
 Gap=     0.225 Goal=   None    Shift=    0.000
 RMSDP=6.84D-09 MaxDP=1.62D-07 DE=-1.82D-12 OVMax= 3.59D-07

 SCF Done:  E(RB3LYP) =  -874.589149216     A.U. after    9 cycles
            NFock=  9  Conv=0.68D-08     -V/T= 2.0064
 KE= 8.690203657878D+02 PE=-3.280878815076D+03 EE= 9.267043611444D+02
 Leave Link  502 at Fri Mar 14 14:26:55 2025, MaxMem=  8589934592 cpu:              49.4 elap:               4.3
 (Enter /home/enzo/gaussian_versions/gdv.j21/gdv/l701.exe)
 ... and contract with generalized density number  0.
 Compute integral first derivatives.
 Leave Link  701 at Fri Mar 14 14:26:56 2025, MaxMem=  8589934592 cpu:               0.8 elap:               0.2
 (Enter /home/enzo/gaussian_versions/gdv.j21/gdv/l702.exe)
 L702 exits ... SP integral derivatives will be done elsewhere.
 Leave Link  702 at Fri Mar 14 14:26:56 2025, MaxMem=  8589934592 cpu:               0.1 elap:               0.2
 (Enter /home/enzo/gaussian_versions/gdv.j21/gdv/l703.exe)
 Integral derivatives from FoFJK, PRISM(SPDF).
 Compute integral first derivatives, UseDBF=F ICtDFT=           0.
 Calling FoFJK, ICntrl=      2127 FMM=F ISym2X=0 I1Cent= 0 IOpClX= 0 NMat=1 NMatS=1 NMatT=0.
 FoFJK:  IHMeth= 1 ICntrl=    2127 DoSepK=F KAlg= 0 I1Cent=           0 FoldK=F
 IRaf=         0 NMat=       1 IRICut=       1 DoRegI=T DoRafI=F ISym2E= 0 IDoP0=0 IntGTp=1.
 FoFCou: FMM=F IPFlag=           0 FMFlag=      100000 FMFlg1=         800
         NFxFlg=           0 DoJE=F BraDBF=F KetDBF=F FulRan=T
         wScrn=  0.000000 ICntrl=      2127 IOpCl=  0 I1Cent=           0 NGrid=           0
         NMat0=    1 NMatS0=      1 NMatT0=    0 NMatD0=    1 NMtDS0=    0 NMtDT0=    0
 Symmetry not used in FoFCou.
 Leave Link  703 at Fri Mar 14 14:26:57 2025, MaxMem=  8589934592 cpu:              14.4 elap:               1.5
 (Enter /home/enzo/gaussian_versions/gdv.j21/gdv/l716.exe)
 Dipole        =-9.88400761D-01 2.74111283D-02 4.84924864D-01
 ***** Axes restored to original set *****
 -------------------------------------------------------------------
 Center     Atomic                   Forces (Hartrees/Bohr)
 Number     Number              X              Y              Z
 -------------------------------------------------------------------
      1        6          -0.000017860    0.000012781   -0.000025680
      2        6           0.000018200   -0.000014933    0.000023210
      3       16           0.000012318    0.000001351   -0.000012378
      4        6          -0.000039755   -0.000010040   -0.000019746
      5        8          -0.000009046    0.000012647    0.000014734
      6        7           0.000009653   -0.000007669   -0.000009482
      7        6           0.000044351   -0.000006977    0.000031744
      8        6           0.000009467   -0.000014428   -0.000017622
      9        8          -0.000003380    0.000006981   -0.000001303
     10        8          -0.000015558    0.000006946    0.000013245
     11        1           0.000003172   -0.000003368    0.000005522
     12        1           0.000002200   -0.000000331    0.000005916
     13        1           0.000002379   -0.000002791    0.000004257
     14        1          -0.000005297    0.000002976   -0.000004666
     15        1          -0.000002200   -0.000001280    0.000000621
     16        1          -0.000005849    0.000009526    0.000009308
     17        1          -0.000000384    0.000000282   -0.000010583
     18        1          -0.000008988    0.000009278   -0.000004825
     19        1           0.000006576   -0.000000949   -0.000002273
 -------------------------------------------------------------------
 Cartesian Forces:  Max     0.000044351 RMS     0.000013394
 Leave Link  716 at Fri Mar 14 14:26:58 2025, MaxMem=  8589934592 cpu:               0.3 elap:               0.2
 (Enter /home/enzo/gaussian_versions/gdv.j21/gdv/l103.exe)

 GradGradGradGradGradGradGradGradGradGradGradGradGradGradGradGradGradGrad
 Berny optimization.
 Using GEDIIS/GDIIS optimizer.
 FormGI is forming the generalized inverse of G from B-inverse, IUseBI=4.
 Internal  Forces:  Max     0.000034683 RMS     0.000009087
 Search for a local minimum.
 Step number  21 out of a maximum of   93
 All quantities printed in internal units (Hartrees-Bohrs-Radians)
 RMS Force = .90870D-05 SwitMx=.10000D-02 MixMth= 2
 Mixed Optimization -- En-DIIS/RFO-DIIS
 Swapping is turned off.
 Update second derivatives using D2CorX and points   14   15   16   17   18
                                                     19   20   21
 DE= -5.86D-07 DEPred=-3.85D-07 R= 1.52D+00
 Trust test= 1.52D+00 RLast= 2.53D-02 DXMaxT set to 1.43D+00
 ITU=  0  0  0  1  1  1  1  1  1  1  1  1  1  1  1  1  0  1  1  1
 ITU=  0
     Eigenvalues ---    0.00090   0.00124   0.00199   0.00444   0.00536
     Eigenvalues ---    0.00595   0.01439   0.02075   0.04162   0.04551
     Eigenvalues ---    0.04882   0.05201   0.05651   0.05735   0.05845
     Eigenvalues ---    0.06761   0.08102   0.09779   0.13524   0.15645
     Eigenvalues ---    0.15759   0.16024   0.16060   0.16104   0.17482
     Eigenvalues ---    0.17750   0.19794   0.21965   0.22325   0.23066
     Eigenvalues ---    0.24384   0.24747   0.25273   0.26769   0.28373
     Eigenvalues ---    0.30423   0.31719   0.32529   0.32597   0.32613
     Eigenvalues ---    0.32636   0.32650   0.32989   0.36101   0.38808
     Eigenvalues ---    0.41068   0.45613   0.48265   0.55280   0.78466
     Eigenvalues ---    0.80865
 En-DIIS/RFO-DIIS/Sim-DIIS IScMMF=       -3 using points:    21   20   19   18   17   16   15   14   13   12
 RFO step:  Lambda=-6.96824547D-08.
 NNeg= 0 NGDIIS=10 SimSw=  2.50D-01 Rises=F DC= -5.86D-07 SmlDif=  1.00D-05
 NRisDI= 0 DoIntr=F SqrtH=F CThrHd= 10.0 CDAdj=  3.0
 RMS Error=  0.6410493881D-03 NUsed=10 OKEnD=F EnDIS=F
 InvSVX:  RCond= 3.21D-08 Info=           0 Equed=N FErr=  8.31D-12 BErr=  7.42D-17
 DIIS inversion failure, remove point  10.
 InvSVX:  RCond= 3.71D-08 Info=           0 Equed=N FErr=  7.00D-12 BErr=  5.49D-17
 DIIS inversion failure, remove point   9.
 InvSVX:  RCond= 4.93D-08 Info=           0 Equed=N FErr=  2.31D-12 BErr=  7.10D-17
 DIIS inversion failure, remove point   8.
 InvSVX:  RCond= 7.03D-08 Info=           0 Equed=N FErr=  9.94D-13 BErr=  7.08D-17
 DIIS inversion failure, remove point   7.
 InvSVX:  RCond= 1.16D-07 Info=           0 Equed=N FErr=  6.62D-13 BErr=  4.95D-17
 RFO-DIIS uses    6 points instead of   10
 DidBck=FF Rises=F RFO-DIIS coefs:    1.36679   -0.21726   -0.20893   -0.01613    0.05235
                   RFO-DIIS coefs:    0.02318    0.00000    0.00000    0.00000    0.00000
 Iteration  1 RMS(Cart)=  0.00094872 RMS(Int)=  0.00000103
 Iteration  2 RMS(Cart)=  0.00000065 RMS(Int)=  0.00000096
 Variable       Old X    -DE/DX   Delta X   Delta X   Delta X     New X
                                 (Linear)    (Quad)   (Total)
    R1        2.88828   0.00002   0.00003   0.00004   0.00007   2.88835
    R2        2.06560  -0.00000   0.00001  -0.00001  -0.00001   2.06560
    R3        2.07373  -0.00000   0.00001  -0.00001  -0.00000   2.07373
    R4        2.06572  -0.00000   0.00000  -0.00000  -0.00000   2.06572
    R5        3.50701  -0.00001  -0.00012   0.00002  -0.00010   3.50692
    R6        2.89501  -0.00001  -0.00006   0.00001  -0.00005   2.89495
    R7        2.07021  -0.00000   0.00000  -0.00000  -0.00000   2.07020
    R8        2.55254   0.00000   0.00001  -0.00001   0.00000   2.55254
    R9        2.31825  -0.00002   0.00000  -0.00001  -0.00001   2.31824
   R10        2.57015   0.00003  -0.00004   0.00009   0.00004   2.57019
   R11        2.72929   0.00002   0.00003  -0.00000   0.00003   2.72932
   R12        1.91354   0.00001   0.00000   0.00001   0.00002   1.91356
   R13        2.85955  -0.00001  -0.00005   0.00001  -0.00004   2.85950
   R14        2.07508  -0.00000  -0.00005   0.00001  -0.00004   2.07504
   R15        2.07381   0.00000   0.00006  -0.00001   0.00006   2.07387
   R16        2.29101   0.00000   0.00003  -0.00002   0.00001   2.29102
   R17        2.54529  -0.00001  -0.00006   0.00001  -0.00005   2.54523
   R18        1.84432   0.00000   0.00001  -0.00000   0.00000   1.84432
    A1        1.93098  -0.00001  -0.00000  -0.00005  -0.00005   1.93092
    A2        1.92410  -0.00001   0.00002  -0.00004  -0.00002   1.92408
    A3        1.92021  -0.00000  -0.00003   0.00000  -0.00003   1.92018
    A4        1.89810   0.00001  -0.00001   0.00003   0.00002   1.89812
    A5        1.90647   0.00001   0.00000   0.00003   0.00003   1.90650
    A6        1.88314   0.00001   0.00002   0.00003   0.00005   1.88320
    A7        1.96746   0.00000  -0.00002   0.00002  -0.00000   1.96746
    A8        1.93789   0.00001  -0.00001  -0.00000  -0.00001   1.93788
    A9        1.92643  -0.00001  -0.00007  -0.00000  -0.00007   1.92636
   A10        1.89150  -0.00001  -0.00000  -0.00004  -0.00004   1.89146
   A11        1.80799   0.00000   0.00007  -0.00001   0.00006   1.80805
   A12        1.92844   0.00000   0.00004   0.00003   0.00007   1.92851
   A13        1.65938   0.00001  -0.00001   0.00002   0.00001   1.65939
   A14        2.12620  -0.00001   0.00003  -0.00005  -0.00002   2.12617
   A15        2.02095  -0.00001   0.00003  -0.00006  -0.00003   2.02092
   A16        2.13603   0.00002  -0.00006   0.00011   0.00005   2.13608
   A17        2.10976   0.00003   0.00001   0.00013   0.00014   2.10991
   A18        2.12780  -0.00002   0.00003  -0.00008  -0.00004   2.12776
   A19        2.02687  -0.00001   0.00000  -0.00003  -0.00002   2.02685
   A20        1.90393   0.00000  -0.00005   0.00005  -0.00000   1.90393
   A21        1.94548  -0.00000   0.00001  -0.00005  -0.00004   1.94544
   A22        1.94759  -0.00001   0.00005  -0.00008  -0.00004   1.94756
   A23        1.90902   0.00000   0.00022   0.00001   0.00024   1.90925
   A24        1.90638   0.00000  -0.00017   0.00005  -0.00012   1.90626
   A25        1.85047  -0.00000  -0.00006   0.00002  -0.00004   1.85044
   A26        2.17951  -0.00001  -0.00004   0.00001  -0.00004   2.17947
   A27        1.94532   0.00001   0.00002  -0.00000   0.00002   1.94534
   A28        2.15835   0.00000   0.00002  -0.00001   0.00002   2.15837
   A29        1.86186   0.00001  -0.00003   0.00007   0.00004   1.86190
    D1        0.95026   0.00000   0.00004  -0.00008  -0.00004   0.95022
    D2        3.07639  -0.00000   0.00001  -0.00011  -0.00010   3.07629
    D3       -1.06209   0.00000   0.00001  -0.00008  -0.00007  -1.06215
    D4        3.05048   0.00000   0.00004  -0.00010  -0.00006   3.05041
    D5       -1.10657  -0.00000   0.00001  -0.00013  -0.00012  -1.10670
    D6        1.03813  -0.00000   0.00001  -0.00010  -0.00009   1.03804
    D7       -1.15788   0.00000   0.00006  -0.00008  -0.00003  -1.15791
    D8        0.96825  -0.00000   0.00003  -0.00012  -0.00009   0.96817
    D9        3.11296   0.00000   0.00003  -0.00008  -0.00005   3.11291
   D10        1.19244   0.00000  -0.00016   0.00003  -0.00013   1.19231
   D11       -0.95972  -0.00000  -0.00013   0.00004  -0.00009  -0.95980
   D12       -3.00829  -0.00000  -0.00021   0.00003  -0.00017  -3.00846
   D13       -0.80494  -0.00000  -0.00044   0.00004  -0.00040  -0.80535
   D14        2.33196  -0.00000  -0.00044   0.00006  -0.00038   2.33158
   D15        1.36494  -0.00000  -0.00048   0.00004  -0.00044   1.36450
   D16       -1.78135   0.00000  -0.00048   0.00006  -0.00041  -1.78176
   D17       -2.94849  -0.00000  -0.00038   0.00002  -0.00036  -2.94885
   D18        0.18841   0.00000  -0.00038   0.00004  -0.00033   0.18808
   D19        3.05202   0.00000  -0.00015   0.00026   0.00011   3.05213
   D20        0.12530  -0.00000  -0.00048   0.00014  -0.00034   0.12496
   D21       -0.09429   0.00000  -0.00015   0.00029   0.00014  -0.09415
   D22       -3.02102   0.00000  -0.00048   0.00017  -0.00031  -3.02133
   D23       -3.00387  -0.00000   0.00135  -0.00003   0.00132  -3.00255
   D24       -0.89396   0.00001   0.00160  -0.00001   0.00159  -0.89237
   D25        1.17136  -0.00000   0.00157  -0.00007   0.00149   1.17286
   D26       -0.06526  -0.00000   0.00167   0.00008   0.00175  -0.06351
   D27        2.04464   0.00001   0.00192   0.00010   0.00202   2.04666
   D28       -2.17321  -0.00000   0.00188   0.00003   0.00192  -2.17130
   D29        0.02700  -0.00000  -0.00175  -0.00006  -0.00181   0.02519
   D30       -3.11575  -0.00000  -0.00166   0.00001  -0.00166  -3.11741
   D31       -2.10505  -0.00000  -0.00187  -0.00004  -0.00191  -2.10696
   D32        1.03539  -0.00000  -0.00179   0.00003  -0.00176   1.03363
   D33        2.15998  -0.00001  -0.00183  -0.00010  -0.00193   2.15805
   D34       -0.98277  -0.00001  -0.00174  -0.00003  -0.00178  -0.98455
   D35       -3.13533  -0.00000  -0.00050   0.00007  -0.00042  -3.13576
   D36        0.00512  -0.00000  -0.00041   0.00014  -0.00027   0.00485
         Item               Value     Threshold  Converged?
 Maximum Force            0.000035     0.000450     YES
 RMS     Force            0.000009     0.000300     YES
 Maximum Displacement     0.003313     0.001800     NO 
 RMS     Displacement     0.000949     0.001200     YES
 Predicted change in Energy=-3.297133D-08
 Lowest energy point so far.  Saving SCF results.
 GradGradGradGradGradGradGradGradGradGradGradGradGradGradGradGradGradGrad

 Leave Link  103 at Fri Mar 14 14:26:58 2025, MaxMem=  8589934592 cpu:               1.1 elap:               0.4
 (Enter /home/enzo/gaussian_versions/gdv.j21/gdv/l202.exe)
                          Input orientation:                          
 ---------------------------------------------------------------------
 Center     Atomic      Atomic             Coordinates (Angstroms)
 Number     Number       Type             X           Y           Z
 ---------------------------------------------------------------------
      1          6           0       -2.506105    1.491579   -1.009828
      2          6           0       -1.673702    0.886996    0.120542
      3         16           0       -2.681730   -0.165762    1.269237
      4          6           0       -0.528259    0.034981   -0.435230
      5          8           0       -0.705165   -0.777541   -1.337141
      6          7           0        0.691340    0.241852    0.130120
      7          6           0        1.824812   -0.576865   -0.231715
      8          6           0        2.982445   -0.253339    0.687490
      9          8           0        2.942555    0.547146    1.597127
     10          8           0        4.077678   -0.970944    0.371907
     11          1           0       -3.359515    2.043249   -0.607156
     12          1           0       -1.892918    2.177586   -1.607838
     13          1           0       -2.868428    0.700834   -1.671933
     14          1           0       -1.283275    1.677078    0.771286
     15          1           0       -2.916516   -1.139929    0.363480
     16          1           0        0.811690    0.837075    0.940431
     17          1           0        1.588010   -1.646500   -0.157207
     18          1           0        2.130655   -0.406066   -1.271750
     19          1           0        4.773510   -0.713552    1.006013
 ---------------------------------------------------------------------
                    Distance matrix (angstroms):
                    1          2          3          4          5
     1  C    0.000000
     2  C    1.528447   0.000000
     3  S    2.823430   1.855780   0.000000
     4  C    2.522641   1.531944   2.753714   0.000000
     5  O    2.915377   2.415282   3.327805   1.226757   0.000000
     6  N    3.617313   2.451474   3.583481   1.360087   2.267651
     7  C    4.862177   3.808751   4.767681   2.439819   2.768217
     8  C    6.004150   4.827163   5.694645   3.697117   4.239386
     9  O    6.113597   4.858563   5.678762   4.054545   4.865243
    10  O    7.163757   6.049257   6.866085   4.783096   5.082700
    11  H    1.093066   2.169892   2.976571   3.475444   3.941486
    12  H    1.097370   2.168174   3.793556   2.797868   3.196375
    13  H    1.093132   2.162173   3.071860   2.729320   2.641474
    14  H    2.168430   1.095505   2.366366   2.173065   3.287070
    15  H    2.996539   2.389985   1.350748   2.778871   2.813096
    16  H    3.903800   2.617611   3.649353   2.081168   3.177290
    17  H    5.228411   4.139386   4.738987   2.717217   2.721394
    18  H    5.016892   4.252484   5.447330   2.822076   2.860795
    19  H    7.868863   6.701668   7.479971   5.544929   5.959056
                    6          7          8          9         10
     6  N    0.000000
     7  C    1.444293   0.000000
     8  C    2.409365   1.513183   0.000000
     9  O    2.704309   2.420210   1.212356   0.000000
    10  O    3.605083   2.365388   1.346880   2.257048   0.000000
    11  H    4.494222   5.820929   6.868107   6.842023   8.084292
    12  H    3.666872   4.827239   5.911607   6.025939   7.034249
    13  H    4.016217   5.072795   6.380442   6.669175   7.431051
    14  H    2.523900   3.968184   4.682937   4.451562   5.992608
    15  H    3.870452   4.811600   5.974008   6.220678   6.996241
    16  H    1.012610   2.097515   2.442367   2.248532   3.776087
    17  H    2.110082   1.098064   2.144496   3.118424   2.633398
    18  H    2.111082   1.097445   2.141844   3.130216   2.609904
    19  H    4.283001   3.200855   1.876477   2.300254   0.975973
                   11         12         13         14         15
    11  H    0.000000
    12  H    1.780540   0.000000
    13  H    1.782413   1.771024   0.000000
    14  H    2.518920   2.506473   3.071657   0.000000
    15  H    3.357231   3.992462   2.744745   3.281662   0.000000
    16  H    4.609646   3.950386   4.515116   2.263426   4.259218
    17  H    6.188272   5.370738   5.259678   4.489159   4.562728
    18  H    6.048372   4.793470   5.135777   4.490925   5.355975
    19  H    8.737755   7.722186   8.220164   6.515739   7.728593
                   16         17         18         19
    16  H    0.000000
    17  H    2.824115   0.000000
    18  H    2.859862   1.753667   0.000000
    19  H    4.254969   3.517227   3.502490   0.000000
 Stoichiometry    C5H9NO3S
 Framework group  C1[X(C5H9NO3S)]
 Deg. of freedom    51
 Full point group                 C1      NOp   1
 RotChk:  IX=3 Diff= 1.18D-04
 Largest Abelian subgroup         C1      NOp   1
 Largest concise Abelian subgroup C1      NOp   1
                         Standard orientation:                         
 ---------------------------------------------------------------------
 Center     Atomic      Atomic             Coordinates (Angstroms)
 Number     Number       Type             X           Y           Z
 ---------------------------------------------------------------------
      1          6           0        2.892474   -0.960003    1.113937
      2          6           0        1.894380    0.076119    0.597789
      3         16           0        2.648690    1.251718   -0.624055
      4          6           0        0.690826   -0.602041   -0.064335
      5          8           0        0.826084   -1.522211   -0.864288
      6          7           0       -0.530220   -0.123123    0.295555
      7          6           0       -1.733188   -0.605737   -0.341575
      8          6           0       -2.905786    0.235468    0.113518
      9          8           0       -2.829399    1.179382    0.870484
     10          8           0       -4.060725   -0.193761   -0.430508
     11          1           0        3.778542   -0.469710    1.525386
     12          1           0        2.431732   -1.572789    1.899070
     13          1           0        3.194132   -1.626177    0.301440
     14          1           0        1.565823    0.728799    1.413994
     15          1           0        2.818883    0.325124   -1.592033
     16          1           0       -0.632418    0.700691    0.875438
     17          1           0       -1.654473   -0.559849   -1.435853
     18          1           0       -1.926176   -1.657709   -0.095618
     19          1           0       -4.763466    0.395877   -0.097334
 ---------------------------------------------------------------------
 Rotational constants (GHZ):           2.3484813           0.4753493           0.4476703
 Leave Link  202 at Fri Mar 14 14:26:58 2025, MaxMem=  8589934592 cpu:               0.3 elap:               0.2
 (Enter /home/enzo/gaussian_versions/gdv.j21/gdv/l301.exe)
 Standard basis: 6-31G(d) (6D, 7F)
 Ernie: Thresh=  0.10000D-02 Tol=  0.10000D-05 Strict=F.
 There are   172 symmetry adapted cartesian basis functions of A   symmetry.
 There are   172 symmetry adapted basis functions of A   symmetry.
   172 basis functions,   340 primitive gaussians,   172 cartesian basis functions
    43 alpha electrons       43 beta electrons
       nuclear repulsion energy       610.5699002282 Hartrees.
 IExCor=      4002 DFT=T Ex+Corr=B3LYP ScaHFX=  0.200000
 ScaDFX=  0.800000  0.720000  1.000000  0.810000  1.000000  0.000000
 ScaDFX=  0.000000  0.000000  0.000000  0.000000  0.000000  0.000000
 IRadAn=      5 IRanWt=     -1 IRanGd=            0 ICorTp=0 IEmpDi=  4
 NAtoms=   19 NActive=   19 NUniq=   19 SFac= 1.00D+00 NAtFMM=   60 NAOKFM=F Big=F
 Integral buffers will be    131072 words long.
 Raffenetti 2 integral format.
 Two-electron integral symmetry is turned on.
 Leave Link  301 at Fri Mar 14 14:26:58 2025, MaxMem=  8589934592 cpu:               0.4 elap:               0.2
 (Enter /home/enzo/gaussian_versions/gdv.j21/gdv/l302.exe)
 NPDir=0 NMtPBC=     1 NCelOv=     1 NCel=       1 NClECP=     1 NCelD=      1
         NCelK=      1 NCelE2=     1 NClLst=     1 CellRange=     0.0.
 One-electron integrals computed using PRISM.
 One-electron integral symmetry used in STVInt
 NBasis=   172 RedAO= T EigKep=  2.54D-03  NBF=   172
 NBsUse=   172 1.00D-06 EigRej= -1.00D+00 NBFU=   172
 Precomputing XC quadrature grid using
 IXCGrd= 4 IRadAn=           5 IRanWt=          -1 IRanGd=           0 AccXCQ= 0.00D+00.
 Generated NRdTot=       0 NPtTot=      408559 NUsed=           0 NTot=          64
 NSgBfM=   171   171   171   171   171 MxSgAt=    19 MxSgA2=    19 SizInc=   0.000
 NMBTot=     3487 MaxBatPerAtom=       85 MaxMicBPerAtom=      204 NBfPt=            50029111.
 Leave Link  302 at Fri Mar 14 14:26:59 2025, MaxMem=  8589934592 cpu:               1.9 elap:               0.3
 (Enter /home/enzo/gaussian_versions/gdv.j21/gdv/l303.exe)
 DipDrv:  MaxL=1.
 Leave Link  303 at Fri Mar 14 14:26:59 2025, MaxMem=  8589934592 cpu:               0.2 elap:               0.2
 (Enter /home/enzo/gaussian_versions/gdv.j21/gdv/l401.exe)
 Initial guess from the checkpoint file:  "/local/home/enzo/scratch/Gau-2270961.chk"
 B after Tr=     0.000000    0.000000    0.000000
         Rot=    1.000000   -0.000068   -0.000010   -0.000019 Ang=  -0.01 deg.
 AO Guess basis will be translated and rotated to current coordinates.
 JPrj=2 DoOrth=T DoCkMO=T.
 Leave Link  401 at Fri Mar 14 14:26:59 2025, MaxMem=  8589934592 cpu:               0.5 elap:               0.2
 (Enter /home/enzo/gaussian_versions/gdv.j21/gdv/l502.exe)
 Integral symmetry usage will be decided dynamically.
 Closed shell SCF:
 Using DIIS extrapolation, IDIIS=  1040.
 NGot=  8589934592 LenX=  8589843591 LenY=  8589813566
 Requested convergence on RMS density matrix=1.00D-08 within 128 cycles.
 Requested convergence on MAX density matrix=1.00D-06.
 Requested convergence on             energy=1.00D-06.
 No special actions if energy rises.
 Fock matrices will be formed incrementally for  20 cycles.

 Cycle   1  Pass 1  IDiag  1:
 FoFJK:  IHMeth= 1 ICntrl=       0 DoSepK=F KAlg= 0 I1Cent=           0 FoldK=F
 IRaf= 890000000 NMat=       1 IRICut=       1 DoRegI=T DoRafI=F ISym2E= 0 IDoP0=0 IntGTp=1.
 FoFCou: FMM=F IPFlag=           0 FMFlag=      100000 FMFlg1=           0
         NFxFlg=           0 DoJE=F BraDBF=F KetDBF=F FulRan=T
         wScrn=  0.000000 ICntrl=         0 IOpCl=  0 I1Cent=           0 NGrid=           0
         NMat0=    1 NMatS0=      1 NMatT0=    0 NMatD0=    1 NMtDS0=    0 NMtDT0=    0
 Symmetry not used in FoFCou.
 E= -874.589147493813    
 DIIS: error= 4.93D-05 at cycle   1 NSaved=   1.
 NSaved= 1 IEnMin= 1 EnMin= -874.589147493813     IErMin= 1 ErrMin= 4.93D-05
 ErrMax= 4.93D-05  0.00D+00 EMaxC= 1.00D-01 BMatC= 8.47D-07 BMatP= 8.47D-07
 IDIUse=1 WtCom= 1.00D+00 WtEn= 0.00D+00
 Coeff-Com:  0.100D+01
 Coeff:      0.100D+01
 Gap=     1.613 Goal=   None    Shift=    0.000
 RMSDP=1.00D-05 MaxDP=2.00D-04              OVMax= 4.06D-04

 Cycle   2  Pass 1  IDiag  1:
 RMSU=  1.00D-05    CP:  1.00D+00
 E= -874.589149240052     Delta-E=       -0.000001746240 Rises=F Damp=F
 DIIS: error= 7.76D-06 at cycle   2 NSaved=   2.
 NSaved= 2 IEnMin= 2 EnMin= -874.589149240052     IErMin= 2 ErrMin= 7.76D-06
 ErrMax= 7.76D-06  0.00D+00 EMaxC= 1.00D-01 BMatC= 1.62D-08 BMatP= 8.47D-07
 IDIUse=1 WtCom= 1.00D+00 WtEn= 0.00D+00
 Coeff-Com: -0.666D-01 0.107D+01
 Coeff:     -0.666D-01 0.107D+01
 Gap=     0.225 Goal=   None    Shift=    0.000
 RMSDP=1.59D-06 MaxDP=2.36D-05 DE=-1.75D-06 OVMax= 7.71D-05

 Cycle   3  Pass 1  IDiag  1:
 RMSU=  1.32D-06    CP:  1.00D+00  1.09D+00
 E= -874.589149264041     Delta-E=       -0.000000023989 Rises=F Damp=F
 DIIS: error= 3.24D-06 at cycle   3 NSaved=   3.
 NSaved= 3 IEnMin= 3 EnMin= -874.589149264041     IErMin= 3 ErrMin= 3.24D-06
 ErrMax= 3.24D-06  0.00D+00 EMaxC= 1.00D-01 BMatC= 4.65D-09 BMatP= 1.62D-08
 IDIUse=1 WtCom= 1.00D+00 WtEn= 0.00D+00
 Coeff-Com: -0.331D-01 0.386D+00 0.647D+00
 Coeff:     -0.331D-01 0.386D+00 0.647D+00
 Gap=     0.225 Goal=   None    Shift=    0.000
 RMSDP=5.93D-07 MaxDP=1.44D-05 DE=-2.40D-08 OVMax= 2.35D-05

 Cycle   4  Pass 1  IDiag  1:
 RMSU=  4.36D-07    CP:  1.00D+00  1.10D+00  7.06D-01
 E= -874.589149267284     Delta-E=       -0.000000003242 Rises=F Damp=F
 DIIS: error= 2.11D-06 at cycle   4 NSaved=   4.
 NSaved= 4 IEnMin= 4 EnMin= -874.589149267284     IErMin= 4 ErrMin= 2.11D-06
 ErrMax= 2.11D-06  0.00D+00 EMaxC= 1.00D-01 BMatC= 1.41D-09 BMatP= 4.65D-09
 IDIUse=1 WtCom= 1.00D+00 WtEn= 0.00D+00
 Coeff-Com: -0.147D-01 0.158D+00 0.388D+00 0.469D+00
 Coeff:     -0.147D-01 0.158D+00 0.388D+00 0.469D+00
 Gap=     0.225 Goal=   None    Shift=    0.000
 RMSDP=2.50D-07 MaxDP=7.78D-06 DE=-3.24D-09 OVMax= 1.37D-05

 Cycle   5  Pass 1  IDiag  1:
 RMSU=  1.83D-07    CP:  1.00D+00  1.10D+00  7.54D-01  6.43D-01
 E= -874.589149268406     Delta-E=       -0.000000001123 Rises=F Damp=F
 DIIS: error= 7.39D-07 at cycle   5 NSaved=   5.
 NSaved= 5 IEnMin= 5 EnMin= -874.589149268406     IErMin= 5 ErrMin= 7.39D-07
 ErrMax= 7.39D-07  0.00D+00 EMaxC= 1.00D-01 BMatC= 1.51D-10 BMatP= 1.41D-09
 IDIUse=1 WtCom= 1.00D+00 WtEn= 0.00D+00
 Coeff-Com: -0.284D-02 0.251D-01 0.116D+00 0.273D+00 0.589D+00
 Coeff:     -0.284D-02 0.251D-01 0.116D+00 0.273D+00 0.589D+00
 Gap=     0.225 Goal=   None    Shift=    0.000
 RMSDP=9.19D-08 MaxDP=2.69D-06 DE=-1.12D-09 OVMax= 4.89D-06

 Cycle   6  Pass 1  IDiag  1:
 RMSU=  5.98D-08    CP:  1.00D+00  1.10D+00  7.74D-01  7.23D-01  7.12D-01
 E= -874.589149268515     Delta-E=       -0.000000000108 Rises=F Damp=F
 DIIS: error= 2.65D-07 at cycle   6 NSaved=   6.
 NSaved= 6 IEnMin= 6 EnMin= -874.589149268515     IErMin= 6 ErrMin= 2.65D-07
 ErrMax= 2.65D-07  0.00D+00 EMaxC= 1.00D-01 BMatC= 3.27D-11 BMatP= 1.51D-10
 IDIUse=1 WtCom= 1.00D+00 WtEn= 0.00D+00
 Coeff-Com:  0.394D-03-0.889D-02 0.164D-01 0.106D+00 0.379D+00 0.506D+00
 Coeff:      0.394D-03-0.889D-02 0.164D-01 0.106D+00 0.379D+00 0.506D+00
 Gap=     0.225 Goal=   None    Shift=    0.000
 RMSDP=3.62D-08 MaxDP=9.24D-07 DE=-1.08D-10 OVMax= 1.22D-06

 Cycle   7  Pass 1  IDiag  1:
 RMSU=  1.82D-08    CP:  1.00D+00  1.10D+00  7.78D-01  7.42D-01  7.74D-01
                    CP:  5.44D-01
 E= -874.589149268535     Delta-E=       -0.000000000020 Rises=F Damp=F
 DIIS: error= 5.23D-08 at cycle   7 NSaved=   7.
 NSaved= 7 IEnMin= 7 EnMin= -874.589149268535     IErMin= 7 ErrMin= 5.23D-08
 ErrMax= 5.23D-08  0.00D+00 EMaxC= 1.00D-01 BMatC= 1.78D-12 BMatP= 3.27D-11
 IDIUse=1 WtCom= 1.00D+00 WtEn= 0.00D+00
 Coeff-Com:  0.584D-03-0.824D-02-0.873D-02 0.114D-01 0.956D-01 0.240D+00
 Coeff-Com:  0.669D+00
 Coeff:      0.584D-03-0.824D-02-0.873D-02 0.114D-01 0.956D-01 0.240D+00
 Coeff:      0.669D+00
 Gap=     0.225 Goal=   None    Shift=    0.000
 RMSDP=9.63D-09 MaxDP=1.74D-07 DE=-2.00D-11 OVMax= 5.84D-07

 SCF Done:  E(RB3LYP) =  -874.589149269     A.U. after    7 cycles
            NFock=  7  Conv=0.96D-08     -V/T= 2.0064
 KE= 8.690203684193D+02 PE=-3.280888890735D+03 EE= 9.267094728190D+02
 Leave Link  502 at Fri Mar 14 14:27:03 2025, MaxMem=  8589934592 cpu:              38.5 elap:               3.5
 (Enter /home/enzo/gaussian_versions/gdv.j21/gdv/l701.exe)
 ... and contract with generalized density number  0.
 Compute integral first derivatives.
 Leave Link  701 at Fri Mar 14 14:27:03 2025, MaxMem=  8589934592 cpu:               1.1 elap:               0.2
 (Enter /home/enzo/gaussian_versions/gdv.j21/gdv/l702.exe)
 L702 exits ... SP integral derivatives will be done elsewhere.
 Leave Link  702 at Fri Mar 14 14:27:03 2025, MaxMem=  8589934592 cpu:               0.4 elap:               0.2
 (Enter /home/enzo/gaussian_versions/gdv.j21/gdv/l703.exe)
 Integral derivatives from FoFJK, PRISM(SPDF).
 Compute integral first derivatives, UseDBF=F ICtDFT=           0.
 Calling FoFJK, ICntrl=      2127 FMM=F ISym2X=0 I1Cent= 0 IOpClX= 0 NMat=1 NMatS=1 NMatT=0.
 FoFJK:  IHMeth= 1 ICntrl=    2127 DoSepK=F KAlg= 0 I1Cent=           0 FoldK=F
 IRaf=         0 NMat=       1 IRICut=       1 DoRegI=T DoRafI=F ISym2E= 0 IDoP0=0 IntGTp=1.
 FoFCou: FMM=F IPFlag=           0 FMFlag=      100000 FMFlg1=         800
         NFxFlg=           0 DoJE=F BraDBF=F KetDBF=F FulRan=T
         wScrn=  0.000000 ICntrl=      2127 IOpCl=  0 I1Cent=           0 NGrid=           0
         NMat0=    1 NMatS0=      1 NMatT0=    0 NMatD0=    1 NMtDS0=    0 NMtDT0=    0
 Symmetry not used in FoFCou.
 Leave Link  703 at Fri Mar 14 14:27:04 2025, MaxMem=  8589934592 cpu:              12.5 elap:               1.2
 (Enter /home/enzo/gaussian_versions/gdv.j21/gdv/l716.exe)
 Dipole        =-9.88679695D-01 2.69796413D-02 4.85373927D-01
 ***** Axes restored to original set *****
 -------------------------------------------------------------------
 Center     Atomic                   Forces (Hartrees/Bohr)
 Number     Number              X              Y              Z
 -------------------------------------------------------------------
      1        6          -0.000006657    0.000003822   -0.000009190
      2        6           0.000004602   -0.000000587    0.000006694
      3       16           0.000000351   -0.000002251    0.000000108
      4        6          -0.000008569   -0.000007695   -0.000012979
      5        8          -0.000001645    0.000007831    0.000008819
      6        7           0.000000723   -0.000003397   -0.000007187
      7        6           0.000012144   -0.000002398    0.000006777
      8        6           0.000001547   -0.000001337    0.000000659
      9        8           0.000000558   -0.000000007   -0.000003399
     10        8           0.000002700    0.000003315    0.000002723
     11        1           0.000000454   -0.000001434    0.000002061
     12        1           0.000000178   -0.000000846    0.000002763
     13        1           0.000001168   -0.000000342    0.000001982
     14        1          -0.000002138   -0.000000979   -0.000000591
     15        1           0.000000345   -0.000000434    0.000000474
     16        1          -0.000005615    0.000002321    0.000002954
     17        1          -0.000001310    0.000002115   -0.000000848
     18        1          -0.000001273    0.000003880   -0.000000832
     19        1           0.000002435   -0.000001579   -0.000000990
 -------------------------------------------------------------------
 Cartesian Forces:  Max     0.000012979 RMS     0.000004330
 Leave Link  716 at Fri Mar 14 14:27:04 2025, MaxMem=  8589934592 cpu:               0.2 elap:               0.1
 (Enter /home/enzo/gaussian_versions/gdv.j21/gdv/l103.exe)

 GradGradGradGradGradGradGradGradGradGradGradGradGradGradGradGradGradGrad
 Berny optimization.
 Using GEDIIS/GDIIS optimizer.
 FormGI is forming the generalized inverse of G from B-inverse, IUseBI=4.
 Internal  Forces:  Max     0.000014048 RMS     0.000003741
 Search for a local minimum.
 Step number  22 out of a maximum of   93
 All quantities printed in internal units (Hartrees-Bohrs-Radians)
 RMS Force = .37415D-05 SwitMx=.10000D-02 MixMth= 2
 Mixed Optimization -- En-DIIS/RFO-DIIS
 Swapping is turned off.
 Update second derivatives using D2CorX and points   14   15   16   17   18
                                                     19   20   21   22
 DE= -5.22D-08 DEPred=-3.30D-08 R= 1.58D+00
 Trust test= 1.58D+00 RLast= 6.21D-03 DXMaxT set to 1.43D+00
 ITU=  0  0  0  0  1  1  1  1  1  1  1  1  1  1  1  1  1  0  1  1
 ITU=  1  0
     Eigenvalues ---    0.00084   0.00126   0.00205   0.00445   0.00529
     Eigenvalues ---    0.00563   0.01443   0.02073   0.04159   0.04542
     Eigenvalues ---    0.04885   0.05207   0.05647   0.05734   0.05843
     Eigenvalues ---    0.06745   0.08015   0.09653   0.13543   0.15532
     Eigenvalues ---    0.15740   0.15914   0.16029   0.16096   0.17474
     Eigenvalues ---    0.17637   0.19600   0.21198   0.22253   0.22611
     Eigenvalues ---    0.24159   0.24955   0.25203   0.26496   0.28217
     Eigenvalues ---    0.30019   0.31699   0.32552   0.32596   0.32598
     Eigenvalues ---    0.32637   0.32653   0.32922   0.36117   0.38186
     Eigenvalues ---    0.41049   0.45476   0.46649   0.53860   0.78443
     Eigenvalues ---    0.80328
 En-DIIS/RFO-DIIS/Sim-DIIS IScMMF=       -3 using points:    22   21   20   19   18   17   16   15   14   13
 RFO step:  Lambda=-3.39447423D-09.
 NNeg= 0 NGDIIS=10 SimSw=  2.50D-01 Rises=F DC= -5.22D-08 SmlDif=  1.00D-05
 NRisDI= 0 DoIntr=F SqrtH=F CThrHd= 10.0 CDAdj=  3.0
 RMS Error=  0.1772576037D-03 NUsed=10 OKEnD=F EnDIS=F
 InvSVX:  RCond= 3.68D-09 Info=           0 Equed=N FErr=  8.86D-12 BErr=  1.08D-16
 DIIS inversion failure, remove point  10.
 InvSVX:  RCond= 5.43D-09 Info=           0 Equed=N FErr=  4.19D-12 BErr=  9.85D-17
 DIIS inversion failure, remove point   9.
 InvSVX:  RCond= 1.45D-08 Info=           0 Equed=N FErr=  7.40D-13 BErr=  8.57D-17
 DIIS inversion failure, remove point   8.
 InvSVX:  RCond= 1.74D-08 Info=           0 Equed=N FErr=  8.01D-13 BErr=  9.47D-17
 DIIS inversion failure, remove point   7.
 InvSVX:  RCond= 2.07D-08 Info=           0 Equed=N FErr=  6.82D-13 BErr=  9.61D-17
 DIIS inversion failure, remove point   6.
 InvSVX:  RCond= 2.68D-08 Info=           0 Equed=N FErr=  5.69D-13 BErr=  2.81D-17
 DIIS inversion failure, remove point   5.
 InvSVX:  RCond= 3.48D-07 Info=           0 Equed=N FErr=  1.33D-14 BErr=  4.23D-17
 RFO-DIIS uses    4 points instead of   10
 DidBck=FF Rises=F RFO-DIIS coefs:    1.21243   -0.21862   -0.01482    0.02101    0.00000
                   RFO-DIIS coefs:    0.00000    0.00000    0.00000    0.00000    0.00000
 Iteration  1 RMS(Cart)=  0.00041990 RMS(Int)=  0.00000011
 Iteration  2 RMS(Cart)=  0.00000009 RMS(Int)=  0.00000010
 Variable       Old X    -DE/DX   Delta X   Delta X   Delta X     New X
                                 (Linear)    (Quad)   (Total)
    R1        2.88835   0.00001   0.00001   0.00001   0.00003   2.88837
    R2        2.06560  -0.00000  -0.00000  -0.00000  -0.00000   2.06559
    R3        2.07373  -0.00000  -0.00000  -0.00000  -0.00000   2.07372
    R4        2.06572  -0.00000  -0.00000  -0.00000  -0.00001   2.06571
    R5        3.50692   0.00000  -0.00002   0.00001  -0.00001   3.50691
    R6        2.89495   0.00000  -0.00001   0.00002   0.00001   2.89496
    R7        2.07020  -0.00000  -0.00000  -0.00000  -0.00000   2.07020
    R8        2.55254  -0.00000   0.00000  -0.00000  -0.00000   2.55254
    R9        2.31824  -0.00001  -0.00000  -0.00002  -0.00002   2.31822
   R10        2.57019   0.00001   0.00000   0.00001   0.00002   2.57021
   R11        2.72932   0.00001   0.00000   0.00002   0.00003   2.72935
   R12        1.91356   0.00000   0.00000   0.00000   0.00001   1.91356
   R13        2.85950   0.00000  -0.00001   0.00002   0.00000   2.85951
   R14        2.07504  -0.00000  -0.00001  -0.00000  -0.00001   2.07503
   R15        2.07387   0.00000   0.00001   0.00000   0.00001   2.07388
   R16        2.29102  -0.00000   0.00000  -0.00001  -0.00000   2.29102
   R17        2.54523   0.00000  -0.00001   0.00001   0.00000   2.54524
   R18        1.84432   0.00000   0.00000  -0.00000  -0.00000   1.84432
    A1        1.93092  -0.00000  -0.00001  -0.00001  -0.00002   1.93091
    A2        1.92408  -0.00000  -0.00001  -0.00001  -0.00002   1.92406
    A3        1.92018  -0.00000  -0.00000  -0.00001  -0.00001   1.92017
    A4        1.89812   0.00000   0.00001   0.00001   0.00001   1.89813
    A5        1.90650   0.00000   0.00001   0.00001   0.00002   1.90652
    A6        1.88320   0.00000   0.00001   0.00001   0.00002   1.88322
    A7        1.96746   0.00000   0.00000   0.00001   0.00001   1.96747
    A8        1.93788   0.00000   0.00001   0.00000   0.00001   1.93789
    A9        1.92636  -0.00000  -0.00001  -0.00001  -0.00002   1.92634
   A10        1.89146  -0.00000  -0.00001   0.00001  -0.00000   1.89146
   A11        1.80805  -0.00000   0.00001  -0.00001  -0.00000   1.80804
   A12        1.92851   0.00000   0.00001   0.00000   0.00001   1.92852
   A13        1.65939   0.00000   0.00001   0.00000   0.00001   1.65940
   A14        2.12617  -0.00000   0.00000   0.00000   0.00001   2.12618
   A15        2.02092  -0.00001  -0.00001  -0.00002  -0.00003   2.02089
   A16        2.13608   0.00001   0.00001   0.00002   0.00003   2.13610
   A17        2.10991   0.00001   0.00000   0.00005   0.00005   2.10996
   A18        2.12776  -0.00001  -0.00003  -0.00007  -0.00009   2.12766
   A19        2.02685  -0.00000  -0.00002   0.00001  -0.00002   2.02684
   A20        1.90393   0.00001  -0.00001   0.00005   0.00004   1.90397
   A21        1.94544  -0.00000  -0.00001  -0.00002  -0.00003   1.94541
   A22        1.94756  -0.00000   0.00001  -0.00002  -0.00002   1.94754
   A23        1.90925  -0.00000   0.00005   0.00000   0.00005   1.90931
   A24        1.90626  -0.00000  -0.00003  -0.00001  -0.00004   1.90622
   A25        1.85044   0.00000  -0.00001   0.00001  -0.00000   1.85043
   A26        2.17947  -0.00000  -0.00001   0.00000  -0.00001   2.17947
   A27        1.94534   0.00000   0.00000  -0.00000   0.00000   1.94534
   A28        2.15837  -0.00000   0.00001  -0.00000   0.00000   2.15838
   A29        1.86190   0.00001   0.00001   0.00002   0.00003   1.86193
    D1        0.95022   0.00000  -0.00002  -0.00002  -0.00004   0.95017
    D2        3.07629  -0.00000  -0.00003  -0.00001  -0.00004   3.07625
    D3       -1.06215   0.00000  -0.00002  -0.00001  -0.00003  -1.06219
    D4        3.05041  -0.00000  -0.00003  -0.00003  -0.00005   3.05036
    D5       -1.10670  -0.00000  -0.00003  -0.00001  -0.00005  -1.10674
    D6        1.03804   0.00000  -0.00003  -0.00001  -0.00004   1.03800
    D7       -1.15791  -0.00000  -0.00002  -0.00003  -0.00005  -1.15796
    D8        0.96817  -0.00000  -0.00003  -0.00001  -0.00004   0.96813
    D9        3.11291   0.00000  -0.00002  -0.00001  -0.00004   3.11287
   D10        1.19231   0.00000  -0.00004   0.00003  -0.00001   1.19230
   D11       -0.95980  -0.00000  -0.00004   0.00002  -0.00002  -0.95983
   D12       -3.00846  -0.00000  -0.00005   0.00002  -0.00003  -3.00850
   D13       -0.80535  -0.00000   0.00006  -0.00003   0.00003  -0.80532
   D14        2.33158   0.00000   0.00006  -0.00001   0.00005   2.33163
   D15        1.36450   0.00000   0.00006  -0.00002   0.00004   1.36454
   D16       -1.78176   0.00000   0.00006   0.00001   0.00006  -1.78169
   D17       -2.94885  -0.00000   0.00007  -0.00003   0.00004  -2.94881
   D18        0.18808   0.00000   0.00007   0.00000   0.00007   0.18815
   D19        3.05213  -0.00000  -0.00010  -0.00012  -0.00022   3.05192
   D20        0.12496  -0.00000   0.00018  -0.00005   0.00013   0.12509
   D21       -0.09415   0.00000  -0.00010  -0.00009  -0.00019  -0.09434
   D22       -3.02133   0.00000   0.00017  -0.00002   0.00015  -3.02118
   D23       -3.00255   0.00000   0.00061   0.00000   0.00061  -3.00193
   D24       -0.89237   0.00000   0.00067   0.00002   0.00068  -0.89169
   D25        1.17286  -0.00000   0.00065   0.00000   0.00065   1.17351
   D26       -0.06351  -0.00000   0.00035  -0.00008   0.00028  -0.06324
   D27        2.04666   0.00000   0.00041  -0.00006   0.00035   2.04701
   D28       -2.17130  -0.00000   0.00039  -0.00008   0.00032  -2.17098
   D29        0.02519  -0.00000  -0.00035  -0.00003  -0.00038   0.02480
   D30       -3.11741  -0.00000  -0.00031  -0.00002  -0.00034  -3.11775
   D31       -2.10696  -0.00000  -0.00036  -0.00004  -0.00040  -2.10736
   D32        1.03363  -0.00000  -0.00033  -0.00003  -0.00036   1.03328
   D33        2.15805  -0.00000  -0.00036  -0.00004  -0.00040   2.15765
   D34       -0.98455  -0.00000  -0.00033  -0.00003  -0.00036  -0.98490
   D35       -3.13576   0.00000  -0.00008   0.00003  -0.00005  -3.13581
   D36        0.00485   0.00000  -0.00005   0.00004  -0.00001   0.00484
         Item               Value     Threshold  Converged?
 Maximum Force            0.000014     0.000450     YES
 RMS     Force            0.000004     0.000300     YES
 Maximum Displacement     0.001269     0.001800     YES
 RMS     Displacement     0.000420     0.001200     YES
 Predicted change in Energy=-3.633461D-09
 Optimization completed.
    -- Stationary point found.
                           ----------------------------
                           !   Optimized Parameters   !
                           ! (Angstroms and Degrees)  !
 --------------------------                            --------------------------
 ! Name  Definition              Value          Derivative Info.                !
 --------------------------------------------------------------------------------
 ! R1    R(1,2)                  1.5284         -DE/DX =    0.0                 !
 ! R2    R(1,11)                 1.0931         -DE/DX =    0.0                 !
 ! R3    R(1,12)                 1.0974         -DE/DX =    0.0                 !
 ! R4    R(1,13)                 1.0931         -DE/DX =    0.0                 !
 ! R5    R(2,3)                  1.8558         -DE/DX =    0.0                 !
 ! R6    R(2,4)                  1.5319         -DE/DX =    0.0                 !
 ! R7    R(2,14)                 1.0955         -DE/DX =    0.0                 !
 ! R8    R(3,15)                 1.3507         -DE/DX =    0.0                 !
 ! R9    R(4,5)                  1.2268         -DE/DX =    0.0                 !
 ! R10   R(4,6)                  1.3601         -DE/DX =    0.0                 !
 ! R11   R(6,7)                  1.4443         -DE/DX =    0.0                 !
 ! R12   R(6,16)                 1.0126         -DE/DX =    0.0                 !
 ! R13   R(7,8)                  1.5132         -DE/DX =    0.0                 !
 ! R14   R(7,17)                 1.0981         -DE/DX =    0.0                 !
 ! R15   R(7,18)                 1.0974         -DE/DX =    0.0                 !
 ! R16   R(8,9)                  1.2124         -DE/DX =    0.0                 !
 ! R17   R(8,10)                 1.3469         -DE/DX =    0.0                 !
 ! R18   R(10,19)                0.976          -DE/DX =    0.0                 !
 ! A1    A(2,1,11)             110.6338         -DE/DX =    0.0                 !
 ! A2    A(2,1,12)             110.2416         -DE/DX =    0.0                 !
 ! A3    A(2,1,13)             110.0185         -DE/DX =    0.0                 !
 ! A4    A(11,1,12)            108.7543         -DE/DX =    0.0                 !
 ! A5    A(11,1,13)            109.2345         -DE/DX =    0.0                 !
 ! A6    A(12,1,13)            107.8993         -DE/DX =    0.0                 !
 ! A7    A(1,2,3)              112.7271         -DE/DX =    0.0                 !
 ! A8    A(1,2,4)              111.0325         -DE/DX =    0.0                 !
 ! A9    A(1,2,14)             110.3726         -DE/DX =    0.0                 !
 ! A10   A(3,2,4)              108.3726         -DE/DX =    0.0                 !
 ! A11   A(3,2,14)             103.5934         -DE/DX =    0.0                 !
 ! A12   A(4,2,14)             110.4956         -DE/DX =    0.0                 !
 ! A13   A(2,3,15)              95.0762         -DE/DX =    0.0                 !
 ! A14   A(2,4,5)              121.8208         -DE/DX =    0.0                 !
 ! A15   A(2,4,6)              115.7903         -DE/DX =    0.0                 !
 ! A16   A(5,4,6)              122.3883         -DE/DX =    0.0                 !
 ! A17   A(4,6,7)              120.8887         -DE/DX =    0.0                 !
 ! A18   A(4,6,16)             121.9116         -DE/DX =    0.0                 !
 ! A19   A(7,6,16)             116.1301         -DE/DX =    0.0                 !
 ! A20   A(6,7,8)              109.0872         -DE/DX =    0.0                 !
 ! A21   A(6,7,17)             111.4656         -DE/DX =    0.0                 !
 ! A22   A(6,7,18)             111.5868         -DE/DX =    0.0                 !
 ! A23   A(8,7,17)             109.3923         -DE/DX =    0.0                 !
 ! A24   A(8,7,18)             109.2207         -DE/DX =    0.0                 !
 ! A25   A(17,7,18)            106.0221         -DE/DX =    0.0                 !
 ! A26   A(7,8,9)              124.8746         -DE/DX =    0.0                 !
 ! A27   A(7,8,10)             111.4598         -DE/DX =    0.0                 !
 ! A28   A(9,8,10)             123.6656         -DE/DX =    0.0                 !
 ! A29   A(8,10,19)            106.6789         -DE/DX =    0.0                 !
 ! D1    D(11,1,2,3)            54.4434         -DE/DX =    0.0                 !
 ! D2    D(11,1,2,4)           176.2585         -DE/DX =    0.0                 !
 ! D3    D(11,1,2,14)          -60.857          -DE/DX =    0.0                 !
 ! D4    D(12,1,2,3)           174.7758         -DE/DX =    0.0                 !
 ! D5    D(12,1,2,4)           -63.409          -DE/DX =    0.0                 !
 ! D6    D(12,1,2,14)           59.4755         -DE/DX =    0.0                 !
 ! D7    D(13,1,2,3)           -66.3433         -DE/DX =    0.0                 !
 ! D8    D(13,1,2,4)            55.4718         -DE/DX =    0.0                 !
 ! D9    D(13,1,2,14)          178.3563         -DE/DX =    0.0                 !
 ! D10   D(1,2,3,15)            68.3143         -DE/DX =    0.0                 !
 ! D11   D(4,2,3,15)           -54.9927         -DE/DX =    0.0                 !
 ! D12   D(14,2,3,15)         -172.3722         -DE/DX =    0.0                 !
 ! D13   D(1,2,4,5)            -46.143          -DE/DX =    0.0                 !
 ! D14   D(1,2,4,6)            133.5898         -DE/DX =    0.0                 !
 ! D15   D(3,2,4,5)             78.18           -DE/DX =    0.0                 !
 ! D16   D(3,2,4,6)           -102.0872         -DE/DX =    0.0                 !
 ! D17   D(14,2,4,5)          -168.9566         -DE/DX =    0.0                 !
 ! D18   D(14,2,4,6)            10.7762         -DE/DX =    0.0                 !
 ! D19   D(2,4,6,7)            174.8744         -DE/DX =    0.0                 !
 ! D20   D(2,4,6,16)             7.1595         -DE/DX =    0.0                 !
 ! D21   D(5,4,6,7)             -5.3945         -DE/DX =    0.0                 !
 ! D22   D(5,4,6,16)          -173.1094         -DE/DX =    0.0                 !
 ! D23   D(4,6,7,8)           -172.0332         -DE/DX =    0.0                 !
 ! D24   D(4,6,7,17)           -51.129          -DE/DX =    0.0                 !
 ! D25   D(4,6,7,18)            67.1998         -DE/DX =    0.0                 !
 ! D26   D(16,6,7,8)            -3.6391         -DE/DX =    0.0                 !
 ! D27   D(16,6,7,17)          117.265          -DE/DX =    0.0                 !
 ! D28   D(16,6,7,18)         -124.4061         -DE/DX =    0.0                 !
 ! D29   D(6,7,8,9)              1.443          -DE/DX =    0.0                 !
 ! D30   D(6,7,8,10)          -178.6144         -DE/DX =    0.0                 !
 ! D31   D(17,7,8,9)          -120.7198         -DE/DX =    0.0                 !
 ! D32   D(17,7,8,10)           59.2228         -DE/DX =    0.0                 !
 ! D33   D(18,7,8,9)           123.6472         -DE/DX =    0.0                 !
 ! D34   D(18,7,8,10)          -56.4103         -DE/DX =    0.0                 !
 ! D35   D(7,8,10,19)         -179.6657         -DE/DX =    0.0                 !
 ! D36   D(9,8,10,19)            0.2777         -DE/DX =    0.0                 !
 --------------------------------------------------------------------------------
 Lowest energy point so far.  Saving SCF results.
 Largest change from initial coordinates is atom    9       0.863 Angstoms.
 GradGradGradGradGradGradGradGradGradGradGradGradGradGradGradGradGradGrad

 Leave Link  103 at Fri Mar 14 14:27:05 2025, MaxMem=  8589934592 cpu:               0.6 elap:               0.2
 (Enter /home/enzo/gaussian_versions/gdv.j21/gdv/l202.exe)
                          Input orientation:                          
 ---------------------------------------------------------------------
 Center     Atomic      Atomic             Coordinates (Angstroms)
 Number     Number       Type             X           Y           Z
 ---------------------------------------------------------------------
      1          6           0       -2.506105    1.491579   -1.009828
      2          6           0       -1.673702    0.886996    0.120542
      3         16           0       -2.681730   -0.165762    1.269237
      4          6           0       -0.528259    0.034981   -0.435230
      5          8           0       -0.705165   -0.777541   -1.337141
      6          7           0        0.691340    0.241852    0.130120
      7          6           0        1.824812   -0.576865   -0.231715
      8          6           0        2.982445   -0.253339    0.687490
      9          8           0        2.942555    0.547146    1.597127
     10          8           0        4.077678   -0.970944    0.371907
     11          1           0       -3.359515    2.043249   -0.607156
     12          1           0       -1.892918    2.177586   -1.607838
     13          1           0       -2.868428    0.700834   -1.671933
     14          1           0       -1.283275    1.677078    0.771286
     15          1           0       -2.916516   -1.139929    0.363480
     16          1           0        0.811690    0.837075    0.940431
     17          1           0        1.588010   -1.646500   -0.157207
     18          1           0        2.130655   -0.406066   -1.271750
     19          1           0        4.773510   -0.713552    1.006013
 ---------------------------------------------------------------------
                    Distance matrix (angstroms):
                    1          2          3          4          5
     1  C    0.000000
     2  C    1.528447   0.000000
     3  S    2.823430   1.855780   0.000000
     4  C    2.522641   1.531944   2.753714   0.000000
     5  O    2.915377   2.415282   3.327805   1.226757   0.000000
     6  N    3.617313   2.451474   3.583481   1.360087   2.267651
     7  C    4.862177   3.808751   4.767681   2.439819   2.768217
     8  C    6.004150   4.827163   5.694645   3.697117   4.239386
     9  O    6.113597   4.858563   5.678762   4.054545   4.865243
    10  O    7.163757   6.049257   6.866085   4.783096   5.082700
    11  H    1.093066   2.169892   2.976571   3.475444   3.941486
    12  H    1.097370   2.168174   3.793556   2.797868   3.196375
    13  H    1.093132   2.162173   3.071860   2.729320   2.641474
    14  H    2.168430   1.095505   2.366366   2.173065   3.287070
    15  H    2.996539   2.389985   1.350748   2.778871   2.813096
    16  H    3.903800   2.617611   3.649353   2.081168   3.177290
    17  H    5.228411   4.139386   4.738987   2.717217   2.721394
    18  H    5.016892   4.252484   5.447330   2.822076   2.860795
    19  H    7.868863   6.701668   7.479971   5.544929   5.959056
                    6          7          8          9         10
     6  N    0.000000
     7  C    1.444293   0.000000
     8  C    2.409365   1.513183   0.000000
     9  O    2.704309   2.420210   1.212356   0.000000
    10  O    3.605083   2.365388   1.346880   2.257048   0.000000
    11  H    4.494222   5.820929   6.868107   6.842023   8.084292
    12  H    3.666872   4.827239   5.911607   6.025939   7.034249
    13  H    4.016217   5.072795   6.380442   6.669175   7.431051
    14  H    2.523900   3.968184   4.682937   4.451562   5.992608
    15  H    3.870452   4.811600   5.974008   6.220678   6.996241
    16  H    1.012610   2.097515   2.442367   2.248532   3.776087
    17  H    2.110082   1.098064   2.144496   3.118424   2.633398
    18  H    2.111082   1.097445   2.141844   3.130216   2.609904
    19  H    4.283001   3.200855   1.876477   2.300254   0.975973
                   11         12         13         14         15
    11  H    0.000000
    12  H    1.780540   0.000000
    13  H    1.782413   1.771024   0.000000
    14  H    2.518920   2.506473   3.071657   0.000000
    15  H    3.357231   3.992462   2.744745   3.281662   0.000000
    16  H    4.609646   3.950386   4.515116   2.263426   4.259218
    17  H    6.188272   5.370738   5.259678   4.489159   4.562728
    18  H    6.048372   4.793470   5.135777   4.490925   5.355975
    19  H    8.737755   7.722186   8.220164   6.515739   7.728593
                   16         17         18         19
    16  H    0.000000
    17  H    2.824115   0.000000
    18  H    2.859862   1.753667   0.000000
    19  H    4.254969   3.517227   3.502490   0.000000
 Stoichiometry    C5H9NO3S
 Framework group  C1[X(C5H9NO3S)]
 Deg. of freedom    51
 Full point group                 C1      NOp   1
 RotChk:  IX=3 Diff= 4.84D-16
 Largest Abelian subgroup         C1      NOp   1
 Largest concise Abelian subgroup C1      NOp   1
                         Standard orientation:                         
 ---------------------------------------------------------------------
 Center     Atomic      Atomic             Coordinates (Angstroms)
 Number     Number       Type             X           Y           Z
 ---------------------------------------------------------------------
      1          6           0        2.892474   -0.960003    1.113937
      2          6           0        1.894380    0.076119    0.597789
      3         16           0        2.648690    1.251718   -0.624055
      4          6           0        0.690826   -0.602041   -0.064335
      5          8           0        0.826084   -1.522211   -0.864288
      6          7           0       -0.530220   -0.123123    0.295555
      7          6           0       -1.733188   -0.605737   -0.341575
      8          6           0       -2.905786    0.235468    0.113518
      9          8           0       -2.829399    1.179382    0.870484
     10          8           0       -4.060725   -0.193761   -0.430508
     11          1           0        3.778542   -0.469710    1.525386
     12          1           0        2.431732   -1.572789    1.899070
     13          1           0        3.194132   -1.626177    0.301440
     14          1           0        1.565823    0.728799    1.413994
     15          1           0        2.818883    0.325124   -1.592033
     16          1           0       -0.632418    0.700691    0.875438
     17          1           0       -1.654473   -0.559849   -1.435853
     18          1           0       -1.926176   -1.657709   -0.095618
     19          1           0       -4.763466    0.395877   -0.097334
 ---------------------------------------------------------------------
 Rotational constants (GHZ):           2.3484813           0.4753493           0.4476703
 Leave Link  202 at Fri Mar 14 14:27:05 2025, MaxMem=  8589934592 cpu:               0.2 elap:               0.1
 (Enter /home/enzo/gaussian_versions/gdv.j21/gdv/l601.exe)
 Copying SCF densities to generalized density rwf, IOpCl= 0 IROHF=0.

 **********************************************************************

            Population analysis using the SCF Density.

 **********************************************************************

 Orbital symmetries:
       Occupied  (A) (A) (A) (A) (A) (A) (A) (A) (A) (A) (A) (A)
                 (A) (A) (A) (A) (A) (A) (A) (A) (A) (A) (A) (A)
                 (A) (A) (A) (A) (A) (A) (A) (A) (A) (A) (A) (A)
                 (A) (A) (A) (A) (A) (A) (A)
       Virtual   (A) (A) (A) (A) (A) (A) (A) (A) (A) (A) (A) (A)
                 (A) (A) (A) (A) (A) (A) (A) (A) (A) (A) (A) (A)
                 (A) (A) (A) (A) (A) (A) (A) (A) (A) (A) (A) (A)
                 (A) (A) (A) (A) (A) (A) (A) (A) (A) (A) (A) (A)
                 (A) (A) (A) (A) (A) (A) (A) (A) (A) (A) (A) (A)
                 (A) (A) (A) (A) (A) (A) (A) (A) (A) (A) (A) (A)
                 (A) (A) (A) (A) (A) (A) (A) (A) (A) (A) (A) (A)
                 (A) (A) (A) (A) (A) (A) (A) (A) (A) (A) (A) (A)
                 (A) (A) (A) (A) (A) (A) (A) (A) (A) (A) (A) (A)
                 (A) (A) (A) (A) (A) (A) (A) (A) (A) (A) (A) (A)
                 (A) (A) (A) (A) (A) (A) (A) (A) (A)
 The electronic state is 1-A.
 Alpha  occ. eigenvalues --      -88.87664     -19.22112     -19.16671     -19.11876     -14.37101
 Alpha  occ. eigenvalues --      -10.34776     -10.29429     -10.25104     -10.23788     -10.18611
 Alpha  occ. eigenvalues --       -7.94003      -5.90497      -5.90145      -5.89434      -1.13165
 Alpha  occ. eigenvalues --       -1.04423      -1.03831      -0.93399      -0.81678      -0.76331
 Alpha  occ. eigenvalues --       -0.70836      -0.65741      -0.61457      -0.59552      -0.52586
 Alpha  occ. eigenvalues --       -0.51117      -0.50300      -0.48927      -0.47628      -0.44721
 Alpha  occ. eigenvalues --       -0.43054      -0.42258      -0.41090      -0.40837      -0.39404
 Alpha  occ. eigenvalues --       -0.36979      -0.36244      -0.34347      -0.32551      -0.30620
 Alpha  occ. eigenvalues --       -0.26672      -0.26205      -0.23821
 Alpha virt. eigenvalues --       -0.01292      -0.00293       0.04501       0.05608       0.07497
 Alpha virt. eigenvalues --        0.08428       0.10696       0.12606       0.15144       0.16342
 Alpha virt. eigenvalues --        0.17152       0.18073       0.19511       0.20746       0.21885
 Alpha virt. eigenvalues --        0.24265       0.27274       0.32851       0.33494       0.34647
 Alpha virt. eigenvalues --        0.36768       0.38683       0.39564       0.42316       0.51010
 Alpha virt. eigenvalues --        0.51366       0.51875       0.54436       0.54722       0.56529
 Alpha virt. eigenvalues --        0.57282       0.59296       0.63703       0.64677       0.66046
 Alpha virt. eigenvalues --        0.66775       0.70670       0.71854       0.73862       0.74461
 Alpha virt. eigenvalues --        0.76448       0.79355       0.80396       0.81472       0.81983
 Alpha virt. eigenvalues --        0.82330       0.84535       0.85769       0.87128       0.88898
 Alpha virt. eigenvalues --        0.89586       0.90075       0.90665       0.91329       0.93542
 Alpha virt. eigenvalues --        0.94786       0.95995       1.01512       1.03616       1.05982
 Alpha virt. eigenvalues --        1.06570       1.07852       1.13539       1.15030       1.15647
 Alpha virt. eigenvalues --        1.18820       1.25013       1.28749       1.32892       1.35438
 Alpha virt. eigenvalues --        1.37669       1.40820       1.44586       1.49427       1.54043
 Alpha virt. eigenvalues --        1.55763       1.61039       1.67155       1.67663       1.72514
 Alpha virt. eigenvalues --        1.74185       1.75045       1.77410       1.79932       1.80733
 Alpha virt. eigenvalues --        1.83834       1.87273       1.88345       1.91032       1.92319
 Alpha virt. eigenvalues --        1.94708       1.96017       1.99583       2.03122       2.05388
 Alpha virt. eigenvalues --        2.07328       2.08944       2.21825       2.23231       2.26643
 Alpha virt. eigenvalues --        2.28286       2.31191       2.35311       2.36325       2.40273
 Alpha virt. eigenvalues --        2.45177       2.48360       2.50579       2.58939       2.62645
 Alpha virt. eigenvalues --        2.70003       2.71158       2.72796       2.80530       2.89573
 Alpha virt. eigenvalues --        2.94333       2.99161       3.07074       3.17748       3.82069
 Alpha virt. eigenvalues --        3.91082       3.97946       4.06023       4.17271       4.18464
 Alpha virt. eigenvalues --        4.20953       4.34036       4.48011       4.55545
          Condensed to atoms (all electrons):
               1          2          3          4          5          6
     1  C    5.121310   0.329178  -0.058728  -0.034965  -0.000815   0.001861
     2  C    0.329178   5.392514   0.263186   0.310474  -0.086746  -0.112064
     3  S   -0.058728   0.263186  15.692088  -0.034079  -0.008560   0.003077
     4  C   -0.034965   0.310474  -0.034079   4.363217   0.574655   0.260803
     5  O   -0.000815  -0.086746  -0.008560   0.574655   8.104813  -0.101921
     6  N    0.001861  -0.112064   0.003077   0.260803  -0.101921   7.142984
     7  C   -0.000183   0.007362  -0.000676  -0.023170   0.012045   0.245543
     8  C   -0.000000   0.000029  -0.000007   0.006129   0.000816  -0.028412
     9  O   -0.000000  -0.000054   0.000000   0.000386  -0.000004  -0.008020
    10  O   -0.000000   0.000000  -0.000000  -0.000043  -0.000000   0.001651
    11  H    0.374131  -0.033229   0.000076   0.004531   0.000232  -0.000086
    12  H    0.359265  -0.028089   0.005983  -0.002040  -0.000095   0.000376
    13  H    0.379957  -0.038262  -0.004389  -0.005388   0.009865   0.000567
    14  H   -0.037648   0.354417  -0.042377  -0.036151   0.002916   0.005341
    15  H   -0.004043  -0.019737   0.259093  -0.004777   0.005990   0.000518
    16  H    0.000062  -0.000420   0.000716  -0.012776   0.002669   0.290328
    17  H   -0.000018   0.000182   0.000141  -0.000407   0.005343  -0.045600
    18  H    0.000038  -0.000102  -0.000014  -0.003062   0.002836  -0.040952
    19  H    0.000000  -0.000000   0.000000   0.000003   0.000000  -0.000196
               7          8          9         10         11         12
     1  C   -0.000183  -0.000000  -0.000000  -0.000000   0.374131   0.359265
     2  C    0.007362   0.000029  -0.000054   0.000000  -0.033229  -0.028089
     3  S   -0.000676  -0.000007   0.000000  -0.000000   0.000076   0.005983
     4  C   -0.023170   0.006129   0.000386  -0.000043   0.004531  -0.002040
     5  O    0.012045   0.000816  -0.000004  -0.000000   0.000232  -0.000095
     6  N    0.245543  -0.028412  -0.008020   0.001651  -0.000086   0.000376
     7  C    5.115290   0.298634  -0.085827  -0.092285   0.000002  -0.000020
     8  C    0.298634   4.346984   0.576282   0.289203  -0.000000  -0.000000
     9  O   -0.085827   0.576282   8.019274  -0.081057   0.000000   0.000000
    10  O   -0.092285   0.289203  -0.081057   8.216646   0.000000  -0.000000
    11  H    0.000002  -0.000000   0.000000   0.000000   0.549946  -0.029728
    12  H   -0.000020  -0.000000   0.000000  -0.000000  -0.029728   0.569872
    13  H   -0.000009  -0.000000   0.000000   0.000000  -0.026429  -0.026366
    14  H    0.000116  -0.000072  -0.000017  -0.000000  -0.002405  -0.002710
    15  H   -0.000016  -0.000001   0.000000   0.000000  -0.000397   0.000016
    16  H   -0.046647  -0.001716   0.028133   0.000656  -0.000009  -0.000049
    17  H    0.365820  -0.021876   0.000701   0.002132  -0.000000   0.000001
    18  H    0.365320  -0.023399   0.000878   0.002720   0.000000  -0.000005
    19  H    0.010159  -0.005776   0.009503   0.219376  -0.000000   0.000000
              13         14         15         16         17         18
     1  C    0.379957  -0.037648  -0.004043   0.000062  -0.000018   0.000038
     2  C   -0.038262   0.354417  -0.019737  -0.000420   0.000182  -0.000102
     3  S   -0.004389  -0.042377   0.259093   0.000716   0.000141  -0.000014
     4  C   -0.005388  -0.036151  -0.004777  -0.012776  -0.000407  -0.003062
     5  O    0.009865   0.002916   0.005990   0.002669   0.005343   0.002836
     6  N    0.000567   0.005341   0.000518   0.290328  -0.045600  -0.040952
     7  C   -0.000009   0.000116  -0.000016  -0.046647   0.365820   0.365320
     8  C   -0.000000  -0.000072  -0.000001  -0.001716  -0.021876  -0.023399
     9  O    0.000000  -0.000017   0.000000   0.028133   0.000701   0.000878
    10  O    0.000000  -0.000000   0.000000   0.000656   0.002132   0.002720
    11  H   -0.026429  -0.002405  -0.000397  -0.000009  -0.000000   0.000000
    12  H   -0.026366  -0.002710   0.000016  -0.000049   0.000001  -0.000005
    13  H    0.521779   0.004836   0.003721  -0.000006  -0.000001  -0.000001
    14  H    0.004836   0.576516   0.003652   0.002898  -0.000002  -0.000016
    15  H    0.003721   0.003652   0.634729  -0.000019   0.000000  -0.000001
    16  H   -0.000006   0.002898  -0.000019   0.376951   0.002915   0.003457
    17  H   -0.000001  -0.000002   0.000000   0.002915   0.518959  -0.036262
    18  H   -0.000001  -0.000016  -0.000001   0.003457  -0.036262   0.524720
    19  H   -0.000000  -0.000000  -0.000000  -0.000068  -0.000325  -0.000356
              19
     1  C    0.000000
     2  C   -0.000000
     3  S    0.000000
     4  C    0.000003
     5  O    0.000000
     6  N   -0.000196
     7  C    0.010159
     8  C   -0.005776
     9  O    0.009503
    10  O    0.219376
    11  H   -0.000000
    12  H    0.000000
    13  H   -0.000000
    14  H   -0.000000
    15  H   -0.000000
    16  H   -0.000068
    17  H   -0.000325
    18  H   -0.000356
    19  H    0.347958
 Mulliken charges:
               1
     1  C   -0.429403
     2  C   -0.338640
     3  S   -0.075529
     4  C    0.636659
     5  O   -0.524040
     6  N   -0.615799
     7  C   -0.171458
     8  C    0.563183
     9  O   -0.460176
    10  O   -0.558999
    11  H    0.163365
    12  H    0.153589
    13  H    0.180125
    14  H    0.170707
    15  H    0.121270
    16  H    0.352923
    17  H    0.208298
    18  H    0.204202
    19  H    0.419721
 Sum of Mulliken charges =  -0.00000
 Mulliken charges with hydrogens summed into heavy atoms:
               1
     1  C    0.067677
     2  C   -0.167933
     3  S    0.045741
     4  C    0.636659
     5  O   -0.524040
     6  N   -0.262875
     7  C    0.241042
     8  C    0.563183
     9  O   -0.460176
    10  O   -0.139278
 Electronic spatial extent (au):  <R**2>=           2460.0561
 Charge=             -0.0000 electrons
 Dipole moment (field-independent basis, Debye):
    X=             -2.5130    Y=              0.0686    Z=              1.2337  Tot=              2.8003
 Quadrupole moment (field-independent basis, Debye-Ang):
   XX=            -55.9232   YY=            -72.9377   ZZ=            -65.1139
   XY=             -1.3076   XZ=              3.0091   YZ=             -3.1262
 Traceless Quadrupole moment (field-independent basis, Debye-Ang):
   XX=              8.7351   YY=             -8.2794   ZZ=             -0.4556
   XY=             -1.3076   XZ=              3.0091   YZ=             -3.1262
 Octapole moment (field-independent basis, Debye-Ang**2):
  XXX=           -103.8197  YYY=             -2.6443  ZZZ=             -3.9107  XYY=            -13.1141
  XXY=             -3.6179  XXZ=             -3.1433  XZZ=              2.1075  YZZ=              1.6182
  YYZ=              5.1090  XYZ=              5.7367
 Hexadecapole moment (field-independent basis, Debye-Ang**3):
 XXXX=          -2046.3385 YYYY=           -420.2993 ZZZZ=           -253.6064 XXXY=           -125.7594
 XXXZ=            -26.9768 YYYX=             -5.3867 YYYZ=              2.0399 ZZZX=            -10.5204
 ZZZY=              4.2060 XXYY=           -501.4900 XXZZ=           -441.7876 YYZZ=           -115.3408
 XXYZ=            -20.7712 YYXZ=             12.8503 ZZXY=              6.0272
 N-N= 6.105699002282D+02 E-N=-3.280888884446D+03  KE= 8.690203684193D+02
 No NMR shielding tensors so no spin-rotation constants.
 Leave Link  601 at Fri Mar 14 14:27:05 2025, MaxMem=  8589934592 cpu:               1.3 elap:               0.3
 (Enter /home/enzo/gaussian_versions/gdv.j21/gdv/l9999.exe)
 Unable to Open any file for archive entry.
 1\1\GINC-ORACLE\FOpt\RB3LYP\6-31G(d)\C5H9N1O3S1\ENZO\14-Mar-2025\0\\#p
  B3LYP/6-31G* OPT OUTPUT=PICKETT\\individuo_5272\\0,1\C,-2.5061050823,
 1.4915786434,-1.0098280527\C,-1.6737024197,0.8869960481,0.1205418346\S
 ,-2.6817299148,-0.1657621754,1.2692367957\C,-0.528258662,0.0349811334,
 -0.435229622\O,-0.7051653935,-0.7775414237,-1.3371410779\N,0.691339629
 3,0.2418518348,0.130119682\C,1.8248123625,-0.5768654937,-0.2317150325\
 C,2.9824454197,-0.253338505,0.6874901981\O,2.9425552737,0.5471464516,1
 .5971270717\O,4.0776782148,-0.9709442873,0.3719070864\H,-3.3595152819,
 2.0432490945,-0.6071556533\H,-1.8929176526,2.1775864249,-1.6078383682\
 H,-2.8684277044,0.7008344877,-1.6719329184\H,-1.2832753129,1.677077712
 7,0.7712862445\H,-2.916516312,-1.1399288547,0.3634796687\H,0.811690250
 5,0.8370748634,0.9404308255\H,1.5880097234,-1.646500184,-0.1572065799\
 H,2.1306549022,-0.4060662028,-1.2717503368\H,4.7735099599,-0.713551567
 8,1.0060132346\\Version=ES64L-GDVRevJ.21\State=1-A\HF=-874.5891493\RMS
 D=9.626e-09\RMSF=4.330e-06\Dipole=1.0426704,0.3437395,0.092113\Quadrup
 ole=5.558125,0.1874602,-5.7455852,-2.8458984,1.6542264,-2.9389808\PG=C
 01 [X(C5H9N1O3S1)]\\@
 The archive entry for this job was punched.
 DoSRE=F DoSRN=F DoDH=F DoFC=F DoNQ=T DoQCD=F DoSCD=F
 Inertia tensor (amu-bohr**2): 
                 1             2             3 
      1   0.837764D+03  0.411450D+03 -0.221600D+03
      2   0.411450D+03  0.397729D+04  0.124522D+02
      3  -0.221600D+03  0.124522D+02  0.378148D+04
 Principal inertia moments (amu-bohr**2):
 Iaa = 0.768472D+03 Ibb= 0.379666D+04 Icc= 0.403141D+04
 Rotation matrix to Principal Axis frame: 
                 1             2             3 
      1  -0.989177D+00  0.638363D-01 -0.132114D+00
      2   0.127121D+00 -0.768167D-01 -0.988908D+00
      3  -0.732768D-01 -0.995000D+00  0.678704D-01
                Principal axis orientation:                
 ---------------------------------------------------------------------
 Center     Atomic                     Coordinates (Angstroms)
 Number     Number                        X           Y           Z
 ---------------------------------------------------------------------
      1          6                    2.899532    0.964951   -1.201674
      2          6                    1.916453   -0.060187   -0.637051
      3         16                    2.695570   -1.186617    0.615168
      4          6                    0.715823    0.631375    0.016464
      5          8                    0.853615    1.579899    0.782133
      6          7                   -0.505705    0.130816   -0.310868
      7          6                   -1.704472    0.626090    0.324462
      8          6                   -2.875805   -0.239472   -0.086029
      9          8                   -2.801243   -1.208598   -0.810628
     10          8                   -4.027282    0.199572    0.457502
     11          1                    3.784328    0.467436   -1.607148
     12          1                    2.424007    1.546417   -2.001670
     13          1                    3.205929    1.661358   -0.416770
     14          1                    1.583003   -0.743446   -1.425784
     15          1                    2.870349   -0.225545    1.548074
     16          1                   -0.608465   -0.713483   -0.860393
     17          1                   -1.611665    0.619003    1.418575
     18          1                   -1.909082    1.667328    0.044564
     19          1                   -4.729328   -0.406716    0.154072
 ---------------------------------------------------------------------
 Rotational constants (MHZ):
   2348.4813364    475.3492844    447.6702708
 Nuclear quadrupole coupling constants [Chi] (MHz):
  6  N(14) 
   aa=     2.4077   ba=     0.1665   ca=    -0.8067
   ab=     0.1665   bb=    -0.3890   cb=     3.0573
   ac=    -0.8067   bc=     3.0573   cc=    -2.0187
 Dipole moment (Debye):
     -2.5276108     -0.1308927     -1.1982470  Tot=      2.8003116

 Atoms with significant hyperfine tensors:  N6-14

--------------------------------------------------------------------------------
 individuo_5272                                          
   99  1000  50  0.1760E-11  0.1000E+07  0.1000E+01 1.0000000000
a 3  1  0  0  0  1  1   1  0  1  0
     10000   0.23484813E+04    0.0000E+00   /  A  /
     20000   0.47534928E+03    0.0000E+00   /  B  /
     30000   0.44767027E+03    0.0000E+00   /  C  /
 110010000   0.36115448E+01    0.0000E+00   /  (6 N-14) 3/2*Chi_aa             /
 110040000   0.40742627E+00    0.0000E+00   /  (6 N-14) 1/4*(Chi_bb-Chi_cc)    /
 110610000   0.16647678E+00    0.0000E+00   /  (6 N-14) Chi_ab                 /
 110410000  -0.80665077E+00    0.0000E+00   /  (6 N-14) Chi_ac                 /
 110210000   0.30572936E+01    0.0000E+00   /  (6 N-14) Chi_bc                 /
--------------------------------------------------------------------------------



 A SCIENTIST IS SOMEONE WHOSE CURIOSITY SURVIVES
 EDUCATION'S ASSAULTS ON IT.
                          - SIR HERMANN BONDI
 Job cpu time:       0 days  0 hours 37 minutes 53.8 seconds.
 Elapsed time:       0 days  0 hours  5 minutes 27.3 seconds.
 File lengths (MBytes):  RWF=     26 Int=      0 D2E=      0 Chk=      4 Scr=      1
 Normal termination of Gaussian DV at Fri Mar 14 14:27:05 2025.
