%Nprocshared=12
%Mem=64GB
#p B3LYP/6-31G* OPT OUTPUT=PICKETT

individuo_5208

0 1
6 -1.952384 1.763216 0.388623
6 -1.780626 0.258817 0.560807
16 -2.961569 -0.626013 -0.501989
6 -0.375835 -0.153289 0.227472
8 -0.012666 -0.212448 -0.976915
7 0.551628 -0.465268 1.272194
6 1.925901 -0.855495 0.975134
6 2.500694 0.013944 -0.093785
8 3.459916 -0.398972 -0.794035
8 1.991421 1.289882 -0.295373
1 -2.984009 2.059889 0.669164
1 -1.241853 2.305707 1.046443
1 -1.768994 2.061206 -0.664859
1 -2.011586 -0.001246 1.615000
1 -2.783337 -1.841675 0.181865
1 0.230330 -0.409358 2.264728
1 2.543155 -0.770467 1.894204
1 1.945568 -1.911708 0.634718
1 2.259481 1.833457 -1.105764

