%Nprocshared=12
%Mem=64GB
#p B3LYP/6-31G* OPT OUTPUT=PICKETT

individuo_8160

0 1
6 -2.012614 0.796784 1.648585
6 -2.128993 -0.194914 0.497345
16 -2.714520 0.657263 -0.998663
6 -0.805913 -0.853555 0.232702
8 -0.707331 -2.106789 0.307683
7 0.336054 -0.064078 -0.116011
6 1.629551 -0.680916 -0.390825
6 2.741643 0.259452 -0.062408
8 2.489968 1.375297 0.459611
8 4.052438 -0.089531 -0.359128
1 -3.002827 1.252227 1.855995
1 -1.668324 0.276454 2.566517
1 -1.292997 1.604519 1.399646
1 -2.885292 -0.960360 0.770115
1 -3.913313 -0.076527 -1.039952
1 0.232702 0.973952 -0.173400
1 1.735717 -1.606338 0.213530
1 1.688993 -0.953622 -1.465048
1 4.806367 0.574424 -0.237395

