 Entering Gaussian System, Link 0=gdv
 Input=icluster_centers_population_49_gaussian/individuo_9422.gjf
 Output=icluster_centers_population_49_gaussian/individuo_9422.log
 Initial command:
 /home/enzo/gaussian_versions/gdv.j21/gdv/l1.exe "/local/home/enzo/scratch/Gau-2270982.inp" -scrdir="/local/home/enzo/scratch/"
 Entering Link 1 = /home/enzo/gaussian_versions/gdv.j21/gdv/l1.exe PID=   2271009.
  
 Copyright (c) 1988-2022, Gaussian, Inc.  All Rights Reserved.
  
 This is the private, development version of
 the Gaussian(R) DV system of programs. It is based on
 the Gaussian(R) 16 system (copyright 2016, Gaussian, Inc.),
 the Gaussian(R) 09 system (copyright 2009, Gaussian, Inc.),
 the Gaussian(R) 03 system (copyright 2003, Gaussian, Inc.),
 the Gaussian(R) 98 system (copyright 1998, Gaussian, Inc.),
 the Gaussian(R) 94 system (copyright 1995, Gaussian, Inc.),
 the Gaussian 92(TM) system (copyright 1992, Gaussian, Inc.),
 the Gaussian 90(TM) system (copyright 1990, Gaussian, Inc.),
 the Gaussian 88(TM) system (copyright 1988, Gaussian, Inc.),
 the Gaussian 86(TM) system (copyright 1986, Carnegie Mellon
 University), and the Gaussian 82(TM) system (copyright 1983,
 Carnegie Mellon University). Gaussian is a federally registered
 trademark of Gaussian, Inc.
  
 This software contains proprietary and confidential information,
 including trade secrets, belonging to Gaussian, Inc.
  
 This software is provided under written license and may be
 used, copied, transmitted, or stored only in accord with that
 written license.
  
 The following legend is applicable only to US Government
 contracts under FAR:
  
                    RESTRICTED RIGHTS LEGEND
  
 Use, reproduction and disclosure by the US Government is
 subject to restrictions as set forth in subparagraphs (a)
 and (c) of the Commercial Computer Software - Restricted
 Rights clause in FAR 52.227-19.
  
 Gaussian, Inc.
 340 Quinnipiac St., Bldg. 40, Wallingford CT 06492
  
  
 ---------------------------------------------------------------
 Warning -- This program may not be used in any manner that
 competes with the business of Gaussian, Inc. or will provide
 assistance to any competitor of Gaussian, Inc.  The licensee
 of this program is prohibited from giving any competitor of
 Gaussian, Inc. access to this program.  By using this program,
 the user acknowledges that Gaussian, Inc. is engaged in the
 business of creating and licensing software in the field of
 computational chemistry and represents and warrants to the
 licensee that it is not a competitor of Gaussian, Inc. and that
 it will not use this program in any manner prohibited above.
 ---------------------------------------------------------------
  

 Cite this work as:
 Gaussian Development Version, Revision J.21,
 M. J. Frisch, G. W. Trucks, H. B. Schlegel, G. E. Scuseria, 
 M. A. Robb, J. R. Cheeseman, G. Scalmani, V. Barone, 
 G. A. Petersson, H. Nakatsuji, X. Li, A. V. Marenich, M. Caricato, 
 J. Bloino, B. G. Janesko, J. Zheng, R. Gomperts, B. Mennucci, 
 H. P. Hratchian, J. V. Ortiz, A. F. Izmaylov, J. L. Sonnenberg, 
 D. Williams-Young, F. Ding, F. Lipparini, F. Egidi, J. Goings, 
 B. Peng, A. Petrone, T. Henderson, D. Ranasinghe, V. G. Zakrzewski, 
 J. Gao, N. Rega, G. Zheng, W. Liang, M. Hada, M. Ehara, K. Toyota, 
 R. Fukuda, J. Hasegawa, M. Ishida, T. Nakajima, Y. Honda, O. Kitao, 
 H. Nakai, T. Vreven, K. Throssell, J. A. Montgomery, Jr., 
 J. E. Peralta, F. Ogliaro, M. J. Bearpark, J. J. Heyd, 
 E. N. Brothers, K. N. Kudin, V. N. Staroverov, T. A. Keith, 
 R. Kobayashi, J. Normand, K. Raghavachari, A. P. Rendell, 
 J. C. Burant, S. S. Iyengar, J. Tomasi, M. Cossi, J. M. Millam, 
 M. Klene, C. Adamo, R. Cammi, J. W. Ochterski, R. L. Martin, 
 K. Morokuma, O. Farkas, J. B. Foresman, and D. J. Fox, 
 Gaussian, Inc., Wallingford CT, 2020.
 
 ******************************************
 Gaussian DV:  ES64L-GDVRevJ.21 25-Jul-2022
                14-Mar-2025 
 ******************************************
 %Nprocshared=12
 Will use up to   12 processors via shared memory.
 %Mem=64GB
 ----------------------------------
 #p B3LYP/6-31G* OPT OUTPUT=PICKETT
 ----------------------------------
 1/18=20,19=15,26=3,37=210000000,38=1/1,3;
 2/9=110,12=2/2;
 3/5=1,6=6,7=1,11=2,25=1,30=1,71=1,74=-5/1,2,3;
 4//1;
 5/5=2,38=5/2;
 6/7=2,8=2,9=2,10=2,28=1/1;
 7//1,2,3,16;
 1/18=20,19=15,26=3/3(2);
 2/9=110/2;
 99/10=1024/99;
 2/9=110/2;
 3/5=1,6=6,7=1,11=2,25=1,30=1,71=1,74=-5/1,2,3;
 4/5=5,16=3,69=1/1;
 5/5=2,38=5/2;
 7//1,2,3,16;
 1/18=20,19=15,26=3/3(-5);
 2/9=110/2;
 6/7=2,8=2,9=2,10=2,19=2,28=1/1;
 99/9=1,10=1024/99;
 Leave Link    1 at Fri Mar 14 14:21:33 2025, MaxMem=  8589934592 cpu:               0.2 elap:               0.0
 (Enter /home/enzo/gaussian_versions/gdv.j21/gdv/l101.exe)
 --------------
 individuo_9422
 --------------
 Symbolic Z-matrix:
 Charge =     0 Multiplicity =     1
 6                    -2.05823   1.80878   0.43767 
 6                    -1.78983   0.31658   0.59154 
 16                   -3.22848  -0.63508   0.01558 
 6                    -0.5645   -0.08125  -0.17963 
 8                    -0.52728   0.09628  -1.42584 
 7                     0.56204  -0.64764   0.49791 
 6                     1.76942  -1.03028  -0.22664 
 6                     2.86774  -0.05119   0.02632 
 8                     3.9663   -0.44375   0.49537 
 8                     2.66447   1.29781  -0.23234 
 1                    -2.94593   2.09646   1.03785 
 1                    -1.18684   2.39223   0.80117 
 1                    -2.24721   2.06604  -0.62551 
 1                    -1.64666   0.09629   1.67009 
 1                    -2.84825  -1.78634   0.72781 
 1                     0.51091  -0.78592   1.5322 
 1                     2.09242  -2.04191   0.09769 
 1                     1.55381  -1.06197  -1.31492 
 1                     1.78709   1.62629  -0.61492 
 
 ITRead=  0  0  0  0  0  0  0  0  0  0  0  0  0  0  0  0  0  0  0
 MicOpt= -1 -1 -1 -1 -1 -1 -1 -1 -1 -1 -1 -1 -1 -1 -1 -1 -1 -1 -1
 NAtoms=     19 NQM=       19 NQMF=       0 NMMI=      0 NMMIF=      0
                NMic=       0 NMicF=      0.
                    Isotopes and Nuclear Properties:
 (Nuclear quadrupole moments (NQMom) in fm**2, nuclear magnetic moments (NMagM)
  in nuclear magnetons)

  Atom         1           2           3           4           5           6           7           8           9          10
 IAtWgt=          12          12          32          12          16          14          12          12          16          16
 AtmWgt=  12.0000000  12.0000000  31.9720718  12.0000000  15.9949146  14.0030740  12.0000000  12.0000000  15.9949146  15.9949146
 NucSpn=           0           0           0           0           0           2           0           0           0           0
 AtZEff=  -0.0000000  -0.0000000  -0.0000000  -0.0000000  -0.0000000  -0.0000000  -0.0000000  -0.0000000  -0.0000000  -0.0000000
 NQMom=    0.0000000   0.0000000   0.0000000   0.0000000   0.0000000   2.0440000   0.0000000   0.0000000   0.0000000   0.0000000
 NMagM=    0.0000000   0.0000000   0.0000000   0.0000000   0.0000000   0.4037610   0.0000000   0.0000000   0.0000000   0.0000000
 AtZNuc=   6.0000000   6.0000000  16.0000000   6.0000000   8.0000000   7.0000000   6.0000000   6.0000000   8.0000000   8.0000000

  Atom        11          12          13          14          15          16          17          18          19
 IAtWgt=           1           1           1           1           1           1           1           1           1
 AtmWgt=   1.0078250   1.0078250   1.0078250   1.0078250   1.0078250   1.0078250   1.0078250   1.0078250   1.0078250
 NucSpn=           1           1           1           1           1           1           1           1           1
 AtZEff=  -0.0000000  -0.0000000  -0.0000000  -0.0000000  -0.0000000  -0.0000000  -0.0000000  -0.0000000  -0.0000000
 NQMom=    0.0000000   0.0000000   0.0000000   0.0000000   0.0000000   0.0000000   0.0000000   0.0000000   0.0000000
 NMagM=    2.7928460   2.7928460   2.7928460   2.7928460   2.7928460   2.7928460   2.7928460   2.7928460   2.7928460
 AtZNuc=   1.0000000   1.0000000   1.0000000   1.0000000   1.0000000   1.0000000   1.0000000   1.0000000   1.0000000
 Leave Link  101 at Fri Mar 14 14:21:33 2025, MaxMem=  8589934592 cpu:               1.3 elap:               0.3
 (Enter /home/enzo/gaussian_versions/gdv.j21/gdv/l103.exe)

 GradGradGradGradGradGradGradGradGradGradGradGradGradGradGradGradGradGrad
 Berny optimization.
 Initialization pass.
                           ----------------------------
                           !    Initial Parameters    !
                           ! (Angstroms and Degrees)  !
 --------------------------                            --------------------------
 ! Name  Definition              Value          Derivative Info.                !
 --------------------------------------------------------------------------------
 ! R1    R(1,2)                  1.5239         estimate D2E/DX2                !
 ! R2    R(1,11)                 1.1095         estimate D2E/DX2                !
 ! R3    R(1,12)                 1.1099         estimate D2E/DX2                !
 ! R4    R(1,13)                 1.1101         estimate D2E/DX2                !
 ! R5    R(2,3)                  1.8185         estimate D2E/DX2                !
 ! R6    R(2,4)                  1.5015         estimate D2E/DX2                !
 ! R7    R(2,14)                 1.1101         estimate D2E/DX2                !
 ! R8    R(3,15)                 1.4061         estimate D2E/DX2                !
 ! R9    R(4,5)                  1.2593         estimate D2E/DX2                !
 ! R10   R(4,6)                  1.4314         estimate D2E/DX2                !
 ! R11   R(6,7)                  1.4592         estimate D2E/DX2                !
 ! R12   R(6,16)                 1.0447         estimate D2E/DX2                !
 ! R13   R(7,8)                  1.4929         estimate D2E/DX2                !
 ! R14   R(7,17)                 1.1104         estimate D2E/DX2                !
 ! R15   R(7,18)                 1.1099         estimate D2E/DX2                !
 ! R16   R(8,9)                  1.2574         estimate D2E/DX2                !
 ! R17   R(8,10)                 1.3885         estimate D2E/DX2                !
 ! R18   R(10,19)                1.012          estimate D2E/DX2                !
 ! A1    A(2,1,11)             109.8889         estimate D2E/DX2                !
 ! A2    A(2,1,12)             110.0837         estimate D2E/DX2                !
 ! A3    A(2,1,13)             110.7082         estimate D2E/DX2                !
 ! A4    A(11,1,12)            108.3419         estimate D2E/DX2                !
 ! A5    A(11,1,13)            108.7717         estimate D2E/DX2                !
 ! A6    A(12,1,13)            108.996          estimate D2E/DX2                !
 ! A7    A(1,2,3)              109.944          estimate D2E/DX2                !
 ! A8    A(1,2,4)              110.5681         estimate D2E/DX2                !
 ! A9    A(1,2,14)             108.3679         estimate D2E/DX2                !
 ! A10   A(3,2,4)              110.1383         estimate D2E/DX2                !
 ! A11   A(3,2,14)             107.8122         estimate D2E/DX2                !
 ! A12   A(4,2,14)             109.9493         estimate D2E/DX2                !
 ! A13   A(2,3,15)              93.102          estimate D2E/DX2                !
 ! A14   A(2,4,5)              119.6715         estimate D2E/DX2                !
 ! A15   A(2,4,6)              120.2653         estimate D2E/DX2                !
 ! A16   A(5,4,6)              120.0604         estimate D2E/DX2                !
 ! A17   A(4,6,7)              121.3282         estimate D2E/DX2                !
 ! A18   A(4,6,16)             118.8457         estimate D2E/DX2                !
 ! A19   A(7,6,16)             119.8261         estimate D2E/DX2                !
 ! A20   A(6,7,8)              110.648          estimate D2E/DX2                !
 ! A21   A(6,7,17)             109.5465         estimate D2E/DX2                !
 ! A22   A(6,7,18)             109.4892         estimate D2E/DX2                !
 ! A23   A(8,7,17)             109.5121         estimate D2E/DX2                !
 ! A24   A(8,7,18)             109.134          estimate D2E/DX2                !
 ! A25   A(17,7,18)            108.4751         estimate D2E/DX2                !
 ! A26   A(7,8,9)              120.0801         estimate D2E/DX2                !
 ! A27   A(7,8,10)             119.8597         estimate D2E/DX2                !
 ! A28   A(9,8,10)             120.0477         estimate D2E/DX2                !
 ! A29   A(8,10,19)            120.844          estimate D2E/DX2                !
 ! D1    D(11,1,2,3)            60.0            estimate D2E/DX2                !
 ! D2    D(11,1,2,4)          -178.1733         estimate D2E/DX2                !
 ! D3    D(11,1,2,14)          -57.6045         estimate D2E/DX2                !
 ! D4    D(12,1,2,3)           179.2479         estimate D2E/DX2                !
 ! D5    D(12,1,2,4)           -58.9255         estimate D2E/DX2                !
 ! D6    D(12,1,2,14)           61.6434         estimate D2E/DX2                !
 ! D7    D(13,1,2,3)           -60.1726         estimate D2E/DX2                !
 ! D8    D(13,1,2,4)            61.654          estimate D2E/DX2                !
 ! D9    D(13,1,2,14)         -177.7772         estimate D2E/DX2                !
 ! D10   D(1,2,3,15)          -159.9912         estimate D2E/DX2                !
 ! D11   D(4,2,3,15)            77.9266         estimate D2E/DX2                !
 ! D12   D(14,2,3,15)          -42.042          estimate D2E/DX2                !
 ! D13   D(1,2,4,5)            -60.0081         estimate D2E/DX2                !
 ! D14   D(1,2,4,6)            119.3851         estimate D2E/DX2                !
 ! D15   D(3,2,4,5)             61.704          estimate D2E/DX2                !
 ! D16   D(3,2,4,6)           -118.9027         estimate D2E/DX2                !
 ! D17   D(14,2,4,5)          -179.6289         estimate D2E/DX2                !
 ! D18   D(14,2,4,6)            -0.2357         estimate D2E/DX2                !
 ! D19   D(2,4,6,7)           -179.3909         estimate D2E/DX2                !
 ! D20   D(2,4,6,16)             0.5657         estimate D2E/DX2                !
 ! D21   D(5,4,6,7)              0.0            estimate D2E/DX2                !
 ! D22   D(5,4,6,16)           179.9566         estimate D2E/DX2                !
 ! D23   D(4,6,7,8)            105.7028         estimate D2E/DX2                !
 ! D24   D(4,6,7,17)          -133.4634         estimate D2E/DX2                !
 ! D25   D(4,6,7,18)           -14.6239         estimate D2E/DX2                !
 ! D26   D(16,6,7,8)           -74.2533         estimate D2E/DX2                !
 ! D27   D(16,6,7,17)           46.5804         estimate D2E/DX2                !
 ! D28   D(16,6,7,18)          165.4199         estimate D2E/DX2                !
 ! D29   D(6,7,8,9)            123.1545         estimate D2E/DX2                !
 ! D30   D(6,7,8,10)           -55.5598         estimate D2E/DX2                !
 ! D31   D(17,7,8,9)             2.3003         estimate D2E/DX2                !
 ! D32   D(17,7,8,10)         -176.414          estimate D2E/DX2                !
 ! D33   D(18,7,8,9)          -116.3068         estimate D2E/DX2                !
 ! D34   D(18,7,8,10)           64.9788         estimate D2E/DX2                !
 ! D35   D(7,8,10,19)           -1.6496         estimate D2E/DX2                !
 ! D36   D(9,8,10,19)          179.6356         estimate D2E/DX2                !
 --------------------------------------------------------------------------------
 Trust Radius=3.00D-01 FncErr=1.00D-07 GrdErr=1.00D-06 EigMax=2.50D+02 EigMin=1.00D-04
 Number of steps in this run=     93 maximum allowed number of steps=    114.
 GradGradGradGradGradGradGradGradGradGradGradGradGradGradGradGradGradGrad

 Leave Link  103 at Fri Mar 14 14:21:33 2025, MaxMem=  8589934592 cpu:               0.1 elap:               0.1
 (Enter /home/enzo/gaussian_versions/gdv.j21/gdv/l202.exe)
                          Input orientation:                          
 ---------------------------------------------------------------------
 Center     Atomic      Atomic             Coordinates (Angstroms)
 Number     Number       Type             X           Y           Z
 ---------------------------------------------------------------------
      1          6           0       -2.058233    1.808775    0.437674
      2          6           0       -1.789829    0.316579    0.591536
      3         16           0       -3.228478   -0.635079    0.015582
      4          6           0       -0.564502   -0.081246   -0.179628
      5          8           0       -0.527278    0.096275   -1.425837
      6          7           0        0.562041   -0.647641    0.497911
      7          6           0        1.769424   -1.030275   -0.226635
      8          6           0        2.867740   -0.051186    0.026319
      9          8           0        3.966303   -0.443752    0.495367
     10          8           0        2.664469    1.297811   -0.232339
     11          1           0       -2.945925    2.096461    1.037847
     12          1           0       -1.186841    2.392231    0.801174
     13          1           0       -2.247211    2.066036   -0.625509
     14          1           0       -1.646661    0.096293    1.670089
     15          1           0       -2.848245   -1.786343    0.727812
     16          1           0        0.510909   -0.785924    1.532196
     17          1           0        2.092419   -2.041911    0.097692
     18          1           0        1.553812   -1.061974   -1.314919
     19          1           0        1.787087    1.626287   -0.614919
 ---------------------------------------------------------------------
                    Distance matrix (angstroms):
                    1          2          3          4          5
     1  C    0.000000
     2  C    1.523930   0.000000
     3  S    2.742272   1.818540   0.000000
     4  C    2.486860   1.501461   2.727931   0.000000
     5  O    2.957897   2.390055   3.147864   1.259340   0.000000
     6  N    3.592136   2.543576   3.821104   1.431419   2.332559
     7  C    4.811701   3.892519   5.019350   2.519936   2.825251
     8  C    5.281466   4.706131   6.124126   3.438547   3.695490
     9  O    6.432126   5.806928   7.213298   4.595130   4.916800
    10  O    4.797282   4.634906   6.206799   3.511528   3.613222
    11  H    1.109490   2.168809   2.930217   3.449033   3.990030
    12  H    1.109900   2.171606   3.734976   2.732648   3.265887
    13  H    1.110069   2.179678   2.944470   2.764261   2.734713
    14  H    2.149612   1.110090   2.403007   2.150358   3.292078
    15  H    3.692313   2.358198   1.406150   2.991034   3.683659
    16  H    3.811946   2.719145   4.038055   2.140893   3.256696
    17  H    5.671973   4.569268   5.504349   3.313660   3.708880
    18  H    4.935550   4.088388   4.982245   2.595759   2.384277
    19  H    3.990957   3.995647   5.537797   2.938557   2.890469
                    6          7          8          9         10
     6  N    0.000000
     7  C    1.459161   0.000000
     8  C    2.427840   1.492950   0.000000
     9  O    3.410363   2.385702   1.257360   0.000000
    10  O    2.956053   2.494218   1.388530   2.292895   0.000000
    11  H    4.486363   5.797405   6.279672   7.384163   5.807558
    12  H    3.520139   4.637827   4.796907   5.889924   4.135032
    13  H    4.064236   5.087200   5.574068   6.794347   4.986918
    14  H    2.608794   4.066492   4.806615   5.759947   4.862995
    15  H    3.602714   4.775508   6.014594   6.949435   6.389359
    16  H    1.044740   2.176477   2.891740   3.623789   3.477550
    17  H    2.108606   1.110370   2.137569   2.494734   3.404395
    18  H    2.107518   1.109890   2.132374   3.078871   2.823849
    19  H    2.812450   2.684846   2.095928   3.204181   1.011960
                   11         12         13         14         15
    11  H    0.000000
    12  H    1.799408   0.000000
    13  H    1.804406   1.807266   0.000000
    14  H    2.467486   2.497555   3.083880   0.000000
    15  H    3.896387   4.497347   4.127171   2.424048   0.000000
    16  H    4.527938   3.676604   4.516259   2.335044   3.596079
    17  H    6.587482   5.559681   6.019189   4.585310   4.987236
    18  H    5.979871   4.890865   4.970665   4.527127   4.906686
    19  H    5.035286   3.381751   4.058208   4.399178   5.910607
                   16         17         18         19
    16  H    0.000000
    17  H    2.477192   0.000000
    18  H    3.044653   1.801623   0.000000
    19  H    3.472390   3.749229   2.787681   0.000000
 Stoichiometry    C5H9NO3S
 Framework group  C1[X(C5H9NO3S)]
 Deg. of freedom    51
 Full point group                 C1      NOp   1
 Largest Abelian subgroup         C1      NOp   1
 Largest concise Abelian subgroup C1      NOp   1
                         Standard orientation:                         
 ---------------------------------------------------------------------
 Center     Atomic      Atomic             Coordinates (Angstroms)
 Number     Number       Type             X           Y           Z
 ---------------------------------------------------------------------
      1          6           0        2.058320    1.767494   -0.388552
      2          6           0        1.770699    0.280049   -0.553307
      3         16           0        3.190118   -0.694729    0.031622
      4          6           0        0.532301   -0.104741    0.203458
      5          8           0        0.485102    0.066572    1.450198
      6          7           0       -0.595198   -0.651664   -0.488338
      7          6           0       -1.814977   -1.021265    0.222074
      8          6           0       -2.896959   -0.025559   -0.036349
      9          8           0       -3.996144   -0.400187   -0.518430
     10          8           0       -2.677504    1.319050    0.231758
     11          1           0        2.955888    2.045961   -0.978294
     12          1           0        1.198819    2.365032   -0.757448
     13          1           0        2.240230    2.016359    0.677857
     14          1           0        1.635260    0.067597   -1.634427
     15          1           0        2.801016   -1.836710   -0.690691
     16          1           0       -0.535664   -0.785079   -1.522813
     17          1           0       -2.148781   -2.026523   -0.111022
     18          1           0       -1.610714   -1.061836    1.312251
     19          1           0       -1.799497    1.633155    0.624829
 ---------------------------------------------------------------------
 Rotational constants (GHZ):           2.7035032           0.4899868           0.4586781
 Leave Link  202 at Fri Mar 14 14:21:34 2025, MaxMem=  8589934592 cpu:               0.1 elap:               0.0
 (Enter /home/enzo/gaussian_versions/gdv.j21/gdv/l301.exe)
 Standard basis: 6-31G(d) (6D, 7F)
 Ernie: Thresh=  0.10000D-02 Tol=  0.10000D-05 Strict=F.
 There are   172 symmetry adapted cartesian basis functions of A   symmetry.
 There are   172 symmetry adapted basis functions of A   symmetry.
   172 basis functions,   340 primitive gaussians,   172 cartesian basis functions
    43 alpha electrons       43 beta electrons
       nuclear repulsion energy       613.0189527615 Hartrees.
 IExCor=      4002 DFT=T Ex+Corr=B3LYP ScaHFX=  0.200000
 ScaDFX=  0.800000  0.720000  1.000000  0.810000  1.000000  0.000000
 ScaDFX=  0.000000  0.000000  0.000000  0.000000  0.000000  0.000000
 IRadAn=      5 IRanWt=     -1 IRanGd=            0 ICorTp=0 IEmpDi=  4
 NAtoms=   19 NActive=   19 NUniq=   19 SFac= 1.00D+00 NAtFMM=   60 NAOKFM=F Big=F
 Integral buffers will be    131072 words long.
 Raffenetti 2 integral format.
 Two-electron integral symmetry is turned on.
 Leave Link  301 at Fri Mar 14 14:21:34 2025, MaxMem=  8589934592 cpu:               0.3 elap:               0.1
 (Enter /home/enzo/gaussian_versions/gdv.j21/gdv/l302.exe)
 NPDir=0 NMtPBC=     1 NCelOv=     1 NCel=       1 NClECP=     1 NCelD=      1
         NCelK=      1 NCelE2=     1 NClLst=     1 CellRange=     0.0.
 One-electron integrals computed using PRISM.
 One-electron integral symmetry used in STVInt
 NBasis=   172 RedAO= T EigKep=  2.93D-03  NBF=   172
 NBsUse=   172 1.00D-06 EigRej= -1.00D+00 NBFU=   172
 Precomputing XC quadrature grid using
 IXCGrd= 4 IRadAn=           5 IRanWt=          -1 IRanGd=           0 AccXCQ= 0.00D+00.
 Generated NRdTot=       0 NPtTot=      407313 NUsed=           0 NTot=          64
 NSgBfM=   171   171   171   171   171 MxSgAt=    19 MxSgA2=    19 SizInc=   0.000
 NMBTot=     3453 MaxBatPerAtom=       85 MaxMicBPerAtom=      209 NBfPt=            51943007.
 Leave Link  302 at Fri Mar 14 14:21:34 2025, MaxMem=  8589934592 cpu:               1.3 elap:               0.2
 (Enter /home/enzo/gaussian_versions/gdv.j21/gdv/l303.exe)
 DipDrv:  MaxL=1.
 Leave Link  303 at Fri Mar 14 14:21:34 2025, MaxMem=  8589934592 cpu:               0.3 elap:               0.2
 (Enter /home/enzo/gaussian_versions/gdv.j21/gdv/l401.exe)
 ExpMin= 1.17D-01 ExpMax= 2.19D+04 ExpMxC= 3.30D+03 IAcc=3 IRadAn=         5 AccDes= 0.00D+00
 Harris functional with IExCor= 4002 and IRadAn=       5 diagonalized for initial guess.
 HarFok:  IExCor=    4002 AccDes= 0.00D+00 IRadAn=         5 IDoV= 1 UseB2=F ITyADJ=14 ICtDFT=  3500011
 FoFCou: FMM=F IPFlag=           0 FMFlag=      100000 FMFlg1=           0
         NFxFlg=           0 DoJE=T BraDBF=F KetDBF=T FulRan=T
         wScrn=  0.000000 ICntrl=       500 IOpCl=  0 I1Cent=   200000004 NGrid=           0
         NMat0=    1 NMatS0=      1 NMatT0=    0 NMatD0=    1 NMtDS0=    0 NMtDT0=    0
 Petite list used in FoFCou.
 Harris En= -874.521707267874    
 JPrj=0 DoOrth=F DoCkMO=F.
 Leave Link  401 at Fri Mar 14 14:21:35 2025, MaxMem=  8589934592 cpu:               6.9 elap:               0.8
 (Enter /home/enzo/gaussian_versions/gdv.j21/gdv/l502.exe)
 Integral symmetry usage will be decided dynamically.
 Closed shell SCF:
 Using DIIS extrapolation, IDIIS=  1040.
 NGot=  8589934592 LenX=  8589843591 LenY=  8589813566
 Requested convergence on RMS density matrix=1.00D-08 within 128 cycles.
 Requested convergence on MAX density matrix=1.00D-06.
 Requested convergence on             energy=1.00D-06.
 No special actions if energy rises.
 Fock matrices will be formed incrementally for  20 cycles.
 Integral accuracy reduced to 1.0D-05 until final iterations.

 Cycle   1  Pass 0  IDiag  1:
 FoFJK:  IHMeth= 1 ICntrl=       0 DoSepK=F KAlg= 0 I1Cent=           0 FoldK=F
 IRaf= 910000000 NMat=       1 IRICut=       1 DoRegI=T DoRafI=F ISym2E= 0 IDoP0=0 IntGTp=1.
 FoFCou: FMM=F IPFlag=           0 FMFlag=      100000 FMFlg1=           0
         NFxFlg=           0 DoJE=F BraDBF=F KetDBF=F FulRan=T
         wScrn=  0.000000 ICntrl=         0 IOpCl=  0 I1Cent=           0 NGrid=           0
         NMat0=    1 NMatS0=      1 NMatT0=    0 NMatD0=    1 NMtDS0=    0 NMtDT0=    0
 Symmetry not used in FoFCou.
 E= -874.258592501112    
 DIIS: error= 2.65D-02 at cycle   1 NSaved=   1.
 NSaved= 1 IEnMin= 1 EnMin= -874.258592501112     IErMin= 1 ErrMin= 2.65D-02
 ErrMax= 2.65D-02  0.00D+00 EMaxC= 1.00D-01 BMatC= 3.50D-01 BMatP= 3.50D-01
 IDIUse=3 WtCom= 7.35D-01 WtEn= 2.65D-01
 Coeff-Com:  0.100D+01
 Coeff-En:   0.100D+01
 Coeff:      0.100D+01
 Gap=     0.265 Goal=   None    Shift=    0.000
 GapD=    0.265 DampG=1.000 DampE=0.500 DampFc=0.5000 IDamp=-1.
 Damping current iteration by 5.00D-01
 RMSDP=9.29D-03 MaxDP=2.70D-01              OVMax= 3.99D-01

 Cycle   2  Pass 0  IDiag  1:
 RMSU=  4.64D-03    CP:  9.96D-01
 E= -874.267645072886     Delta-E=       -0.009052571774 Rises=F Damp=T
 DIIS: error= 1.57D-02 at cycle   2 NSaved=   2.
 NSaved= 2 IEnMin= 2 EnMin= -874.267645072886     IErMin= 2 ErrMin= 1.57D-02
 ErrMax= 1.57D-02  0.00D+00 EMaxC= 1.00D-01 BMatC= 1.04D-01 BMatP= 3.50D-01
 IDIUse=3 WtCom= 8.43D-01 WtEn= 1.57D-01
 Coeff-Com:  0.320D+00 0.680D+00
 Coeff-En:   0.488D+00 0.512D+00
 Coeff:      0.346D+00 0.654D+00
 Gap=     0.263 Goal=   None    Shift=    0.000
 RMSDP=3.15D-03 MaxDP=1.22D-01 DE=-9.05D-03 OVMax= 2.33D-01

 Cycle   3  Pass 0  IDiag  1:
 RMSU=  2.22D-03    CP:  9.89D-01  5.20D-01
 E= -874.496418675288     Delta-E=       -0.228773602402 Rises=F Damp=F
 DIIS: error= 1.25D-02 at cycle   3 NSaved=   3.
 NSaved= 3 IEnMin= 3 EnMin= -874.496418675288     IErMin= 3 ErrMin= 1.25D-02
 ErrMax= 1.25D-02  0.00D+00 EMaxC= 1.00D-01 BMatC= 6.20D-02 BMatP= 1.04D-01
 IDIUse=3 WtCom= 8.75D-01 WtEn= 1.25D-01
 Coeff-Com:  0.145D+00 0.426D+00 0.429D+00
 Coeff-En:   0.000D+00 0.000D+00 0.100D+01
 Coeff:      0.127D+00 0.373D+00 0.500D+00
 Gap=     0.243 Goal=   None    Shift=    0.000
 RMSDP=1.76D-03 MaxDP=4.68D-02 DE=-2.29D-01 OVMax= 9.08D-02

 Cycle   4  Pass 0  IDiag  1:
 RMSU=  9.67D-04    CP:  9.95D-01  6.49D-01  4.03D-01
 E= -874.542421128565     Delta-E=       -0.046002453277 Rises=F Damp=F
 DIIS: error= 4.69D-03 at cycle   4 NSaved=   4.
 NSaved= 4 IEnMin= 4 EnMin= -874.542421128565     IErMin= 4 ErrMin= 4.69D-03
 ErrMax= 4.69D-03  0.00D+00 EMaxC= 1.00D-01 BMatC= 1.10D-02 BMatP= 6.20D-02
 IDIUse=3 WtCom= 9.53D-01 WtEn= 4.69D-02
 Coeff-Com:  0.262D-01 0.757D-01 0.301D+00 0.597D+00
 Coeff-En:   0.000D+00 0.000D+00 0.169D+00 0.831D+00
 Coeff:      0.250D-01 0.721D-01 0.295D+00 0.608D+00
 Gap=     0.221 Goal=   None    Shift=    0.000
 RMSDP=5.92D-04 MaxDP=1.62D-02 DE=-4.60D-02 OVMax= 2.60D-02

 Cycle   5  Pass 0  IDiag  1:
 RMSU=  2.58D-04    CP:  9.94D-01  5.97D-01  5.53D-01  6.53D-01
 E= -874.550838475499     Delta-E=       -0.008417346934 Rises=F Damp=F
 DIIS: error= 1.22D-03 at cycle   5 NSaved=   5.
 NSaved= 5 IEnMin= 5 EnMin= -874.550838475499     IErMin= 5 ErrMin= 1.22D-03
 ErrMax= 1.22D-03  0.00D+00 EMaxC= 1.00D-01 BMatC= 5.79D-04 BMatP= 1.10D-02
 IDIUse=3 WtCom= 9.88D-01 WtEn= 1.22D-02
 Coeff-Com:  0.327D-02 0.501D-02 0.121D+00 0.330D+00 0.541D+00
 Coeff-En:   0.000D+00 0.000D+00 0.000D+00 0.000D+00 0.100D+01
 Coeff:      0.323D-02 0.494D-02 0.119D+00 0.326D+00 0.547D+00
 Gap=     0.223 Goal=   None    Shift=    0.000
 RMSDP=1.34D-04 MaxDP=3.95D-03 DE=-8.42D-03 OVMax= 4.86D-03

 Cycle   6  Pass 0  IDiag  1:
 RMSU=  7.33D-05    CP:  9.94D-01  6.05D-01  5.55D-01  6.97D-01  6.31D-01
 E= -874.551309371970     Delta-E=       -0.000470896471 Rises=F Damp=F
 DIIS: error= 2.20D-04 at cycle   6 NSaved=   6.
 NSaved= 6 IEnMin= 6 EnMin= -874.551309371970     IErMin= 6 ErrMin= 2.20D-04
 ErrMax= 2.20D-04  0.00D+00 EMaxC= 1.00D-01 BMatC= 3.59D-05 BMatP= 5.79D-04
 IDIUse=3 WtCom= 9.98D-01 WtEn= 2.20D-03
 Coeff-Com:  0.448D-03-0.274D-02 0.393D-01 0.113D+00 0.272D+00 0.578D+00
 Coeff-En:   0.000D+00 0.000D+00 0.000D+00 0.000D+00 0.000D+00 0.100D+01
 Coeff:      0.447D-03-0.274D-02 0.392D-01 0.113D+00 0.272D+00 0.579D+00
 Gap=     0.222 Goal=   None    Shift=    0.000
 RMSDP=3.80D-05 MaxDP=9.42D-04 DE=-4.71D-04 OVMax= 1.31D-03

 Cycle   7  Pass 0  IDiag  1:
 RMSU=  2.30D-05    CP:  9.94D-01  6.03D-01  5.55D-01  7.03D-01  6.36D-01
                    CP:  6.25D-01
 E= -874.551337619704     Delta-E=       -0.000028247734 Rises=F Damp=F
 DIIS: error= 7.19D-05 at cycle   7 NSaved=   7.
 NSaved= 7 IEnMin= 7 EnMin= -874.551337619704     IErMin= 7 ErrMin= 7.19D-05
 ErrMax= 7.19D-05  0.00D+00 EMaxC= 1.00D-01 BMatC= 2.80D-06 BMatP= 3.59D-05
 IDIUse=1 WtCom= 1.00D+00 WtEn= 0.00D+00
 Coeff-Com:  0.142D-03-0.219D-02 0.104D-01 0.281D-01 0.947D-01 0.279D+00
 Coeff-Com:  0.590D+00
 Coeff:      0.142D-03-0.219D-02 0.104D-01 0.281D-01 0.947D-01 0.279D+00
 Coeff:      0.590D+00
 Gap=     0.223 Goal=   None    Shift=    0.000
 RMSDP=1.04D-05 MaxDP=2.64D-04 DE=-2.82D-05 OVMax= 3.81D-04

 Cycle   8  Pass 0  IDiag  1:
 RMSU=  5.96D-06    CP:  9.94D-01  6.02D-01  5.56D-01  7.01D-01  6.47D-01
                    CP:  6.72D-01  7.52D-01
 E= -874.551339967618     Delta-E=       -0.000002347913 Rises=F Damp=F
 DIIS: error= 2.40D-05 at cycle   8 NSaved=   8.
 NSaved= 8 IEnMin= 8 EnMin= -874.551339967618     IErMin= 8 ErrMin= 2.40D-05
 ErrMax= 2.40D-05  0.00D+00 EMaxC= 1.00D-01 BMatC= 2.29D-07 BMatP= 2.80D-06
 IDIUse=1 WtCom= 1.00D+00 WtEn= 0.00D+00
 Coeff-Com:  0.121D-03-0.825D-03 0.175D-02 0.295D-02 0.210D-01 0.746D-01
 Coeff-Com:  0.260D+00 0.640D+00
 Coeff:      0.121D-03-0.825D-03 0.175D-02 0.295D-02 0.210D-01 0.746D-01
 Coeff:      0.260D+00 0.640D+00
 Gap=     0.223 Goal=   None    Shift=    0.000
 RMSDP=3.21D-06 MaxDP=9.91D-05 DE=-2.35D-06 OVMax= 1.20D-04

 Initial convergence to 1.0D-05 achieved.  Increase integral accuracy.
 Cycle   9  Pass 1  IDiag  1:
 E= -874.551334507805     Delta-E=        0.000005459812 Rises=F Damp=F
 DIIS: error= 1.25D-05 at cycle   1 NSaved=   1.
 NSaved= 1 IEnMin= 1 EnMin= -874.551334507805     IErMin= 1 ErrMin= 1.25D-05
 ErrMax= 1.25D-05  0.00D+00 EMaxC= 1.00D-01 BMatC= 6.33D-08 BMatP= 6.33D-08
 IDIUse=1 WtCom= 1.00D+00 WtEn= 0.00D+00
 Coeff-Com:  0.100D+01
 Coeff:      0.100D+01
 Gap=     0.223 Goal=   None    Shift=    0.000
 RMSDP=3.21D-06 MaxDP=9.91D-05 DE= 5.46D-06 OVMax= 2.16D-04

 Cycle  10  Pass 1  IDiag  1:
 RMSU=  4.83D-06    CP:  1.00D+00
 E= -874.551334373722     Delta-E=        0.000000134083 Rises=F Damp=F
 DIIS: error= 2.71D-05 at cycle   2 NSaved=   2.
 NSaved= 2 IEnMin= 1 EnMin= -874.551334507805     IErMin= 1 ErrMin= 1.25D-05
 ErrMax= 2.71D-05  0.00D+00 EMaxC= 1.00D-01 BMatC= 2.39D-07 BMatP= 6.33D-08
 IDIUse=1 WtCom= 1.00D+00 WtEn= 0.00D+00
 Coeff-Com:  0.672D+00 0.328D+00
 Coeff:      0.672D+00 0.328D+00
 Gap=     0.223 Goal=   None    Shift=    0.000
 RMSDP=2.45D-06 MaxDP=1.10D-04 DE= 1.34D-07 OVMax= 1.89D-04

 Cycle  11  Pass 1  IDiag  1:
 RMSU=  1.87D-06    CP:  1.00D+00  6.73D-01
 E= -874.551334556055     Delta-E=       -0.000000182333 Rises=F Damp=F
 DIIS: error= 3.59D-06 at cycle   3 NSaved=   3.
 NSaved= 3 IEnMin= 3 EnMin= -874.551334556055     IErMin= 3 ErrMin= 3.59D-06
 ErrMax= 3.59D-06  0.00D+00 EMaxC= 1.00D-01 BMatC= 4.54D-09 BMatP= 6.33D-08
 IDIUse=1 WtCom= 1.00D+00 WtEn= 0.00D+00
 Coeff-Com:  0.153D+00 0.145D+00 0.703D+00
 Coeff:      0.153D+00 0.145D+00 0.703D+00
 Gap=     0.223 Goal=   None    Shift=    0.000
 RMSDP=4.81D-07 MaxDP=1.62D-05 DE=-1.82D-07 OVMax= 2.86D-05

 Cycle  12  Pass 1  IDiag  1:
 RMSU=  4.11D-07    CP:  1.00D+00  7.07D-01  9.00D-01
 E= -874.551334558683     Delta-E=       -0.000000002628 Rises=F Damp=F
 DIIS: error= 1.48D-06 at cycle   4 NSaved=   4.
 NSaved= 4 IEnMin= 4 EnMin= -874.551334558683     IErMin= 4 ErrMin= 1.48D-06
 ErrMax= 1.48D-06  0.00D+00 EMaxC= 1.00D-01 BMatC= 1.20D-09 BMatP= 4.54D-09
 IDIUse=1 WtCom= 1.00D+00 WtEn= 0.00D+00
 Coeff-Com:  0.295D-02 0.450D-01 0.421D+00 0.531D+00
 Coeff:      0.295D-02 0.450D-01 0.421D+00 0.531D+00
 Gap=     0.223 Goal=   None    Shift=    0.000
 RMSDP=1.79D-07 MaxDP=5.89D-06 DE=-2.63D-09 OVMax= 7.38D-06

 Cycle  13  Pass 1  IDiag  1:
 RMSU=  8.00D-08    CP:  1.00D+00  7.11D-01  9.14D-01  6.18D-01
 E= -874.551334559642     Delta-E=       -0.000000000959 Rises=F Damp=F
 DIIS: error= 4.36D-07 at cycle   5 NSaved=   5.
 NSaved= 5 IEnMin= 5 EnMin= -874.551334559642     IErMin= 5 ErrMin= 4.36D-07
 ErrMax= 4.36D-07  0.00D+00 EMaxC= 1.00D-01 BMatC= 6.59D-11 BMatP= 1.20D-09
 IDIUse=1 WtCom= 1.00D+00 WtEn= 0.00D+00
 Coeff-Com: -0.367D-02 0.218D-01 0.224D+00 0.316D+00 0.442D+00
 Coeff:     -0.367D-02 0.218D-01 0.224D+00 0.316D+00 0.442D+00
 Gap=     0.223 Goal=   None    Shift=    0.000
 RMSDP=4.60D-08 MaxDP=1.32D-06 DE=-9.59D-10 OVMax= 1.59D-06

 Cycle  14  Pass 1  IDiag  1:
 RMSU=  3.02D-08    CP:  1.00D+00  7.11D-01  9.16D-01  6.18D-01  5.75D-01
 E= -874.551334559711     Delta-E=       -0.000000000069 Rises=F Damp=F
 DIIS: error= 1.29D-07 at cycle   6 NSaved=   6.
 NSaved= 6 IEnMin= 6 EnMin= -874.551334559711     IErMin= 6 ErrMin= 1.29D-07
 ErrMax= 1.29D-07  0.00D+00 EMaxC= 1.00D-01 BMatC= 3.93D-12 BMatP= 6.59D-11
 IDIUse=1 WtCom= 1.00D+00 WtEn= 0.00D+00
 Coeff-Com: -0.220D-02 0.944D-02 0.968D-01 0.141D+00 0.249D+00 0.507D+00
 Coeff:     -0.220D-02 0.944D-02 0.968D-01 0.141D+00 0.249D+00 0.507D+00
 Gap=     0.223 Goal=   None    Shift=    0.000
 RMSDP=1.36D-08 MaxDP=5.32D-07 DE=-6.87D-11 OVMax= 7.80D-07

 Cycle  15  Pass 1  IDiag  1:
 RMSU=  1.16D-08    CP:  1.00D+00  7.12D-01  9.16D-01  6.15D-01  6.01D-01
                    CP:  7.78D-01
 E= -874.551334559702     Delta-E=        0.000000000009 Rises=F Damp=F
 DIIS: error= 5.97D-08 at cycle   7 NSaved=   7.
 NSaved= 7 IEnMin= 6 EnMin= -874.551334559711     IErMin= 7 ErrMin= 5.97D-08
 ErrMax= 5.97D-08  0.00D+00 EMaxC= 1.00D-01 BMatC= 1.00D-12 BMatP= 3.93D-12
 IDIUse=1 WtCom= 1.00D+00 WtEn= 0.00D+00
 Coeff-Com: -0.805D-03 0.215D-02 0.208D-01 0.324D-01 0.806D-01 0.357D+00
 Coeff-Com:  0.508D+00
 Coeff:     -0.805D-03 0.215D-02 0.208D-01 0.324D-01 0.806D-01 0.357D+00
 Coeff:      0.508D+00
 Gap=     0.223 Goal=   None    Shift=    0.000
 RMSDP=6.97D-09 MaxDP=2.71D-07 DE= 8.64D-12 OVMax= 3.23D-07

 SCF Done:  E(RB3LYP) =  -874.551334560     A.U. after   15 cycles
            NFock= 15  Conv=0.70D-08     -V/T= 2.0072
 KE= 8.683403803413D+02 PE=-3.284910339218D+03 EE= 9.289996715553D+02
 Leave Link  502 at Fri Mar 14 14:21:48 2025, MaxMem=  8589934592 cpu:              94.2 elap:              13.4
 (Enter /home/enzo/gaussian_versions/gdv.j21/gdv/l601.exe)
 Copying SCF densities to generalized density rwf, IOpCl= 0 IROHF=0.

 **********************************************************************

            Population analysis using the SCF Density.

 **********************************************************************

 Orbital symmetries:
       Occupied  (A) (A) (A) (A) (A) (A) (A) (A) (A) (A) (A) (A)
                 (A) (A) (A) (A) (A) (A) (A) (A) (A) (A) (A) (A)
                 (A) (A) (A) (A) (A) (A) (A) (A) (A) (A) (A) (A)
                 (A) (A) (A) (A) (A) (A) (A)
       Virtual   (A) (A) (A) (A) (A) (A) (A) (A) (A) (A) (A) (A)
                 (A) (A) (A) (A) (A) (A) (A) (A) (A) (A) (A) (A)
                 (A) (A) (A) (A) (A) (A) (A) (A) (A) (A) (A) (A)
                 (A) (A) (A) (A) (A) (A) (A) (A) (A) (A) (A) (A)
                 (A) (A) (A) (A) (A) (A) (A) (A) (A) (A) (A) (A)
                 (A) (A) (A) (A) (A) (A) (A) (A) (A) (A) (A) (A)
                 (A) (A) (A) (A) (A) (A) (A) (A) (A) (A) (A) (A)
                 (A) (A) (A) (A) (A) (A) (A) (A) (A) (A) (A) (A)
                 (A) (A) (A) (A) (A) (A) (A) (A) (A) (A) (A) (A)
                 (A) (A) (A) (A) (A) (A) (A) (A) (A) (A) (A) (A)
                 (A) (A) (A) (A) (A) (A) (A) (A) (A)
 The electronic state is 1-A.
 Alpha  occ. eigenvalues --      -88.89649     -19.20334     -19.14286     -19.13917     -14.39801
 Alpha  occ. eigenvalues --      -10.33422     -10.31956     -10.25709     -10.25605     -10.21222
 Alpha  occ. eigenvalues --       -7.95871      -5.92384      -5.92054      -5.91258      -1.07971
 Alpha  occ. eigenvalues --       -1.03928      -1.00009      -0.93418      -0.83993      -0.75443
 Alpha  occ. eigenvalues --       -0.72492      -0.65688      -0.62273      -0.59181      -0.54471
 Alpha  occ. eigenvalues --       -0.52363      -0.50793      -0.47737      -0.46370      -0.43907
 Alpha  occ. eigenvalues --       -0.43055      -0.42532      -0.39955      -0.39901      -0.38905
 Alpha  occ. eigenvalues --       -0.37946      -0.37084      -0.34751      -0.31382      -0.29119
 Alpha  occ. eigenvalues --       -0.27705      -0.26567      -0.25315
 Alpha virt. eigenvalues --       -0.03062      -0.01802       0.00439       0.03715       0.05397
 Alpha virt. eigenvalues --        0.06097       0.10293       0.12060       0.12516       0.13466
 Alpha virt. eigenvalues --        0.14877       0.15835       0.17968       0.18850       0.20152
 Alpha virt. eigenvalues --        0.21874       0.27770       0.32138       0.33028       0.33927
 Alpha virt. eigenvalues --        0.34592       0.36793       0.37582       0.41567       0.47912
 Alpha virt. eigenvalues --        0.50843       0.51661       0.52420       0.53454       0.55895
 Alpha virt. eigenvalues --        0.56480       0.57607       0.59798       0.61423       0.62984
 Alpha virt. eigenvalues --        0.64447       0.65823       0.70479       0.72651       0.74814
 Alpha virt. eigenvalues --        0.75816       0.76300       0.79340       0.80103       0.82465
 Alpha virt. eigenvalues --        0.82684       0.84403       0.85150       0.85467       0.87338
 Alpha virt. eigenvalues --        0.88504       0.90406       0.91021       0.92873       0.93525
 Alpha virt. eigenvalues --        0.94485       0.98884       1.01365       1.02188       1.05019
 Alpha virt. eigenvalues --        1.05787       1.08206       1.09098       1.13081       1.15852
 Alpha virt. eigenvalues --        1.19405       1.23359       1.29040       1.31633       1.32324
 Alpha virt. eigenvalues --        1.38523       1.40980       1.43764       1.45069       1.47925
 Alpha virt. eigenvalues --        1.58231       1.59734       1.66481       1.67962       1.71484
 Alpha virt. eigenvalues --        1.73887       1.75248       1.76771       1.79736       1.79978
 Alpha virt. eigenvalues --        1.81904       1.85001       1.86676       1.89074       1.90029
 Alpha virt. eigenvalues --        1.92277       1.94086       1.99096       2.01149       2.01870
 Alpha virt. eigenvalues --        2.04806       2.11802       2.16524       2.19264       2.23573
 Alpha virt. eigenvalues --        2.24122       2.29656       2.32300       2.34373       2.37937
 Alpha virt. eigenvalues --        2.40620       2.42907       2.51340       2.54522       2.59163
 Alpha virt. eigenvalues --        2.59665       2.63904       2.70431       2.79773       2.82048
 Alpha virt. eigenvalues --        2.92734       2.95113       3.02228       3.03440       3.79884
 Alpha virt. eigenvalues --        3.88407       3.92810       4.04741       4.11021       4.14553
 Alpha virt. eigenvalues --        4.20157       4.32631       4.48366       4.52354
          Condensed to atoms (all electrons):
               1          2          3          4          5          6
     1  C    5.112253   0.346751  -0.055203  -0.039692  -0.001533  -0.000294
     2  C    0.346751   5.389840   0.256691   0.289572  -0.090627  -0.093303
     3  S   -0.055203   0.256691  15.637438  -0.051782   0.003317   0.001849
     4  C   -0.039692   0.289572  -0.051782   4.490691   0.519514   0.254158
     5  O   -0.001533  -0.090627   0.003317   0.519514   8.136097  -0.090847
     6  N   -0.000294  -0.093303   0.001849   0.254158  -0.090847   7.146145
     7  C   -0.000079   0.004979  -0.000393  -0.020576   0.001098   0.219518
     8  C    0.000030  -0.000217  -0.000004  -0.002091  -0.001301  -0.047329
     9  O   -0.000000   0.000001   0.000000  -0.000004  -0.000002   0.000409
    10  O   -0.000016   0.000008   0.000000   0.002401  -0.000792   0.003353
    11  H    0.372769  -0.033754   0.000217   0.005082   0.000174  -0.000072
    12  H    0.368594  -0.033081   0.005215  -0.001877  -0.000389   0.001040
    13  H    0.376429  -0.038596   0.000677  -0.005822   0.007631   0.000353
    14  H   -0.033148   0.342145  -0.042489  -0.046549   0.003564   0.004498
    15  H    0.003299  -0.014105   0.250196  -0.001814  -0.000178   0.000851
    16  H   -0.000139   0.003107  -0.000206  -0.015258   0.002657   0.294086
    17  H   -0.000003  -0.000036   0.000040   0.003488   0.000498  -0.035606
    18  H   -0.000028   0.001094  -0.000067  -0.000890   0.018455  -0.037395
    19  H    0.000107   0.000043   0.000008   0.006145   0.004994  -0.003729
               7          8          9         10         11         12
     1  C   -0.000079   0.000030  -0.000000  -0.000016   0.372769   0.368594
     2  C    0.004979  -0.000217   0.000001   0.000008  -0.033754  -0.033081
     3  S   -0.000393  -0.000004   0.000000   0.000000   0.000217   0.005215
     4  C   -0.020576  -0.002091  -0.000004   0.002401   0.005082  -0.001877
     5  O    0.001098  -0.001301  -0.000002  -0.000792   0.000174  -0.000389
     6  N    0.219518  -0.047329   0.000409   0.003353  -0.000072   0.001040
     7  C    5.207079   0.309129  -0.083162  -0.090061   0.000002  -0.000069
     8  C    0.309129   4.386961   0.551070   0.252393  -0.000000   0.000005
     9  O   -0.083162   0.551070   8.041350  -0.067206   0.000000   0.000000
    10  O   -0.090061   0.252393  -0.067206   8.272225  -0.000000   0.000030
    11  H    0.000002  -0.000000   0.000000  -0.000000   0.538662  -0.027339
    12  H   -0.000069   0.000005   0.000000   0.000030  -0.027339   0.561751
    13  H   -0.000005   0.000002   0.000000   0.000000  -0.025264  -0.025535
    14  H   -0.000190   0.000011   0.000000   0.000003  -0.004129  -0.004043
    15  H   -0.000030   0.000000  -0.000000  -0.000000   0.000031  -0.000135
    16  H   -0.028413   0.000655   0.000293   0.000092  -0.000010  -0.000022
    17  H    0.353270  -0.030171   0.005253   0.003160  -0.000000   0.000001
    18  H    0.347718  -0.029586   0.001839   0.001980   0.000000   0.000000
    19  H    0.002197  -0.004476   0.003378   0.209297   0.000001   0.000309
              13         14         15         16         17         18
     1  C    0.376429  -0.033148   0.003299  -0.000139  -0.000003  -0.000028
     2  C   -0.038596   0.342145  -0.014105   0.003107  -0.000036   0.001094
     3  S    0.000677  -0.042489   0.250196  -0.000206   0.000040  -0.000067
     4  C   -0.005822  -0.046549  -0.001814  -0.015258   0.003488  -0.000890
     5  O    0.007631   0.003564  -0.000178   0.002657   0.000498   0.018455
     6  N    0.000353   0.004498   0.000851   0.294086  -0.035606  -0.037395
     7  C   -0.000005  -0.000190  -0.000030  -0.028413   0.353270   0.347718
     8  C    0.000002   0.000011   0.000000   0.000655  -0.030171  -0.029586
     9  O    0.000000   0.000000  -0.000000   0.000293   0.005253   0.001839
    10  O    0.000000   0.000003  -0.000000   0.000092   0.003160   0.001980
    11  H   -0.025264  -0.004129   0.000031  -0.000010  -0.000000   0.000000
    12  H   -0.025535  -0.004043  -0.000135  -0.000022   0.000001   0.000000
    13  H    0.513067   0.005372   0.000016  -0.000008  -0.000000  -0.000008
    14  H    0.005372   0.615263  -0.006513   0.003600  -0.000018  -0.000046
    15  H    0.000016  -0.006513   0.680516  -0.000067  -0.000002  -0.000003
    16  H   -0.000008   0.003600  -0.000067   0.399811  -0.001847   0.003649
    17  H   -0.000000  -0.000018  -0.000002  -0.001847   0.527217  -0.018502
    18  H   -0.000008  -0.000046  -0.000003   0.003649  -0.018502   0.491930
    19  H   -0.000011  -0.000022  -0.000000   0.000033   0.000042  -0.000152
              19
     1  C    0.000107
     2  C    0.000043
     3  S    0.000008
     4  C    0.006145
     5  O    0.004994
     6  N   -0.003729
     7  C    0.002197
     8  C   -0.004476
     9  O    0.003378
    10  O    0.209297
    11  H    0.000001
    12  H    0.000309
    13  H   -0.000011
    14  H   -0.000022
    15  H   -0.000000
    16  H    0.000033
    17  H    0.000042
    18  H   -0.000152
    19  H    0.356548
 Mulliken charges:
               1
     1  C   -0.450096
     2  C   -0.330514
     3  S   -0.005504
     4  C    0.615306
     5  O   -0.512331
     6  N   -0.617685
     7  C   -0.222013
     8  C    0.614919
     9  O   -0.453220
    10  O   -0.586869
    11  H    0.173629
    12  H    0.155545
    13  H    0.191701
    14  H    0.162691
    15  H    0.087939
    16  H    0.337986
    17  H    0.193218
    18  H    0.220011
    19  H    0.425288
 Sum of Mulliken charges =  -0.00000
 Mulliken charges with hydrogens summed into heavy atoms:
               1
     1  C    0.070778
     2  C   -0.167822
     3  S    0.082435
     4  C    0.615306
     5  O   -0.512331
     6  N   -0.279699
     7  C    0.191216
     8  C    0.614919
     9  O   -0.453220
    10  O   -0.161582
 Electronic spatial extent (au):  <R**2>=           2361.6988
 Charge=             -0.0000 electrons
 Dipole moment (field-independent basis, Debye):
    X=              2.8871    Y=             -0.3504    Z=             -2.4886  Tot=              3.8277
 Quadrupole moment (field-independent basis, Debye-Ang):
   XX=            -91.2061   YY=            -60.2209   ZZ=            -66.4609
   XY=              2.5168   XZ=             -7.6508   YZ=              2.2402
 Traceless Quadrupole moment (field-independent basis, Debye-Ang):
   XX=            -18.5768   YY=             12.4084   ZZ=              6.1684
   XY=              2.5168   XZ=             -7.6508   YZ=              2.2402
 Octapole moment (field-independent basis, Debye-Ang**2):
  XXX=             62.0772  YYY=              0.3252  ZZZ=             -8.4704  XYY=              2.2764
  XXY=             -2.7682  XXZ=             16.9993  XZZ=            -12.5102  YZZ=             -0.5618
  YYZ=              1.0291  XYZ=              3.2259
 Hexadecapole moment (field-independent basis, Debye-Ang**3):
 XXXX=          -2899.2802 YYYY=           -393.0328 ZZZZ=           -204.6764 XXXY=             -6.0044
 XXXZ=            -52.3343 YYYX=            -10.5655 YYYZ=             12.6147 ZZZX=             -0.5938
 ZZZY=              8.8719 XXYY=           -448.4148 XXZZ=           -435.0381 YYZZ=            -98.1457
 XXYZ=              0.7331 YYXZ=             -7.5998 ZZXY=              1.0369
 N-N= 6.130189527615D+02 E-N=-3.284910339730D+03  KE= 8.683403803413D+02
 No NMR shielding tensors so no spin-rotation constants.
 Leave Link  601 at Fri Mar 14 14:21:49 2025, MaxMem=  8589934592 cpu:               3.5 elap:               0.8
 (Enter /home/enzo/gaussian_versions/gdv.j21/gdv/l701.exe)
 ... and contract with generalized density number  0.
 Compute integral first derivatives.
 Leave Link  701 at Fri Mar 14 14:21:49 2025, MaxMem=  8589934592 cpu:               1.3 elap:               0.3
 (Enter /home/enzo/gaussian_versions/gdv.j21/gdv/l702.exe)
 L702 exits ... SP integral derivatives will be done elsewhere.
 Leave Link  702 at Fri Mar 14 14:21:50 2025, MaxMem=  8589934592 cpu:               0.2 elap:               0.2
 (Enter /home/enzo/gaussian_versions/gdv.j21/gdv/l703.exe)
 Integral derivatives from FoFJK, PRISM(SPDF).
 Compute integral first derivatives, UseDBF=F ICtDFT=           0.
 Calling FoFJK, ICntrl=      2127 FMM=F ISym2X=0 I1Cent= 0 IOpClX= 0 NMat=1 NMatS=1 NMatT=0.
 FoFJK:  IHMeth= 1 ICntrl=    2127 DoSepK=F KAlg= 0 I1Cent=           0 FoldK=F
 IRaf=         0 NMat=       1 IRICut=       1 DoRegI=T DoRafI=F ISym2E= 0 IDoP0=0 IntGTp=1.
 FoFCou: FMM=F IPFlag=           0 FMFlag=      100000 FMFlg1=         800
         NFxFlg=           0 DoJE=F BraDBF=F KetDBF=F FulRan=T
         wScrn=  0.000000 ICntrl=      2127 IOpCl=  0 I1Cent=           0 NGrid=           0
         NMat0=    1 NMatS0=      1 NMatT0=    0 NMatD0=    1 NMtDS0=    0 NMtDT0=    0
 Symmetry not used in FoFCou.
 Leave Link  703 at Fri Mar 14 14:21:52 2025, MaxMem=  8589934592 cpu:              16.2 elap:               2.0
 (Enter /home/enzo/gaussian_versions/gdv.j21/gdv/l716.exe)
 Dipole        = 1.13588911D+00-1.37857674D-01-9.79078164D-01
 ***** Axes restored to original set *****
 -------------------------------------------------------------------
 Center     Atomic                   Forces (Hartrees/Bohr)
 Number     Number              X              Y              Z
 -------------------------------------------------------------------
      1        6          -0.005305972    0.013400931   -0.002304303
      2        6           0.009020660   -0.000087454    0.026203590
      3       16          -0.001022303   -0.026942205    0.013450897
      4        6           0.041070182   -0.010966900   -0.048374978
      5        8           0.005632516   -0.004037471    0.047671231
      6        7          -0.045246073    0.014155611    0.002865580
      7        6          -0.014742722   -0.011324817   -0.003518651
      8        6           0.065478325    0.003270903    0.024340402
      9        8          -0.060120446    0.031723437   -0.028573403
     10        8          -0.008566068   -0.007857218   -0.001845451
     11        1           0.008202762   -0.002010220   -0.005451084
     12        1          -0.007145341   -0.003722324   -0.003940517
     13        1           0.003140244   -0.002080889    0.009877216
     14        1          -0.001937740    0.001921091   -0.007356859
     15        1          -0.010243143    0.016923905   -0.014387035
     16        1           0.003650325    0.003022617   -0.026568242
     17        1           0.000061302    0.012265081   -0.003385747
     18        1          -0.004608832    0.000788816    0.010220933
     19        1           0.022682325   -0.028442892    0.011076421
 -------------------------------------------------------------------
 Cartesian Forces:  Max     0.065478325 RMS     0.020880892
 Leave Link  716 at Fri Mar 14 14:21:52 2025, MaxMem=  8589934592 cpu:               0.4 elap:               0.3
 (Enter /home/enzo/gaussian_versions/gdv.j21/gdv/l103.exe)

 GradGradGradGradGradGradGradGradGradGradGradGradGradGradGradGradGradGrad
 Berny optimization.
 FormGI is forming the generalized inverse of G from B-inverse, IUseBI=4.
 Internal  Forces:  Max     0.073091100 RMS     0.014672868
 Search for a local minimum.
 Step number   1 out of a maximum of   93
 All quantities printed in internal units (Hartrees-Bohrs-Radians)
 RMS Force = .14673D-01 SwitMx=.10000D-02 MixMth= 1
 Mixed Optimization -- RFO/linear search
 Second derivative matrix not updated -- first step.
 ITU=  0
     Eigenvalues ---    0.00230   0.00449   0.00747   0.00859   0.00909
     Eigenvalues ---    0.00960   0.01054   0.01107   0.01276   0.01844
     Eigenvalues ---    0.05076   0.05358   0.05428   0.05664   0.05775
     Eigenvalues ---    0.06700   0.07595   0.09731   0.13112   0.16000
     Eigenvalues ---    0.16000   0.16000   0.16000   0.16000   0.16000
     Eigenvalues ---    0.17528   0.19893   0.21765   0.22000   0.22010
     Eigenvalues ---    0.24709   0.24997   0.24999   0.25000   0.25000
     Eigenvalues ---    0.29991   0.32225   0.32561   0.32591   0.32593
     Eigenvalues ---    0.32611   0.32612   0.32654   0.33128   0.37070
     Eigenvalues ---    0.40614   0.40786   0.45646   0.47575   0.79879
     Eigenvalues ---    0.80576
 RFO step:  Lambda=-4.00590831D-02 EMin= 2.30000000D-03
 Linear search not attempted -- first point.
 Maximum step size (   0.300) exceeded in Quadratic search.
    -- Step size scaled by   0.904
 Iteration  1 RMS(Cart)=  0.08362917 RMS(Int)=  0.00559636
 Iteration  2 RMS(Cart)=  0.00641379 RMS(Int)=  0.00012464
 Iteration  3 RMS(Cart)=  0.00004076 RMS(Int)=  0.00011985
 Iteration  4 RMS(Cart)=  0.00000000 RMS(Int)=  0.00011985
 Variable       Old X    -DE/DX   Delta X   Delta X   Delta X     New X
                                 (Linear)    (Quad)   (Total)
    R1        2.87981   0.00585   0.00000   0.01556   0.01556   2.89537
    R2        2.09663  -0.01003   0.00000  -0.02475  -0.02475   2.07189
    R3        2.09741  -0.00886   0.00000  -0.02187  -0.02187   2.07553
    R4        2.09773  -0.01048   0.00000  -0.02588  -0.02588   2.07184
    R5        3.43654   0.01445   0.00000   0.04551   0.04551   3.48205
    R6        2.83735   0.01189   0.00000   0.02969   0.02969   2.86704
    R7        2.09777  -0.00778   0.00000  -0.01922  -0.01922   2.07855
    R8        2.65724  -0.02391   0.00000  -0.08391  -0.08391   2.57333
    R9        2.37981  -0.04758   0.00000  -0.05128  -0.05128   2.32852
   R10        2.70499  -0.04684   0.00000  -0.09456  -0.09456   2.61043
   R11        2.75741  -0.00409   0.00000  -0.00900  -0.00900   2.74842
   R12        1.97427  -0.02688   0.00000  -0.05447  -0.05447   1.91980
   R13        2.82127   0.01432   0.00000   0.03486   0.03486   2.85613
   R14        2.09829  -0.01215   0.00000  -0.03003  -0.03003   2.06826
   R15        2.09739  -0.00915   0.00000  -0.02259  -0.02259   2.07479
   R16        2.37607  -0.07309   0.00000  -0.07814  -0.07814   2.29793
   R17        2.62394  -0.03905   0.00000  -0.06846  -0.06846   2.55548
   R18        1.91233  -0.03309   0.00000  -0.06025  -0.06025   1.85207
    A1        1.91792   0.00091   0.00000   0.00564   0.00563   1.92355
    A2        1.92132   0.00132   0.00000   0.00521   0.00520   1.92652
    A3        1.93222  -0.00036   0.00000  -0.00240  -0.00240   1.92982
    A4        1.89092  -0.00072   0.00000  -0.00169  -0.00172   1.88921
    A5        1.89842   0.00008   0.00000   0.00182   0.00182   1.90024
    A6        1.90234  -0.00128   0.00000  -0.00872  -0.00871   1.89363
    A7        1.91888  -0.00104   0.00000  -0.00568  -0.00565   1.91323
    A8        1.92978  -0.00287   0.00000  -0.01066  -0.01063   1.91914
    A9        1.89138   0.00136   0.00000   0.00427   0.00427   1.89565
   A10        1.92228   0.00317   0.00000   0.01329   0.01326   1.93554
   A11        1.88168  -0.00118   0.00000  -0.00599  -0.00602   1.87566
   A12        1.91898   0.00057   0.00000   0.00476   0.00476   1.92373
   A13        1.62494   0.01356   0.00000   0.06131   0.06131   1.68625
   A14        2.08866   0.01559   0.00000   0.04853   0.04836   2.13702
   A15        2.09902  -0.01817   0.00000  -0.05671  -0.05686   2.04216
   A16        2.09545   0.00256   0.00000   0.00788   0.00774   2.10319
   A17        2.11758   0.00084   0.00000   0.00290   0.00289   2.12047
   A18        2.07425   0.00191   0.00000   0.00908   0.00907   2.08332
   A19        2.09136  -0.00275   0.00000  -0.01199  -0.01200   2.07936
   A20        1.93117   0.00732   0.00000   0.02532   0.02528   1.95645
   A21        1.91195   0.00165   0.00000   0.01611   0.01607   1.92802
   A22        1.91095  -0.00805   0.00000  -0.04409  -0.04400   1.86695
   A23        1.91135  -0.00428   0.00000  -0.01291  -0.01318   1.89816
   A24        1.90475   0.00140   0.00000   0.00821   0.00845   1.91319
   A25        1.89325   0.00185   0.00000   0.00693   0.00702   1.90026
   A26        2.09579   0.01955   0.00000   0.06108   0.06100   2.15680
   A27        2.09195  -0.01615   0.00000  -0.05023  -0.05030   2.04164
   A28        2.09523  -0.00338   0.00000  -0.01040  -0.01048   2.08475
   A29        2.10913  -0.03576   0.00000  -0.16162  -0.16162   1.94751
    D1        1.04720  -0.00096   0.00000  -0.00623  -0.00625   1.04095
    D2       -3.10971   0.00044   0.00000  -0.00036  -0.00036  -3.11007
    D3       -1.00539   0.00026   0.00000   0.00170   0.00170  -1.00369
    D4        3.12847  -0.00045   0.00000  -0.00157  -0.00158   3.12689
    D5       -1.02844   0.00094   0.00000   0.00429   0.00432  -1.02413
    D6        1.07588   0.00076   0.00000   0.00636   0.00637   1.08225
    D7       -1.05021  -0.00142   0.00000  -0.01061  -0.01063  -1.06084
    D8        1.07607  -0.00003   0.00000  -0.00475  -0.00473   1.07133
    D9       -3.10280  -0.00021   0.00000  -0.00268  -0.00268  -3.10548
   D10       -2.79237  -0.00143   0.00000  -0.01458  -0.01461  -2.80699
   D11        1.36008   0.00076   0.00000  -0.00623  -0.00623   1.35384
   D12       -0.73377  -0.00106   0.00000  -0.01610  -0.01607  -0.74985
   D13       -1.04734   0.00212   0.00000   0.03319   0.03337  -1.01397
   D14        2.08366   0.00033   0.00000   0.00103   0.00089   2.08455
   D15        1.07694   0.00103   0.00000   0.02786   0.02798   1.10491
   D16       -2.07524  -0.00077   0.00000  -0.00430  -0.00450  -2.07975
   D17       -3.13512   0.00188   0.00000   0.03159   0.03178  -3.10334
   D18       -0.00411   0.00009   0.00000  -0.00057  -0.00070  -0.00482
   D19       -3.13096  -0.00090   0.00000  -0.01391  -0.01412   3.13811
   D20        0.00987  -0.00145   0.00000  -0.02372  -0.02400  -0.01413
   D21       -0.00000  -0.00262   0.00000  -0.04595  -0.04567  -0.04567
   D22        3.14083  -0.00317   0.00000  -0.05576  -0.05555   3.08528
   D23        1.84486  -0.00160   0.00000  -0.03825  -0.03847   1.80639
   D24       -2.32938  -0.00119   0.00000  -0.02767  -0.02748  -2.35686
   D25       -0.25524  -0.00277   0.00000  -0.03603  -0.03593  -0.29116
   D26       -1.29597  -0.00105   0.00000  -0.02835  -0.02862  -1.32458
   D27        0.81298  -0.00064   0.00000  -0.01777  -0.01763   0.79535
   D28        2.88712  -0.00222   0.00000  -0.02613  -0.02607   2.86105
   D29        2.14945   0.00302   0.00000   0.02439   0.02443   2.17388
   D30       -0.96970   0.00180   0.00000   0.00166   0.00147  -0.96823
   D31        0.04015  -0.00091   0.00000  -0.00341  -0.00326   0.03689
   D32       -3.07901  -0.00214   0.00000  -0.02614  -0.02622  -3.10523
   D33       -2.02994  -0.00147   0.00000  -0.00909  -0.00894  -2.03888
   D34        1.13409  -0.00269   0.00000  -0.03182  -0.03190   1.10219
   D35       -0.02879  -0.00036   0.00000  -0.00555  -0.00591  -0.03470
   D36        3.13523  -0.00189   0.00000  -0.02921  -0.02885   3.10639
         Item               Value     Threshold  Converged?
 Maximum Force            0.073091     0.000450     NO 
 RMS     Force            0.014673     0.000300     NO 
 Maximum Displacement     0.471744     0.001800     NO 
 RMS     Displacement     0.081752     0.001200     NO 
 Predicted change in Energy=-2.201010D-02
 Lowest energy point so far.  Saving SCF results.
 GradGradGradGradGradGradGradGradGradGradGradGradGradGradGradGradGradGrad

 Leave Link  103 at Fri Mar 14 14:21:52 2025, MaxMem=  8589934592 cpu:               0.6 elap:               0.3
 (Enter /home/enzo/gaussian_versions/gdv.j21/gdv/l202.exe)
                          Input orientation:                          
 ---------------------------------------------------------------------
 Center     Atomic      Atomic             Coordinates (Angstroms)
 Number     Number       Type             X           Y           Z
 ---------------------------------------------------------------------
      1          6           0       -2.032814    1.808133    0.473215
      2          6           0       -1.761406    0.305149    0.595303
      3         16           0       -3.233823   -0.638602    0.015153
      4          6           0       -0.529573   -0.065670   -0.208990
      5          8           0       -0.441114    0.148580   -1.419192
      6          7           0        0.530612   -0.615682    0.485065
      7          6           0        1.757161   -1.010693   -0.189339
      8          6           0        2.874709   -0.018373    0.035848
      9          8           0        3.960212   -0.320378    0.493186
     10          8           0        2.628781    1.268746   -0.298167
     11          1           0       -2.903461    2.086244    1.078780
     12          1           0       -1.167857    2.383262    0.830138
     13          1           0       -2.225200    2.081272   -0.571015
     14          1           0       -1.609992    0.060858    1.657007
     15          1           0       -2.919842   -1.812525    0.629711
     16          1           0        0.457170   -0.739391    1.490741
     17          1           0        2.085238   -1.995157    0.158620
     18          1           0        1.528205   -1.071006   -1.261440
     19          1           0        1.733995    1.376651   -0.683212
 ---------------------------------------------------------------------
                    Distance matrix (angstroms):
                    1          2          3          4          5
     1  C    0.000000
     2  C    1.532165   0.000000
     3  S    2.763829   1.842621   0.000000
     4  C    2.497254   1.517170   2.773347   0.000000
     5  O    2.978058   2.413685   3.236699   1.232201   0.000000
     6  N    3.527913   2.472534   3.793720   1.381382   2.270362
     7  C    4.769556   3.837631   5.009010   2.474390   2.772880
     8  C    5.254636   4.680942   6.139974   3.413403   3.624872
     9  O    6.359821   5.756616   7.216919   4.551494   4.821700
    10  O    4.755675   4.582636   6.173028   3.429843   3.454812
    11  H    1.096394   2.170332   2.943676   3.453177   4.007189
    12  H    1.098325   2.173937   3.750210   2.735774   3.252914
    13  H    1.096372   2.174859   2.959497   2.759633   2.763633
    14  H    2.152467   1.099919   2.412832   2.159921   3.291956
    15  H    3.731015   2.414063   1.361749   3.077061   3.766700
    16  H    3.704762   2.610547   3.976298   2.077654   3.172242
    17  H    5.614476   4.503195   5.491195   3.270365   3.669816
    18  H    4.896868   4.020302   4.949098   2.520476   2.321743
    19  H    3.963880   3.873053   5.406308   2.725604   2.604021
                    6          7          8          9         10
     6  N    0.000000
     7  C    1.454399   0.000000
     8  C    2.460359   1.511397   0.000000
     9  O    3.442300   2.407449   1.216011   0.000000
    10  O    2.926916   2.442827   1.352302   2.219068   0.000000
    11  H    4.409734   5.737642   6.237337   7.296901   5.759339
    12  H    3.463746   4.594996   4.768762   5.806918   4.114569
    13  H    3.997920   5.056196   5.548501   6.720102   4.929075
    14  H    2.532457   3.986845   4.769380   5.703244   4.821711
    15  H    3.654995   4.815406   6.094956   7.041328   6.414235
    16  H    1.015913   2.141552   2.912228   3.666332   3.456689
    17  H    2.103896   1.094477   2.132138   2.536208   3.340233
    18  H    2.062230   1.097934   2.145709   3.091410   2.759275
    19  H    2.604303   2.438003   1.940198   3.036423   0.980075
                   11         12         13         14         15
    11  H    0.000000
    12  H    1.778303   0.000000
    13  H    1.783784   1.781124   0.000000
    14  H    2.471760   2.504547   3.069957   0.000000
    15  H    3.924581   4.551291   4.133512   2.506114   0.000000
    16  H    4.409963   3.581630   4.404780   2.222882   3.646533
    17  H    6.510886   5.495827   5.977417   4.486322   5.030518
    18  H    5.923218   4.855452   4.949908   4.432463   4.889931
    19  H    5.011400   3.424067   4.022972   4.288378   5.792479
                   16         17         18         19
    16  H    0.000000
    17  H    2.449918   0.000000
    18  H    2.971797   1.783511   0.000000
    19  H    3.291502   3.493013   2.523434   0.000000
 Stoichiometry    C5H9NO3S
 Framework group  C1[X(C5H9NO3S)]
 Deg. of freedom    51
 Full point group                 C1      NOp   1
 RotChk:  IX=0 Diff= 1.70D-02
 Largest Abelian subgroup         C1      NOp   1
 Largest concise Abelian subgroup C1      NOp   1
                         Standard orientation:                         
 ---------------------------------------------------------------------
 Center     Atomic      Atomic             Coordinates (Angstroms)
 Number     Number       Type             X           Y           Z
 ---------------------------------------------------------------------
      1          6           0        2.020980    1.772136   -0.420659
      2          6           0        1.746994    0.270442   -0.552477
      3         16           0        3.208038   -0.679888    0.045413
      4          6           0        0.502493   -0.099774    0.232355
      5          8           0        0.397031    0.110126    1.441958
      6          7           0       -0.549065   -0.643981   -0.479180
      7          6           0       -1.786460   -1.037908    0.175763
      8          6           0       -2.897707   -0.041418   -0.061849
      9          8           0       -3.977306   -0.338447   -0.536107
     10          8           0       -2.652917    1.243682    0.280669
     11          1           0        2.901168    2.049962   -1.012405
     12          1           0        1.162999    2.351191   -0.787922
     13          1           0        2.198923    2.040720    0.627306
     14          1           0        1.610358    0.030650   -1.617208
     15          1           0        2.899623   -1.850522   -0.578172
     16          1           0       -0.461335   -0.764075   -1.484148
     17          1           0       -2.112303   -2.020059   -0.180727
     18          1           0       -1.573330   -1.102987    1.250845
     19          1           0       -1.763526    1.347457    0.679117
 ---------------------------------------------------------------------
 Rotational constants (GHZ):           2.7702516           0.4936458           0.4639198
 Leave Link  202 at Fri Mar 14 14:21:52 2025, MaxMem=  8589934592 cpu:               0.4 elap:               0.2
 (Enter /home/enzo/gaussian_versions/gdv.j21/gdv/l301.exe)
 Standard basis: 6-31G(d) (6D, 7F)
 Ernie: Thresh=  0.10000D-02 Tol=  0.10000D-05 Strict=F.
 There are   172 symmetry adapted cartesian basis functions of A   symmetry.
 There are   172 symmetry adapted basis functions of A   symmetry.
   172 basis functions,   340 primitive gaussians,   172 cartesian basis functions
    43 alpha electrons       43 beta electrons
       nuclear repulsion energy       618.1482228199 Hartrees.
 IExCor=      4002 DFT=T Ex+Corr=B3LYP ScaHFX=  0.200000
 ScaDFX=  0.800000  0.720000  1.000000  0.810000  1.000000  0.000000
 ScaDFX=  0.000000  0.000000  0.000000  0.000000  0.000000  0.000000
 IRadAn=      5 IRanWt=     -1 IRanGd=            0 ICorTp=0 IEmpDi=  4
 NAtoms=   19 NActive=   19 NUniq=   19 SFac= 1.00D+00 NAtFMM=   60 NAOKFM=F Big=F
 Integral buffers will be    131072 words long.
 Raffenetti 2 integral format.
 Two-electron integral symmetry is turned on.
 Leave Link  301 at Fri Mar 14 14:21:53 2025, MaxMem=  8589934592 cpu:               0.4 elap:               0.1
 (Enter /home/enzo/gaussian_versions/gdv.j21/gdv/l302.exe)
 NPDir=0 NMtPBC=     1 NCelOv=     1 NCel=       1 NClECP=     1 NCelD=      1
         NCelK=      1 NCelE2=     1 NClLst=     1 CellRange=     0.0.
 One-electron integrals computed using PRISM.
 One-electron integral symmetry used in STVInt
 NBasis=   172 RedAO= T EigKep=  2.66D-03  NBF=   172
 NBsUse=   172 1.00D-06 EigRej= -1.00D+00 NBFU=   172
 Precomputing XC quadrature grid using
 IXCGrd= 4 IRadAn=           5 IRanWt=          -1 IRanGd=           0 AccXCQ= 0.00D+00.
 Generated NRdTot=       0 NPtTot=      406796 NUsed=           0 NTot=          64
 NSgBfM=   171   171   171   171   171 MxSgAt=    19 MxSgA2=    19 SizInc=   0.000
 NMBTot=     3454 MaxBatPerAtom=       85 MaxMicBPerAtom=      208 NBfPt=            52072508.
 Leave Link  302 at Fri Mar 14 14:21:53 2025, MaxMem=  8589934592 cpu:               1.5 elap:               0.2
 (Enter /home/enzo/gaussian_versions/gdv.j21/gdv/l303.exe)
 DipDrv:  MaxL=1.
 Leave Link  303 at Fri Mar 14 14:21:53 2025, MaxMem=  8589934592 cpu:               0.3 elap:               0.1
 (Enter /home/enzo/gaussian_versions/gdv.j21/gdv/l401.exe)
 Initial guess from the checkpoint file:  "/local/home/enzo/scratch/Gau-2271009.chk"
 B after Tr=    -0.000000   -0.000000    0.000000
         Rot=    0.999995   -0.000876    0.001940   -0.002502 Ang=  -0.38 deg.
 AO Guess basis will be translated and rotated to current coordinates.
 JPrj=2 DoOrth=T DoCkMO=T.
 Generating alternative initial guess.
 ExpMin= 1.17D-01 ExpMax= 2.19D+04 ExpMxC= 3.30D+03 IAcc=3 IRadAn=         5 AccDes= 0.00D+00
 Harris functional with IExCor= 4002 and IRadAn=       5 diagonalized for initial guess.
 HarFok:  IExCor=    4002 AccDes= 0.00D+00 IRadAn=         5 IDoV= 1 UseB2=F ITyADJ=14 ICtDFT=  3500011
 FoFCou: FMM=F IPFlag=           0 FMFlag=      100000 FMFlg1=           0
         NFxFlg=           0 DoJE=T BraDBF=F KetDBF=T FulRan=T
         wScrn=  0.000000 ICntrl=       500 IOpCl=  0 I1Cent=   200000004 NGrid=           0
         NMat0=    1 NMatS0=      1 NMatT0=    0 NMatD0=    1 NMtDS0=    0 NMtDT0=    0
 Petite list used in FoFCou.
 Harris En= -874.543833104867    
 Leave Link  401 at Fri Mar 14 14:21:54 2025, MaxMem=  8589934592 cpu:               7.1 elap:               1.0
 (Enter /home/enzo/gaussian_versions/gdv.j21/gdv/l502.exe)
 Integral symmetry usage will be decided dynamically.
 Closed shell SCF:
 Using DIIS extrapolation, IDIIS=  1040.
 NGot=  8589934592 LenX=  8589843591 LenY=  8589813566
 Requested convergence on RMS density matrix=1.00D-08 within 128 cycles.
 Requested convergence on MAX density matrix=1.00D-06.
 Requested convergence on             energy=1.00D-06.
 No special actions if energy rises.
 Fock matrices will be formed incrementally for  20 cycles.
 Integral accuracy reduced to 1.0D-05 until final iterations.

 Cycle   1  Pass 0  IDiag  1:
 FoFJK:  IHMeth= 1 ICntrl=       0 DoSepK=F KAlg= 0 I1Cent=           0 FoldK=F
 IRaf= 910000000 NMat=       1 IRICut=       1 DoRegI=T DoRafI=F ISym2E= 0 IDoP0=0 IntGTp=1.
 FoFCou: FMM=F IPFlag=           0 FMFlag=      100000 FMFlg1=           0
         NFxFlg=           0 DoJE=F BraDBF=F KetDBF=F FulRan=T
         wScrn=  0.000000 ICntrl=         0 IOpCl=  0 I1Cent=           0 NGrid=           0
         NMat0=    1 NMatS0=      1 NMatT0=    0 NMatD0=    1 NMtDS0=    0 NMtDT0=    0
 Symmetry not used in FoFCou.
 E= -874.557824258340    
 DIIS: error= 4.80D-03 at cycle   1 NSaved=   1.
 NSaved= 1 IEnMin= 1 EnMin= -874.557824258340     IErMin= 1 ErrMin= 4.80D-03
 ErrMax= 4.80D-03  0.00D+00 EMaxC= 1.00D-01 BMatC= 1.02D-02 BMatP= 1.02D-02
 IDIUse=3 WtCom= 9.52D-01 WtEn= 4.80D-02
 Coeff-Com:  0.100D+01
 Coeff-En:   0.100D+01
 Coeff:      0.100D+01
 Gap=     1.574 Goal=   None    Shift=    0.000
 GapD=    1.574 DampG=2.000 DampE=1.000 DampFc=2.0000 IDamp=-1.
 RMSDP=1.08D-03 MaxDP=2.63D-02              OVMax= 2.76D-02

 Cycle   2  Pass 0  IDiag  1:
 RMSU=  1.08D-03    CP:  9.99D-01
 E= -874.572729285206     Delta-E=       -0.014905026866 Rises=F Damp=F
 DIIS: error= 1.30D-03 at cycle   2 NSaved=   2.
 NSaved= 2 IEnMin= 2 EnMin= -874.572729285206     IErMin= 2 ErrMin= 1.30D-03
 ErrMax= 1.30D-03  0.00D+00 EMaxC= 1.00D-01 BMatC= 1.02D-03 BMatP= 1.02D-02
 IDIUse=3 WtCom= 9.87D-01 WtEn= 1.30D-02
 Coeff-Com:  0.124D+00 0.876D+00
 Coeff-En:   0.000D+00 0.100D+01
 Coeff:      0.123D+00 0.877D+00
 Gap=     0.233 Goal=   None    Shift=    0.000
 RMSDP=3.25D-04 MaxDP=8.62D-03 DE=-1.49D-02 OVMax= 8.08D-03

 Cycle   3  Pass 0  IDiag  1:
 RMSU=  3.24D-04    CP:  9.98D-01  1.01D+00
 E= -874.572933046983     Delta-E=       -0.000203761777 Rises=F Damp=F
 DIIS: error= 1.24D-03 at cycle   3 NSaved=   3.
 NSaved= 3 IEnMin= 3 EnMin= -874.572933046983     IErMin= 3 ErrMin= 1.24D-03
 ErrMax= 1.24D-03  0.00D+00 EMaxC= 1.00D-01 BMatC= 8.55D-04 BMatP= 1.02D-03
 IDIUse=3 WtCom= 9.88D-01 WtEn= 1.24D-02
 Coeff-Com: -0.143D-01 0.478D+00 0.536D+00
 Coeff-En:   0.000D+00 0.432D+00 0.568D+00
 Coeff:     -0.141D-01 0.478D+00 0.536D+00
 Gap=     0.231 Goal=   None    Shift=    0.000
 RMSDP=1.72D-04 MaxDP=5.08D-03 DE=-2.04D-04 OVMax= 4.65D-03

 Cycle   4  Pass 0  IDiag  1:
 RMSU=  7.85D-05    CP:  9.98D-01  1.04D+00  5.45D-01
 E= -874.573560872747     Delta-E=       -0.000627825764 Rises=F Damp=F
 DIIS: error= 5.59D-04 at cycle   4 NSaved=   4.
 NSaved= 4 IEnMin= 4 EnMin= -874.573560872747     IErMin= 4 ErrMin= 5.59D-04
 ErrMax= 5.59D-04  0.00D+00 EMaxC= 1.00D-01 BMatC= 6.99D-05 BMatP= 8.55D-04
 IDIUse=3 WtCom= 9.94D-01 WtEn= 5.59D-03
 Coeff-Com: -0.168D-01 0.200D+00 0.300D+00 0.516D+00
 Coeff-En:   0.000D+00 0.000D+00 0.000D+00 0.100D+01
 Coeff:     -0.167D-01 0.199D+00 0.299D+00 0.519D+00
 Gap=     0.230 Goal=   None    Shift=    0.000
 RMSDP=4.91D-05 MaxDP=1.39D-03 DE=-6.28D-04 OVMax= 2.45D-03

 Cycle   5  Pass 0  IDiag  1:
 RMSU=  3.20D-05    CP:  9.98D-01  1.05D+00  5.87D-01  5.64D-01
 E= -874.573612636874     Delta-E=       -0.000051764127 Rises=F Damp=F
 DIIS: error= 1.40D-04 at cycle   5 NSaved=   5.
 NSaved= 5 IEnMin= 5 EnMin= -874.573612636874     IErMin= 5 ErrMin= 1.40D-04
 ErrMax= 1.40D-04  0.00D+00 EMaxC= 1.00D-01 BMatC= 8.95D-06 BMatP= 6.99D-05
 IDIUse=3 WtCom= 9.99D-01 WtEn= 1.40D-03
 Coeff-Com: -0.786D-02 0.776D-01 0.131D+00 0.321D+00 0.479D+00
 Coeff-En:   0.000D+00 0.000D+00 0.000D+00 0.607D-01 0.939D+00
 Coeff:     -0.785D-02 0.775D-01 0.130D+00 0.320D+00 0.480D+00
 Gap=     0.230 Goal=   None    Shift=    0.000
 RMSDP=1.79D-05 MaxDP=6.30D-04 DE=-5.18D-05 OVMax= 1.14D-03

 Cycle   6  Pass 0  IDiag  1:
 RMSU=  1.23D-05    CP:  9.98D-01  1.05D+00  5.87D-01  6.25D-01  6.31D-01
 E= -874.573618881089     Delta-E=       -0.000006244215 Rises=F Damp=F
 DIIS: error= 4.44D-05 at cycle   6 NSaved=   6.
 NSaved= 6 IEnMin= 6 EnMin= -874.573618881089     IErMin= 6 ErrMin= 4.44D-05
 ErrMax= 4.44D-05  0.00D+00 EMaxC= 1.00D-01 BMatC= 1.20D-06 BMatP= 8.95D-06
 IDIUse=1 WtCom= 1.00D+00 WtEn= 0.00D+00
 Coeff-Com: -0.268D-02 0.203D-01 0.400D-01 0.136D+00 0.307D+00 0.500D+00
 Coeff:     -0.268D-02 0.203D-01 0.400D-01 0.136D+00 0.307D+00 0.500D+00
 Gap=     0.231 Goal=   None    Shift=    0.000
 RMSDP=6.68D-06 MaxDP=1.81D-04 DE=-6.24D-06 OVMax= 3.19D-04

 Initial convergence to 1.0D-05 achieved.  Increase integral accuracy.
 Cycle   7  Pass 1  IDiag  1:
 E= -874.573616741786     Delta-E=        0.000002139303 Rises=F Damp=F
 DIIS: error= 1.61D-05 at cycle   1 NSaved=   1.
 NSaved= 1 IEnMin= 1 EnMin= -874.573616741786     IErMin= 1 ErrMin= 1.61D-05
 ErrMax= 1.61D-05  0.00D+00 EMaxC= 1.00D-01 BMatC= 5.64D-08 BMatP= 5.64D-08
 IDIUse=1 WtCom= 1.00D+00 WtEn= 0.00D+00
 Coeff-Com:  0.100D+01
 Coeff:      0.100D+01
 Gap=     0.230 Goal=   None    Shift=    0.000
 RMSDP=6.68D-06 MaxDP=1.81D-04 DE= 2.14D-06 OVMax= 1.45D-04

 Cycle   8  Pass 1  IDiag  1:
 RMSU=  5.51D-06    CP:  1.00D+00
 E= -874.573616690285     Delta-E=        0.000000051501 Rises=F Damp=F
 DIIS: error= 1.43D-05 at cycle   2 NSaved=   2.
 NSaved= 2 IEnMin= 1 EnMin= -874.573616741786     IErMin= 2 ErrMin= 1.43D-05
 ErrMax= 1.43D-05  0.00D+00 EMaxC= 1.00D-01 BMatC= 1.24D-07 BMatP= 5.64D-08
 IDIUse=1 WtCom= 1.00D+00 WtEn= 0.00D+00
 Coeff-Com:  0.610D+00 0.390D+00
 Coeff:      0.610D+00 0.390D+00
 Gap=     0.231 Goal=   None    Shift=    0.000
 RMSDP=2.37D-06 MaxDP=7.05D-05 DE= 5.15D-08 OVMax= 1.13D-04

 Cycle   9  Pass 1  IDiag  1:
 RMSU=  1.92D-06    CP:  1.00D+00  7.50D-01
 E= -874.573616791825     Delta-E=       -0.000000101540 Rises=F Damp=F
 DIIS: error= 4.86D-06 at cycle   3 NSaved=   3.
 NSaved= 3 IEnMin= 3 EnMin= -874.573616791825     IErMin= 3 ErrMin= 4.86D-06
 ErrMax= 4.86D-06  0.00D+00 EMaxC= 1.00D-01 BMatC= 8.74D-09 BMatP= 5.64D-08
 IDIUse=1 WtCom= 1.00D+00 WtEn= 0.00D+00
 Coeff-Com:  0.189D+00 0.222D+00 0.589D+00
 Coeff:      0.189D+00 0.222D+00 0.589D+00
 Gap=     0.231 Goal=   None    Shift=    0.000
 RMSDP=6.27D-07 MaxDP=1.75D-05 DE=-1.02D-07 OVMax= 2.65D-05

 Cycle  10  Pass 1  IDiag  1:
 RMSU=  5.47D-07    CP:  1.00D+00  7.76D-01  8.61D-01
 E= -874.573616797255     Delta-E=       -0.000000005431 Rises=F Damp=F
 DIIS: error= 2.55D-06 at cycle   4 NSaved=   4.
 NSaved= 4 IEnMin= 4 EnMin= -874.573616797255     IErMin= 4 ErrMin= 2.55D-06
 ErrMax= 2.55D-06  0.00D+00 EMaxC= 1.00D-01 BMatC= 1.75D-09 BMatP= 8.74D-09
 IDIUse=1 WtCom= 1.00D+00 WtEn= 0.00D+00
 Coeff-Com:  0.844D-02 0.686D-01 0.364D+00 0.559D+00
 Coeff:      0.844D-02 0.686D-01 0.364D+00 0.559D+00
 Gap=     0.231 Goal=   None    Shift=    0.000
 RMSDP=2.50D-07 MaxDP=7.44D-06 DE=-5.43D-09 OVMax= 7.95D-06

 Cycle  11  Pass 1  IDiag  1:
 RMSU=  1.34D-07    CP:  1.00D+00  7.83D-01  8.78D-01  6.27D-01
 E= -874.573616798738     Delta-E=       -0.000000001483 Rises=F Damp=F
 DIIS: error= 3.88D-07 at cycle   5 NSaved=   5.
 NSaved= 5 IEnMin= 5 EnMin= -874.573616798738     IErMin= 5 ErrMin= 3.88D-07
 ErrMax= 3.88D-07  0.00D+00 EMaxC= 1.00D-01 BMatC= 9.84D-11 BMatP= 1.75D-09
 IDIUse=1 WtCom= 1.00D+00 WtEn= 0.00D+00
 Coeff-Com: -0.482D-02 0.270D-01 0.169D+00 0.310D+00 0.499D+00
 Coeff:     -0.482D-02 0.270D-01 0.169D+00 0.310D+00 0.499D+00
 Gap=     0.231 Goal=   None    Shift=    0.000
 RMSDP=6.43D-08 MaxDP=1.71D-06 DE=-1.48D-09 OVMax= 1.94D-06

 Cycle  12  Pass 1  IDiag  1:
 RMSU=  4.89D-08    CP:  1.00D+00  7.86D-01  8.78D-01  6.35D-01  7.04D-01
 E= -874.573616798826     Delta-E=       -0.000000000088 Rises=F Damp=F
 DIIS: error= 7.68D-08 at cycle   6 NSaved=   6.
 NSaved= 6 IEnMin= 6 EnMin= -874.573616798826     IErMin= 6 ErrMin= 7.68D-08
 ErrMax= 7.68D-08  0.00D+00 EMaxC= 1.00D-01 BMatC= 4.80D-12 BMatP= 9.84D-11
 IDIUse=1 WtCom= 1.00D+00 WtEn= 0.00D+00
 Coeff-Com: -0.300D-02 0.428D-02 0.326D-01 0.743D-01 0.213D+00 0.679D+00
 Coeff:     -0.300D-02 0.428D-02 0.326D-01 0.743D-01 0.213D+00 0.679D+00
 Gap=     0.231 Goal=   None    Shift=    0.000
 RMSDP=1.78D-08 MaxDP=3.27D-07 DE=-8.80D-11 OVMax= 9.43D-07

 Cycle  13  Pass 1  IDiag  1:
 RMSU=  1.60D-08    CP:  1.00D+00  7.86D-01  8.79D-01  6.40D-01  7.57D-01
                    CP:  9.83D-01
 E= -874.573616798835     Delta-E=       -0.000000000008 Rises=F Damp=F
 DIIS: error= 4.49D-08 at cycle   7 NSaved=   7.
 NSaved= 7 IEnMin= 7 EnMin= -874.573616798835     IErMin= 7 ErrMin= 4.49D-08
 ErrMax= 4.49D-08  0.00D+00 EMaxC= 1.00D-01 BMatC= 7.23D-13 BMatP= 4.80D-12
 IDIUse=1 WtCom= 1.00D+00 WtEn= 0.00D+00
 Coeff-Com: -0.729D-03-0.165D-02-0.745D-02-0.636D-02 0.330D-01 0.307D+00
 Coeff-Com:  0.676D+00
 Coeff:     -0.729D-03-0.165D-02-0.745D-02-0.636D-02 0.330D-01 0.307D+00
 Coeff:      0.676D+00
 Gap=     0.231 Goal=   None    Shift=    0.000
 RMSDP=8.47D-09 MaxDP=2.43D-07 DE=-8.41D-12 OVMax= 5.10D-07

 SCF Done:  E(RB3LYP) =  -874.573616799     A.U. after   13 cycles
            NFock= 13  Conv=0.85D-08     -V/T= 2.0065
 KE= 8.689379528782D+02 PE=-3.295397788104D+03 EE= 9.337379956068D+02
 Leave Link  502 at Fri Mar 14 14:22:07 2025, MaxMem=  8589934592 cpu:              92.6 elap:              13.2
 (Enter /home/enzo/gaussian_versions/gdv.j21/gdv/l701.exe)
 ... and contract with generalized density number  0.
 Compute integral first derivatives.
 Leave Link  701 at Fri Mar 14 14:22:08 2025, MaxMem=  8589934592 cpu:               3.7 elap:               0.7
 (Enter /home/enzo/gaussian_versions/gdv.j21/gdv/l702.exe)
 L702 exits ... SP integral derivatives will be done elsewhere.
 Leave Link  702 at Fri Mar 14 14:22:08 2025, MaxMem=  8589934592 cpu:               0.2 elap:               0.2
 (Enter /home/enzo/gaussian_versions/gdv.j21/gdv/l703.exe)
 Integral derivatives from FoFJK, PRISM(SPDF).
 Compute integral first derivatives, UseDBF=F ICtDFT=           0.
 Calling FoFJK, ICntrl=      2127 FMM=F ISym2X=0 I1Cent= 0 IOpClX= 0 NMat=1 NMatS=1 NMatT=0.
 FoFJK:  IHMeth= 1 ICntrl=    2127 DoSepK=F KAlg= 0 I1Cent=           0 FoldK=F
 IRaf=         0 NMat=       1 IRICut=       1 DoRegI=T DoRafI=F ISym2E= 0 IDoP0=0 IntGTp=1.
 FoFCou: FMM=F IPFlag=           0 FMFlag=      100000 FMFlg1=         800
         NFxFlg=           0 DoJE=F BraDBF=F KetDBF=F FulRan=T
         wScrn=  0.000000 ICntrl=      2127 IOpCl=  0 I1Cent=           0 NGrid=           0
         NMat0=    1 NMatS0=      1 NMatT0=    0 NMatD0=    1 NMtDS0=    0 NMtDT0=    0
 Symmetry not used in FoFCou.
 Leave Link  703 at Fri Mar 14 14:22:10 2025, MaxMem=  8589934592 cpu:              16.5 elap:               1.8
 (Enter /home/enzo/gaussian_versions/gdv.j21/gdv/l716.exe)
 Dipole        = 1.11975314D+00-3.69094041D-01-1.02636317D+00
 ***** Axes restored to original set *****
 -------------------------------------------------------------------
 Center     Atomic                   Forces (Hartrees/Bohr)
 Number     Number              X              Y              Z
 -------------------------------------------------------------------
      1        6          -0.003856104    0.002306610   -0.001384551
      2        6           0.002590911   -0.000793517    0.011003004
      3       16          -0.002283611   -0.004982312    0.002007488
      4        6           0.014917924   -0.002502352   -0.012972062
      5        8          -0.000676724    0.002516078    0.008105113
      6        7          -0.013940358    0.002261994    0.002263882
      7        6          -0.006422937   -0.006232570   -0.000790298
      8        6           0.026728171    0.003539067    0.007527200
      9        8          -0.013941641    0.000560457   -0.005470877
     10        8          -0.009153213    0.002003176   -0.002818152
     11        1           0.001433991   -0.000431893   -0.001130634
     12        1          -0.000905599   -0.001240017   -0.001003125
     13        1           0.001124253   -0.000429219    0.001550019
     14        1          -0.000546233    0.000409171   -0.002366996
     15        1          -0.000740582    0.004468376   -0.002854265
     16        1           0.001634736   -0.000362426   -0.004375034
     17        1           0.000650064    0.002303319    0.000198214
     18        1          -0.000547236    0.000114062    0.002029017
     19        1           0.003934189   -0.003508008    0.000482058
 -------------------------------------------------------------------
 Cartesian Forces:  Max     0.026728171 RMS     0.006140172
 Leave Link  716 at Fri Mar 14 14:22:10 2025, MaxMem=  8589934592 cpu:               0.1 elap:               0.2
 (Enter /home/enzo/gaussian_versions/gdv.j21/gdv/l103.exe)

 GradGradGradGradGradGradGradGradGradGradGradGradGradGradGradGradGradGrad
 Berny optimization.
 Using GEDIIS/GDIIS optimizer.
 FormGI is forming the generalized inverse of G from B-inverse, IUseBI=4.
 Internal  Forces:  Max     0.014642071 RMS     0.003373500
 Search for a local minimum.
 Step number   2 out of a maximum of   93
 All quantities printed in internal units (Hartrees-Bohrs-Radians)
 RMS Force = .33735D-02 SwitMx=.10000D-02 MixMth= 1
 Mixed Optimization -- RFO/linear search
 Update second derivatives using D2CorX and points    1    2
 DE= -2.23D-02 DEPred=-2.20D-02 R= 1.01D+00
 TightC=F SS=  1.41D+00  RLast= 3.29D-01 DXNew= 5.0454D-01 9.8611D-01
 Trust test= 1.01D+00 RLast= 3.29D-01 DXMaxT set to 5.05D-01
 ITU=  1  0
 Use linear search instead of GDIIS.
     Eigenvalues ---    0.00230   0.00449   0.00747   0.00858   0.00901
     Eigenvalues ---    0.00962   0.01056   0.01091   0.01272   0.01841
     Eigenvalues ---    0.05121   0.05209   0.05450   0.05662   0.05717
     Eigenvalues ---    0.06682   0.07527   0.09940   0.13313   0.15889
     Eigenvalues ---    0.16000   0.16000   0.16000   0.16000   0.16878
     Eigenvalues ---    0.17374   0.19953   0.21394   0.21999   0.22058
     Eigenvalues ---    0.23460   0.24752   0.24985   0.25000   0.26314
     Eigenvalues ---    0.30013   0.31904   0.32550   0.32576   0.32602
     Eigenvalues ---    0.32611   0.32637   0.32685   0.33007   0.37097
     Eigenvalues ---    0.40635   0.40710   0.45765   0.49728   0.78184
     Eigenvalues ---    0.80106
 RFO step:  Lambda=-4.66448520D-03 EMin= 2.29996835D-03
 Quartic linear search produced a step of  0.21408.
 Iteration  1 RMS(Cart)=  0.15418676 RMS(Int)=  0.00768782
 Iteration  2 RMS(Cart)=  0.01343846 RMS(Int)=  0.00010690
 Iteration  3 RMS(Cart)=  0.00008668 RMS(Int)=  0.00008945
 Iteration  4 RMS(Cart)=  0.00000002 RMS(Int)=  0.00008945
 Variable       Old X    -DE/DX   Delta X   Delta X   Delta X     New X
                                 (Linear)    (Quad)   (Total)
    R1        2.89537   0.00075   0.00333  -0.00024   0.00309   2.89846
    R2        2.07189  -0.00187  -0.00530  -0.00182  -0.00712   2.06476
    R3        2.07553  -0.00169  -0.00468  -0.00174  -0.00642   2.06911
    R4        2.07184  -0.00178  -0.00554  -0.00127  -0.00681   2.06503
    R5        3.48205   0.00295   0.00974   0.00418   0.01393   3.49597
    R6        2.86704   0.00550   0.00636   0.01427   0.02063   2.88766
    R7        2.07855  -0.00245  -0.00411  -0.00506  -0.00917   2.06937
    R8        2.57333  -0.00531  -0.01796  -0.00974  -0.02771   2.54563
    R9        2.32852  -0.00757  -0.01098  -0.00257  -0.01355   2.31497
   R10        2.61043  -0.00924  -0.02024  -0.00888  -0.02912   2.58131
   R11        2.74842   0.00085  -0.00193   0.00448   0.00255   2.75097
   R12        1.91980  -0.00440  -0.01166  -0.00248  -0.01414   1.90565
   R13        2.85613   0.00726   0.00746   0.01903   0.02649   2.88262
   R14        2.06826  -0.00181  -0.00643  -0.00056  -0.00699   2.06128
   R15        2.07479  -0.00187  -0.00484  -0.00227  -0.00711   2.06769
   R16        2.29793  -0.01464  -0.01673  -0.00841  -0.02514   2.27279
   R17        2.55548   0.00009  -0.01466   0.01294  -0.00171   2.55377
   R18        1.85207  -0.00417  -0.01290   0.00038  -0.01252   1.83956
    A1        1.92355   0.00043   0.00121   0.00406   0.00526   1.92881
    A2        1.92652  -0.00072   0.00111  -0.00804  -0.00695   1.91958
    A3        1.92982  -0.00020  -0.00051  -0.00167  -0.00221   1.92761
    A4        1.88921   0.00037  -0.00037   0.00479   0.00443   1.89364
    A5        1.90024   0.00021   0.00039   0.00393   0.00431   1.90455
    A6        1.89363  -0.00009  -0.00187  -0.00289  -0.00479   1.88883
    A7        1.91323  -0.00225  -0.00121  -0.01869  -0.01990   1.89333
    A8        1.91914  -0.00004  -0.00228  -0.00046  -0.00282   1.91632
    A9        1.89565   0.00130   0.00091   0.01505   0.01596   1.91161
   A10        1.93554   0.00118   0.00284  -0.00143   0.00128   1.93681
   A11        1.87566   0.00004  -0.00129   0.00114  -0.00007   1.87559
   A12        1.92373  -0.00023   0.00102   0.00464   0.00562   1.92935
   A13        1.68625  -0.00048   0.01313  -0.01911  -0.00599   1.68026
   A14        2.13702   0.00188   0.01035  -0.00172   0.00855   2.14558
   A15        2.04216  -0.00743  -0.01217  -0.02294  -0.03519   2.00697
   A16        2.10319   0.00552   0.00166   0.02432   0.02591   2.12910
   A17        2.12047   0.00104   0.00062   0.00482   0.00511   2.12558
   A18        2.08332   0.00095   0.00194   0.00545   0.00705   2.09036
   A19        2.07936  -0.00199  -0.00257  -0.01069  -0.01358   2.06578
   A20        1.95645   0.00109   0.00541  -0.00058   0.00476   1.96121
   A21        1.92802  -0.00003   0.00344   0.00143   0.00479   1.93281
   A22        1.86695  -0.00065  -0.00942   0.00202  -0.00741   1.85954
   A23        1.89816   0.00031  -0.00282   0.01159   0.00866   1.90682
   A24        1.91319  -0.00132   0.00181  -0.01923  -0.01738   1.89581
   A25        1.90026   0.00056   0.00150   0.00439   0.00597   1.90623
   A26        2.15680   0.00186   0.01306  -0.00444   0.00859   2.16539
   A27        2.04164  -0.01105  -0.01077  -0.04135  -0.05214   1.98950
   A28        2.08475   0.00919  -0.00224   0.04579   0.04352   2.12827
   A29        1.94751  -0.00526  -0.03460   0.00256  -0.03204   1.91547
    D1        1.04095  -0.00017  -0.00134  -0.00061  -0.00201   1.03894
    D2       -3.11007  -0.00020  -0.00008  -0.01489  -0.01494  -3.12501
    D3       -1.00369   0.00030   0.00036  -0.00012   0.00030  -1.00339
    D4        3.12689   0.00011  -0.00034   0.00283   0.00241   3.12929
    D5       -1.02413   0.00008   0.00092  -0.01146  -0.01052  -1.03465
    D6        1.08225   0.00058   0.00136   0.00332   0.00471   1.08696
    D7       -1.06084  -0.00059  -0.00228  -0.00707  -0.00941  -1.07025
    D8        1.07133  -0.00062  -0.00101  -0.02136  -0.02234   1.04899
    D9       -3.10548  -0.00012  -0.00057  -0.00658  -0.00710  -3.11258
   D10       -2.80699  -0.00093  -0.00313  -0.07088  -0.07402  -2.88100
   D11        1.35384  -0.00015  -0.00133  -0.05690  -0.05826   1.29558
   D12       -0.74985  -0.00058  -0.00344  -0.06245  -0.06585  -0.81570
   D13       -1.01397   0.00209   0.00714   0.05847   0.06563  -0.94834
   D14        2.08455   0.00150   0.00019   0.04988   0.05009   2.13464
   D15        1.10491   0.00001   0.00599   0.03373   0.03969   1.14461
   D16       -2.07975  -0.00058  -0.00096   0.02515   0.02416  -2.05559
   D17       -3.10334   0.00065   0.00680   0.03722   0.04404  -3.05930
   D18       -0.00482   0.00006  -0.00015   0.02864   0.02850   0.02368
   D19        3.13811  -0.00120  -0.00302  -0.06457  -0.06742   3.07069
   D20       -0.01413  -0.00195  -0.00514  -0.11069  -0.11600  -0.13013
   D21       -0.04567  -0.00186  -0.00978  -0.07363  -0.08323  -0.12890
   D22        3.08528  -0.00261  -0.01189  -0.11975  -0.13181   2.95347
   D23        1.80639  -0.00328  -0.00824  -0.17684  -0.18502   1.62137
   D24       -2.35686  -0.00216  -0.00588  -0.16141  -0.16712  -2.52398
   D25       -0.29116  -0.00188  -0.00769  -0.15417  -0.16173  -0.45289
   D26       -1.32458  -0.00255  -0.00613  -0.13091  -0.13722  -1.46180
   D27        0.79535  -0.00143  -0.00377  -0.11548  -0.11933   0.67603
   D28        2.86105  -0.00115  -0.00558  -0.10824  -0.11393   2.74712
   D29        2.17388   0.00026   0.00523  -0.03377  -0.02854   2.14535
   D30       -0.96823  -0.00015   0.00031  -0.03646  -0.03616  -1.00439
   D31        0.03689  -0.00064  -0.00070  -0.04327  -0.04399  -0.00710
   D32       -3.10523  -0.00105  -0.00561  -0.04596  -0.05161   3.12635
   D33       -2.03888  -0.00073  -0.00191  -0.04424  -0.04611  -2.08498
   D34        1.10219  -0.00114  -0.00683  -0.04693  -0.05373   1.04846
   D35       -0.03470  -0.00119  -0.00127  -0.05548  -0.05677  -0.09147
   D36        3.10639  -0.00158  -0.00618  -0.05807  -0.06422   3.04217
         Item               Value     Threshold  Converged?
 Maximum Force            0.014642     0.000450     NO 
 RMS     Force            0.003373     0.000300     NO 
 Maximum Displacement     0.572713     0.001800     NO 
 RMS     Displacement     0.156379     0.001200     NO 
 Predicted change in Energy=-4.157971D-03
 Lowest energy point so far.  Saving SCF results.
 GradGradGradGradGradGradGradGradGradGradGradGradGradGradGradGradGradGrad

 Leave Link  103 at Fri Mar 14 14:22:10 2025, MaxMem=  8589934592 cpu:               0.4 elap:               0.2
 (Enter /home/enzo/gaussian_versions/gdv.j21/gdv/l202.exe)
                          Input orientation:                          
 ---------------------------------------------------------------------
 Center     Atomic      Atomic             Coordinates (Angstroms)
 Number     Number       Type             X           Y           Z
 ---------------------------------------------------------------------
      1          6           0       -2.037664    1.816705    0.560762
      2          6           0       -1.742932    0.312268    0.609162
      3         16           0       -3.194212   -0.592585   -0.096168
      4          6           0       -0.471596    0.008229   -0.182236
      5          8           0       -0.316980    0.346039   -1.349572
      6          7           0        0.517451   -0.609103    0.529500
      7          6           0        1.756435   -1.044800   -0.098431
      8          6           0        2.855220    0.009402   -0.007731
      9          8           0        3.931828   -0.180991    0.493443
     10          8           0        2.521848    1.199034   -0.555373
     11          1           0       -2.935943    2.049627    1.137540
     12          1           0       -1.197632    2.376418    0.984947
     13          1           0       -2.180192    2.144708   -0.471829
     14          1           0       -1.632207   -0.005693    1.651183
     15          1           0       -2.849956   -1.808761    0.369716
     16          1           0        0.418524   -0.726366    1.526190
     17          1           0        2.111148   -1.973566    0.350316
     18          1           0        1.526201   -1.219606   -1.153729
     19          1           0        1.651662    1.130459   -0.986279
 ---------------------------------------------------------------------
                    Distance matrix (angstroms):
                    1          2          3          4          5
     1  C    0.000000
     2  C    1.533799   0.000000
     3  S    2.752061   1.849990   0.000000
     4  C    2.505035   1.528086   2.789449   0.000000
     5  O    2.961923   2.423039   3.275745   1.225029   0.000000
     6  N    3.523370   2.442254   3.764065   1.365973   2.267043
     7  C    4.797701   3.819410   4.971259   2.465768   2.792639
     8  C    5.246889   4.649224   6.079954   3.331389   3.460738
     9  O    6.295249   5.697333   7.162227   4.458978   4.661205
    10  O    4.734599   4.508974   6.007838   3.243139   3.068761
    11  H    1.092625   2.172758   2.927460   3.461521   3.993358
    12  H    1.094927   2.167783   3.737662   2.738204   3.216825
    13  H    1.092769   2.171998   2.943150   2.750947   2.734448
    14  H    2.162070   1.095065   2.416099   2.169940   3.295158
    15  H    3.720258   2.404495   1.347087   3.043469   3.743673
    16  H    3.664986   2.567410   3.962550   2.061713   3.156110
    17  H    5.623440   4.488427   5.500301   3.298740   3.763774
    18  H    4.985960   4.017668   4.877899   2.538221   2.426296
    19  H    4.058989   3.839028   5.219547   2.532608   2.150080
                    6          7          8          9         10
     6  N    0.000000
     7  C    1.455751   0.000000
     8  C    2.477161   1.525417   0.000000
     9  O    3.441300   2.414294   1.202710   0.000000
    10  O    2.909281   2.414424   1.351396   2.234396   0.000000
    11  H    4.400511   5.755130   6.245937   7.249607   5.777279
    12  H    3.473079   4.648113   4.797268   5.752676   4.194443
    13  H    3.982891   5.080298   5.489107   6.610402   4.796922
    14  H    2.498661   3.952694   4.784268   5.685910   4.855556
    15  H    3.578288   4.692721   5.999768   6.975495   6.225664
    16  H    1.008429   2.128568   2.971827   3.702338   3.530445
    17  H    2.105644   1.090780   2.148023   2.559040   3.324806
    18  H    2.055127   1.094174   2.142443   3.094986   2.683125
    19  H    2.571010   2.351809   1.913864   3.018052   0.973451
                   11         12         13         14         15
    11  H    0.000000
    12  H    1.775332   0.000000
    13  H    1.780524   1.772374   0.000000
    14  H    2.487549   2.511409   3.071106   0.000000
    15  H    3.934985   4.541410   4.097158   2.525099   0.000000
    16  H    4.371457   3.540081   4.357576   2.177267   3.632075
    17  H    6.502225   5.502103   6.004307   4.424645   4.963879
    18  H    5.987364   4.992453   5.051826   4.395072   4.671053
    19  H    5.138248   3.681931   3.997057   4.362435   5.544574
                   16         17         18         19
    16  H    0.000000
    17  H    2.408976   0.000000
    18  H    2.941462   1.781227   0.000000
    19  H    3.358709   3.410657   2.359361   0.000000
 Stoichiometry    C5H9NO3S
 Framework group  C1[X(C5H9NO3S)]
 Deg. of freedom    51
 Full point group                 C1      NOp   1
 RotChk:  IX=0 Diff= 7.56D-02
 Largest Abelian subgroup         C1      NOp   1
 Largest concise Abelian subgroup C1      NOp   1
                         Standard orientation:                         
 ---------------------------------------------------------------------
 Center     Atomic      Atomic             Coordinates (Angstroms)
 Number     Number       Type             X           Y           Z
 ---------------------------------------------------------------------
      1          6           0        2.046733    1.705339   -0.611957
      2          6           0        1.740780    0.202496   -0.592025
      3         16           0        3.171082   -0.676863    0.184779
      4          6           0        0.452286   -0.053038    0.188700
      5          8           0        0.278372    0.343008    1.334822
      6          7           0       -0.528102   -0.697602   -0.510771
      7          6           0       -1.782227   -1.092923    0.113810
      8          6           0       -2.870517   -0.036625   -0.049766
      9          8           0       -3.938966   -0.243773   -0.561642
     10          8           0       -2.537924    1.176138    0.445066
     11          1           0        2.957614    1.903100   -1.182058
     12          1           0        1.219436    2.249466   -1.079258
     13          1           0        2.172368    2.082819    0.405820
     14          1           0        1.647200   -0.165646   -1.619099
     15          1           0        2.825846   -1.912029   -0.227315
     16          1           0       -0.411303   -0.864564   -1.498400
     17          1           0       -2.135912   -2.040115   -0.295499
     18          1           0       -1.573410   -1.217137    1.180667
     19          1           0       -1.676624    1.122654    0.895521
 ---------------------------------------------------------------------
 Rotational constants (GHZ):           2.7895708           0.5051067           0.4765021
 Leave Link  202 at Fri Mar 14 14:22:10 2025, MaxMem=  8589934592 cpu:               0.1 elap:               0.2
 (Enter /home/enzo/gaussian_versions/gdv.j21/gdv/l301.exe)
 Standard basis: 6-31G(d) (6D, 7F)
 Ernie: Thresh=  0.10000D-02 Tol=  0.10000D-05 Strict=F.
 There are   172 symmetry adapted cartesian basis functions of A   symmetry.
 There are   172 symmetry adapted basis functions of A   symmetry.
   172 basis functions,   340 primitive gaussians,   172 cartesian basis functions
    43 alpha electrons       43 beta electrons
       nuclear repulsion energy       622.4226785433 Hartrees.
 IExCor=      4002 DFT=T Ex+Corr=B3LYP ScaHFX=  0.200000
 ScaDFX=  0.800000  0.720000  1.000000  0.810000  1.000000  0.000000
 ScaDFX=  0.000000  0.000000  0.000000  0.000000  0.000000  0.000000
 IRadAn=      5 IRanWt=     -1 IRanGd=            0 ICorTp=0 IEmpDi=  4
 NAtoms=   19 NActive=   19 NUniq=   19 SFac= 1.00D+00 NAtFMM=   60 NAOKFM=F Big=F
 Integral buffers will be    131072 words long.
 Raffenetti 2 integral format.
 Two-electron integral symmetry is turned on.
 Leave Link  301 at Fri Mar 14 14:22:11 2025, MaxMem=  8589934592 cpu:               0.4 elap:               0.2
 (Enter /home/enzo/gaussian_versions/gdv.j21/gdv/l302.exe)
 NPDir=0 NMtPBC=     1 NCelOv=     1 NCel=       1 NClECP=     1 NCelD=      1
         NCelK=      1 NCelE2=     1 NClLst=     1 CellRange=     0.0.
 One-electron integrals computed using PRISM.
 One-electron integral symmetry used in STVInt
 NBasis=   172 RedAO= T EigKep=  2.61D-03  NBF=   172
 NBsUse=   172 1.00D-06 EigRej= -1.00D+00 NBFU=   172
 Precomputing XC quadrature grid using
 IXCGrd= 4 IRadAn=           5 IRanWt=          -1 IRanGd=           0 AccXCQ= 0.00D+00.
 Generated NRdTot=       0 NPtTot=      406596 NUsed=           0 NTot=          64
 NSgBfM=   171   171   171   171   171 MxSgAt=    19 MxSgA2=    19 SizInc=   0.000
 NMBTot=     3445 MaxBatPerAtom=       85 MaxMicBPerAtom=      209 NBfPt=            52202749.
 Leave Link  302 at Fri Mar 14 14:22:11 2025, MaxMem=  8589934592 cpu:               2.5 elap:               0.4
 (Enter /home/enzo/gaussian_versions/gdv.j21/gdv/l303.exe)
 DipDrv:  MaxL=1.
 Leave Link  303 at Fri Mar 14 14:22:11 2025, MaxMem=  8589934592 cpu:               0.7 elap:               0.3
 (Enter /home/enzo/gaussian_versions/gdv.j21/gdv/l401.exe)
 Initial guess from the checkpoint file:  "/local/home/enzo/scratch/Gau-2271009.chk"
 B after Tr=    -0.000000    0.000000   -0.000000
         Rot=    0.999579    0.028687    0.002999    0.003166 Ang=   3.33 deg.
 AO Guess basis will be translated and rotated to current coordinates.
 JPrj=2 DoOrth=T DoCkMO=T.
 Generating alternative initial guess.
 ExpMin= 1.17D-01 ExpMax= 2.19D+04 ExpMxC= 3.30D+03 IAcc=3 IRadAn=         5 AccDes= 0.00D+00
 Harris functional with IExCor= 4002 and IRadAn=       5 diagonalized for initial guess.
 HarFok:  IExCor=    4002 AccDes= 0.00D+00 IRadAn=         5 IDoV= 1 UseB2=F ITyADJ=14 ICtDFT=  3500011
 FoFCou: FMM=F IPFlag=           0 FMFlag=      100000 FMFlg1=           0
         NFxFlg=           0 DoJE=T BraDBF=F KetDBF=T FulRan=T
         wScrn=  0.000000 ICntrl=       500 IOpCl=  0 I1Cent=   200000004 NGrid=           0
         NMat0=    1 NMatS0=      1 NMatT0=    0 NMatD0=    1 NMtDS0=    0 NMtDT0=    0
 Petite list used in FoFCou.
 Harris En= -874.545048194107    
 Leave Link  401 at Fri Mar 14 14:22:13 2025, MaxMem=  8589934592 cpu:               8.8 elap:               1.6
 (Enter /home/enzo/gaussian_versions/gdv.j21/gdv/l502.exe)
 Integral symmetry usage will be decided dynamically.
 Closed shell SCF:
 Using DIIS extrapolation, IDIIS=  1040.
 NGot=  8589934592 LenX=  8589843591 LenY=  8589813566
 Requested convergence on RMS density matrix=1.00D-08 within 128 cycles.
 Requested convergence on MAX density matrix=1.00D-06.
 Requested convergence on             energy=1.00D-06.
 No special actions if energy rises.
 Fock matrices will be formed incrementally for  20 cycles.
 Integral accuracy reduced to 1.0D-05 until final iterations.

 Cycle   1  Pass 0  IDiag  1:
 FoFJK:  IHMeth= 1 ICntrl=       0 DoSepK=F KAlg= 0 I1Cent=           0 FoldK=F
 IRaf= 910000000 NMat=       1 IRICut=       1 DoRegI=T DoRafI=F ISym2E= 0 IDoP0=0 IntGTp=1.
 FoFCou: FMM=F IPFlag=           0 FMFlag=      100000 FMFlg1=           0
         NFxFlg=           0 DoJE=F BraDBF=F KetDBF=F FulRan=T
         wScrn=  0.000000 ICntrl=         0 IOpCl=  0 I1Cent=           0 NGrid=           0
         NMat0=    1 NMatS0=      1 NMatT0=    0 NMatD0=    1 NMtDS0=    0 NMtDT0=    0
 Symmetry not used in FoFCou.
 E= -874.530767322131    
 DIIS: error= 5.85D-03 at cycle   1 NSaved=   1.
 NSaved= 1 IEnMin= 1 EnMin= -874.530767322131     IErMin= 1 ErrMin= 5.85D-03
 ErrMax= 5.85D-03  0.00D+00 EMaxC= 1.00D-01 BMatC= 2.55D-02 BMatP= 2.55D-02
 IDIUse=3 WtCom= 9.41D-01 WtEn= 5.85D-02
 Coeff-Com:  0.100D+01
 Coeff-En:   0.100D+01
 Coeff:      0.100D+01
 Gap=     1.534 Goal=   None    Shift=    0.000
 GapD=    1.534 DampG=2.000 DampE=1.000 DampFc=2.0000 IDamp=-1.
 RMSDP=1.71D-03 MaxDP=3.35D-02              OVMax= 5.00D-02

 Cycle   2  Pass 0  IDiag  1:
 RMSU=  1.71D-03    CP:  9.96D-01
 E= -874.577829212403     Delta-E=       -0.047061890272 Rises=F Damp=F
 DIIS: error= 1.42D-03 at cycle   2 NSaved=   2.
 NSaved= 2 IEnMin= 2 EnMin= -874.577829212403     IErMin= 2 ErrMin= 1.42D-03
 ErrMax= 1.42D-03  0.00D+00 EMaxC= 1.00D-01 BMatC= 9.27D-04 BMatP= 2.55D-02
 IDIUse=3 WtCom= 9.86D-01 WtEn= 1.42D-02
 Coeff-Com: -0.217D-01 0.102D+01
 Coeff-En:   0.000D+00 0.100D+01
 Coeff:     -0.214D-01 0.102D+01
 Gap=     0.229 Goal=   None    Shift=    0.000
 RMSDP=4.24D-04 MaxDP=1.00D-02 DE=-4.71D-02 OVMax= 2.22D-02

 Cycle   3  Pass 0  IDiag  1:
 RMSU=  4.14D-04    CP:  9.97D-01  1.05D+00
 E= -874.576954851218     Delta-E=        0.000874361185 Rises=F Damp=F
 DIIS: error= 2.70D-03 at cycle   3 NSaved=   3.
 NSaved= 3 IEnMin= 2 EnMin= -874.577829212403     IErMin= 2 ErrMin= 1.42D-03
 ErrMax= 2.70D-03  0.00D+00 EMaxC= 1.00D-01 BMatC= 2.53D-03 BMatP= 9.27D-04
 IDIUse=3 WtCom= 1.61D-01 WtEn= 8.39D-01
 Coeff-Com: -0.437D-01 0.671D+00 0.373D+00
 Coeff-En:   0.000D+00 0.658D+00 0.342D+00
 Coeff:     -0.705D-02 0.660D+00 0.347D+00
 Gap=     0.230 Goal=   None    Shift=    0.000
 RMSDP=2.71D-04 MaxDP=8.51D-03 DE= 8.74D-04 OVMax= 1.65D-02

 Cycle   4  Pass 0  IDiag  1:
 RMSU=  1.12D-04    CP:  9.96D-01  1.08D+00  4.14D-01
 E= -874.578840376472     Delta-E=       -0.001885525254 Rises=F Damp=F
 DIIS: error= 4.25D-04 at cycle   4 NSaved=   4.
 NSaved= 4 IEnMin= 4 EnMin= -874.578840376472     IErMin= 4 ErrMin= 4.25D-04
 ErrMax= 4.25D-04  0.00D+00 EMaxC= 1.00D-01 BMatC= 6.57D-05 BMatP= 9.27D-04
 IDIUse=3 WtCom= 9.96D-01 WtEn= 4.25D-03
 Coeff-Com: -0.193D-01 0.200D+00 0.174D+00 0.646D+00
 Coeff-En:   0.000D+00 0.000D+00 0.000D+00 0.100D+01
 Coeff:     -0.193D-01 0.199D+00 0.173D+00 0.647D+00
 Gap=     0.229 Goal=   None    Shift=    0.000
 RMSDP=5.27D-05 MaxDP=1.41D-03 DE=-1.89D-03 OVMax= 2.11D-03

 Cycle   5  Pass 0  IDiag  1:
 RMSU=  4.02D-05    CP:  9.96D-01  1.08D+00  4.66D-01  7.96D-01
 E= -874.578888460448     Delta-E=       -0.000048083976 Rises=F Damp=F
 DIIS: error= 1.48D-04 at cycle   5 NSaved=   5.
 NSaved= 5 IEnMin= 5 EnMin= -874.578888460448     IErMin= 5 ErrMin= 1.48D-04
 ErrMax= 1.48D-04  0.00D+00 EMaxC= 1.00D-01 BMatC= 1.04D-05 BMatP= 6.57D-05
 IDIUse=3 WtCom= 9.99D-01 WtEn= 1.48D-03
 Coeff-Com: -0.652D-02 0.558D-01 0.641D-01 0.357D+00 0.529D+00
 Coeff-En:   0.000D+00 0.000D+00 0.000D+00 0.585D-01 0.942D+00
 Coeff:     -0.651D-02 0.558D-01 0.640D-01 0.357D+00 0.530D+00
 Gap=     0.229 Goal=   None    Shift=    0.000
 RMSDP=1.81D-05 MaxDP=5.86D-04 DE=-4.81D-05 OVMax= 7.19D-04

 Cycle   6  Pass 0  IDiag  1:
 RMSU=  1.18D-05    CP:  9.96D-01  1.09D+00  4.68D-01  8.67D-01  7.33D-01
 E= -874.578896659244     Delta-E=       -0.000008198796 Rises=F Damp=F
 DIIS: error= 3.79D-05 at cycle   6 NSaved=   6.
 NSaved= 6 IEnMin= 6 EnMin= -874.578896659244     IErMin= 6 ErrMin= 3.79D-05
 ErrMax= 3.79D-05  0.00D+00 EMaxC= 1.00D-01 BMatC= 8.03D-07 BMatP= 1.04D-05
 IDIUse=1 WtCom= 1.00D+00 WtEn= 0.00D+00
 Coeff-Com: -0.676D-03 0.959D-04 0.803D-02 0.924D-01 0.256D+00 0.644D+00
 Coeff:     -0.676D-03 0.959D-04 0.803D-02 0.924D-01 0.256D+00 0.644D+00
 Gap=     0.229 Goal=   None    Shift=    0.000
 RMSDP=6.74D-06 MaxDP=1.77D-04 DE=-8.20D-06 OVMax= 3.22D-04

 Initial convergence to 1.0D-05 achieved.  Increase integral accuracy.
 Cycle   7  Pass 1  IDiag  1:
 E= -874.578902534572     Delta-E=       -0.000005875328 Rises=F Damp=F
 DIIS: error= 1.72D-05 at cycle   1 NSaved=   1.
 NSaved= 1 IEnMin= 1 EnMin= -874.578902534572     IErMin= 1 ErrMin= 1.72D-05
 ErrMax= 1.72D-05  0.00D+00 EMaxC= 1.00D-01 BMatC= 1.44D-07 BMatP= 1.44D-07
 IDIUse=1 WtCom= 1.00D+00 WtEn= 0.00D+00
 Coeff-Com:  0.100D+01
 Coeff:      0.100D+01
 Gap=     0.229 Goal=   None    Shift=    0.000
 RMSDP=6.74D-06 MaxDP=1.77D-04 DE=-5.88D-06 OVMax= 2.41D-04

 Cycle   8  Pass 1  IDiag  1:
 RMSU=  6.51D-06    CP:  1.00D+00
 E= -874.578902339143     Delta-E=        0.000000195429 Rises=F Damp=F
 DIIS: error= 3.04D-05 at cycle   2 NSaved=   2.
 NSaved= 2 IEnMin= 1 EnMin= -874.578902534572     IErMin= 1 ErrMin= 1.72D-05
 ErrMax= 3.04D-05  0.00D+00 EMaxC= 1.00D-01 BMatC= 3.99D-07 BMatP= 1.44D-07
 IDIUse=1 WtCom= 1.00D+00 WtEn= 0.00D+00
 Coeff-Com:  0.632D+00 0.368D+00
 Coeff:      0.632D+00 0.368D+00
 Gap=     0.229 Goal=   None    Shift=    0.000
 RMSDP=3.78D-06 MaxDP=1.07D-04 DE= 1.95D-07 OVMax= 1.84D-04

 Cycle   9  Pass 1  IDiag  1:
 RMSU=  2.16D-06    CP:  1.00D+00  5.24D-01
 E= -874.578902664190     Delta-E=       -0.000000325047 Rises=F Damp=F
 DIIS: error= 7.09D-06 at cycle   3 NSaved=   3.
 NSaved= 3 IEnMin= 3 EnMin= -874.578902664190     IErMin= 3 ErrMin= 7.09D-06
 ErrMax= 7.09D-06  0.00D+00 EMaxC= 1.00D-01 BMatC= 1.33D-08 BMatP= 1.44D-07
 IDIUse=1 WtCom= 1.00D+00 WtEn= 0.00D+00
 Coeff-Com:  0.279D+00 0.204D+00 0.516D+00
 Coeff:      0.279D+00 0.204D+00 0.516D+00
 Gap=     0.229 Goal=   None    Shift=    0.000
 RMSDP=7.31D-07 MaxDP=2.24D-05 DE=-3.25D-07 OVMax= 3.07D-05

 Cycle  10  Pass 1  IDiag  1:
 RMSU=  6.37D-07    CP:  1.00D+00  5.53D-01  8.59D-01
 E= -874.578902673694     Delta-E=       -0.000000009504 Rises=F Damp=F
 DIIS: error= 2.42D-06 at cycle   4 NSaved=   4.
 NSaved= 4 IEnMin= 4 EnMin= -874.578902673694     IErMin= 4 ErrMin= 2.42D-06
 ErrMax= 2.42D-06  0.00D+00 EMaxC= 1.00D-01 BMatC= 1.69D-09 BMatP= 1.33D-08
 IDIUse=1 WtCom= 1.00D+00 WtEn= 0.00D+00
 Coeff-Com:  0.251D-01 0.378D-01 0.282D+00 0.655D+00
 Coeff:      0.251D-01 0.378D-01 0.282D+00 0.655D+00
 Gap=     0.229 Goal=   None    Shift=    0.000
 RMSDP=2.57D-07 MaxDP=6.75D-06 DE=-9.50D-09 OVMax= 1.03D-05

 Cycle  11  Pass 1  IDiag  1:
 RMSU=  1.93D-07    CP:  1.00D+00  5.58D-01  9.10D-01  8.03D-01
 E= -874.578902674969     Delta-E=       -0.000000001275 Rises=F Damp=F
 DIIS: error= 6.49D-07 at cycle   5 NSaved=   5.
 NSaved= 5 IEnMin= 5 EnMin= -874.578902674969     IErMin= 5 ErrMin= 6.49D-07
 ErrMax= 6.49D-07  0.00D+00 EMaxC= 1.00D-01 BMatC= 2.62D-10 BMatP= 1.69D-09
 IDIUse=1 WtCom= 1.00D+00 WtEn= 0.00D+00
 Coeff-Com: -0.113D-01 0.302D-02 0.115D+00 0.382D+00 0.511D+00
 Coeff:     -0.113D-01 0.302D-02 0.115D+00 0.382D+00 0.511D+00
 Gap=     0.229 Goal=   None    Shift=    0.000
 RMSDP=9.50D-08 MaxDP=2.24D-06 DE=-1.27D-09 OVMax= 3.73D-06

 Cycle  12  Pass 1  IDiag  1:
 RMSU=  7.31D-08    CP:  1.00D+00  5.61D-01  9.17D-01  8.28D-01  7.35D-01
 E= -874.578902675195     Delta-E=       -0.000000000226 Rises=F Damp=F
 DIIS: error= 1.42D-07 at cycle   6 NSaved=   6.
 NSaved= 6 IEnMin= 6 EnMin= -874.578902675195     IErMin= 6 ErrMin= 1.42D-07
 ErrMax= 1.42D-07  0.00D+00 EMaxC= 1.00D-01 BMatC= 1.08D-11 BMatP= 2.62D-10
 IDIUse=1 WtCom= 1.00D+00 WtEn= 0.00D+00
 Coeff-Com: -0.737D-02-0.267D-02 0.175D-01 0.878D-01 0.207D+00 0.698D+00
 Coeff:     -0.737D-02-0.267D-02 0.175D-01 0.878D-01 0.207D+00 0.698D+00
 Gap=     0.229 Goal=   None    Shift=    0.000
 RMSDP=2.85D-08 MaxDP=6.64D-07 DE=-2.26D-10 OVMax= 1.59D-06

 Cycle  13  Pass 1  IDiag  1:
 RMSU=  2.20D-08    CP:  1.00D+00  5.61D-01  9.21D-01  8.39D-01  8.08D-01
                    CP:  1.00D+00
 E= -874.578902675204     Delta-E=       -0.000000000010 Rises=F Damp=F
 DIIS: error= 8.63D-08 at cycle   7 NSaved=   7.
 NSaved= 7 IEnMin= 7 EnMin= -874.578902675204     IErMin= 7 ErrMin= 8.63D-08
 ErrMax= 8.63D-08  0.00D+00 EMaxC= 1.00D-01 BMatC= 3.22D-12 BMatP= 1.08D-11
 IDIUse=1 WtCom= 1.00D+00 WtEn= 0.00D+00
 Coeff-Com: -0.271D-02-0.190D-02-0.558D-02-0.108D-02 0.504D-01 0.398D+00
 Coeff-Com:  0.563D+00
 Coeff:     -0.271D-02-0.190D-02-0.558D-02-0.108D-02 0.504D-01 0.398D+00
 Coeff:      0.563D+00
 Gap=     0.229 Goal=   None    Shift=    0.000
 RMSDP=1.33D-08 MaxDP=4.77D-07 DE=-9.55D-12 OVMax= 7.33D-07

 Cycle  14  Pass 1  IDiag  1:
 RMSU=  8.54D-09    CP:  1.00D+00  5.62D-01  9.22D-01  8.41D-01  8.22D-01
                    CP:  1.08D+00  6.81D-01
 E= -874.578902675202     Delta-E=        0.000000000002 Rises=F Damp=F
 DIIS: error= 4.94D-08 at cycle   8 NSaved=   8.
 NSaved= 8 IEnMin= 7 EnMin= -874.578902675204     IErMin= 8 ErrMin= 4.94D-08
 ErrMax= 4.94D-08  0.00D+00 EMaxC= 1.00D-01 BMatC= 9.81D-13 BMatP= 3.22D-12
 IDIUse=1 WtCom= 1.00D+00 WtEn= 0.00D+00
 Coeff-Com: -0.361D-03-0.762D-03-0.733D-02-0.184D-01-0.570D-02 0.138D+00
 Coeff-Com:  0.391D+00 0.504D+00
 Coeff:     -0.361D-03-0.762D-03-0.733D-02-0.184D-01-0.570D-02 0.138D+00
 Coeff:      0.391D+00 0.504D+00
 Gap=     0.229 Goal=   None    Shift=    0.000
 RMSDP=5.90D-09 MaxDP=2.18D-07 DE= 2.27D-12 OVMax= 3.35D-07

 SCF Done:  E(RB3LYP) =  -874.578902675     A.U. after   14 cycles
            NFock= 14  Conv=0.59D-08     -V/T= 2.0063
 KE= 8.690769462160D+02 PE=-3.303987865389D+03 EE= 9.379093379546D+02
 Leave Link  502 at Fri Mar 14 14:22:27 2025, MaxMem=  8589934592 cpu:              96.5 elap:              13.7
 (Enter /home/enzo/gaussian_versions/gdv.j21/gdv/l701.exe)
 ... and contract with generalized density number  0.
 Compute integral first derivatives.
 Leave Link  701 at Fri Mar 14 14:22:27 2025, MaxMem=  8589934592 cpu:               1.8 elap:               0.3
 (Enter /home/enzo/gaussian_versions/gdv.j21/gdv/l702.exe)
 L702 exits ... SP integral derivatives will be done elsewhere.
 Leave Link  702 at Fri Mar 14 14:22:27 2025, MaxMem=  8589934592 cpu:               0.2 elap:               0.3
 (Enter /home/enzo/gaussian_versions/gdv.j21/gdv/l703.exe)
 Integral derivatives from FoFJK, PRISM(SPDF).
 Compute integral first derivatives, UseDBF=F ICtDFT=           0.
 Calling FoFJK, ICntrl=      2127 FMM=F ISym2X=0 I1Cent= 0 IOpClX= 0 NMat=1 NMatS=1 NMatT=0.
 FoFJK:  IHMeth= 1 ICntrl=    2127 DoSepK=F KAlg= 0 I1Cent=           0 FoldK=F
 IRaf=         0 NMat=       1 IRICut=       1 DoRegI=T DoRafI=F ISym2E= 0 IDoP0=0 IntGTp=1.
 FoFCou: FMM=F IPFlag=           0 FMFlag=      100000 FMFlg1=         800
         NFxFlg=           0 DoJE=F BraDBF=F KetDBF=F FulRan=T
         wScrn=  0.000000 ICntrl=      2127 IOpCl=  0 I1Cent=           0 NGrid=           0
         NMat0=    1 NMatS0=      1 NMatT0=    0 NMatD0=    1 NMtDS0=    0 NMtDT0=    0
 Symmetry not used in FoFCou.
 Leave Link  703 at Fri Mar 14 14:22:29 2025, MaxMem=  8589934592 cpu:              14.2 elap:               1.5
 (Enter /home/enzo/gaussian_versions/gdv.j21/gdv/l716.exe)
 Dipole        = 1.15112585D+00-7.72443189D-01-1.00115241D+00
 ***** Axes restored to original set *****
 -------------------------------------------------------------------
 Center     Atomic                   Forces (Hartrees/Bohr)
 Number     Number              X              Y              Z
 -------------------------------------------------------------------
      1        6          -0.000744070   -0.000582873   -0.000148303
      2        6          -0.001047234    0.001608321    0.000251304
      3       16          -0.000808021    0.001059318   -0.000005107
      4        6           0.001589951    0.002207535    0.009861108
      5        8           0.003757574    0.002167996   -0.006399771
      6        7          -0.002676083   -0.004683076   -0.001509508
      7        6          -0.001795764   -0.001267058   -0.000884495
      8        6           0.000202682    0.003793730   -0.004088044
      9        8           0.003593731   -0.000717739    0.002828910
     10        8           0.003865202    0.000466948    0.001914528
     11        1          -0.000469317    0.000048972    0.000239357
     12        1           0.000395095    0.000447140   -0.000006446
     13        1           0.000321054   -0.000005977   -0.000518459
     14        1           0.000203729    0.000213499   -0.000074558
     15        1           0.000410829   -0.002175953   -0.000022184
     16        1          -0.000882919   -0.001671649    0.001467132
     17        1          -0.000192367    0.000507024    0.001460247
     18        1           0.000361891   -0.001593783   -0.000759845
     19        1          -0.006085963    0.000177625   -0.003605863
 -------------------------------------------------------------------
 Cartesian Forces:  Max     0.009861108 RMS     0.002466336
 Leave Link  716 at Fri Mar 14 14:22:29 2025, MaxMem=  8589934592 cpu:               0.1 elap:               0.2
 (Enter /home/enzo/gaussian_versions/gdv.j21/gdv/l103.exe)

 GradGradGradGradGradGradGradGradGradGradGradGradGradGradGradGradGradGrad
 Berny optimization.
 Using GEDIIS/GDIIS optimizer.
 FormGI is forming the generalized inverse of G from B-inverse, IUseBI=4.
 Internal  Forces:  Max     0.007170405 RMS     0.001971622
 Search for a local minimum.
 Step number   3 out of a maximum of   93
 All quantities printed in internal units (Hartrees-Bohrs-Radians)
 RMS Force = .19716D-02 SwitMx=.10000D-02 MixMth= 1
 Mixed Optimization -- RFO/linear search
 Update second derivatives using D2CorX and points    2    3
 DE= -5.29D-03 DEPred=-4.16D-03 R= 1.27D+00
 TightC=F SS=  1.41D+00  RLast= 4.85D-01 DXNew= 8.4853D-01 1.4558D+00
 Trust test= 1.27D+00 RLast= 4.85D-01 DXMaxT set to 8.49D-01
 ITU=  1  1  0
 Use linear search instead of GDIIS.
     Eigenvalues ---    0.00220   0.00342   0.00450   0.00755   0.00864
     Eigenvalues ---    0.00978   0.01055   0.01101   0.01346   0.01881
     Eigenvalues ---    0.05119   0.05185   0.05513   0.05659   0.05747
     Eigenvalues ---    0.06702   0.07531   0.09971   0.13088   0.15968
     Eigenvalues ---    0.15997   0.16000   0.16000   0.16222   0.17131
     Eigenvalues ---    0.17295   0.19777   0.21327   0.22043   0.22425
     Eigenvalues ---    0.23650   0.24752   0.24983   0.26067   0.30013
     Eigenvalues ---    0.30611   0.31901   0.32542   0.32585   0.32608
     Eigenvalues ---    0.32628   0.32650   0.32685   0.33571   0.37074
     Eigenvalues ---    0.40436   0.41166   0.48344   0.51292   0.79823
     Eigenvalues ---    0.94753
 RFO step:  Lambda=-4.07802640D-03 EMin= 2.19605450D-03
 Quartic linear search produced a step of  0.47081.
 Iteration  1 RMS(Cart)=  0.17192131 RMS(Int)=  0.02769034
 Iteration  2 RMS(Cart)=  0.07681195 RMS(Int)=  0.00197064
 Iteration  3 RMS(Cart)=  0.00290478 RMS(Int)=  0.00062981
 Iteration  4 RMS(Cart)=  0.00000492 RMS(Int)=  0.00062981
 Iteration  5 RMS(Cart)=  0.00000000 RMS(Int)=  0.00062981
 Variable       Old X    -DE/DX   Delta X   Delta X   Delta X     New X
                                 (Linear)    (Quad)   (Total)
    R1        2.89846   0.00002   0.00145   0.00168   0.00314   2.90160
    R2        2.06476   0.00052  -0.00335  -0.00140  -0.00475   2.06001
    R3        2.06911   0.00053  -0.00302  -0.00103  -0.00405   2.06506
    R4        2.06503   0.00045  -0.00321  -0.00161  -0.00482   2.06022
    R5        3.49597   0.00087   0.00656   0.01022   0.01678   3.51275
    R6        2.88766   0.00142   0.00971   0.01280   0.02251   2.91017
    R7        2.06937  -0.00011  -0.00432  -0.00407  -0.00839   2.06099
    R8        2.54563   0.00206  -0.01304  -0.00087  -0.01391   2.53171
    R9        2.31497   0.00717  -0.00638   0.00397  -0.00241   2.31256
   R10        2.58131  -0.00201  -0.01371  -0.01895  -0.03266   2.54865
   R11        2.75097   0.00090   0.00120   0.00326   0.00446   2.75543
   R12        1.90565   0.00173  -0.00666  -0.00178  -0.00844   1.89721
   R13        2.88262   0.00353   0.01247   0.02214   0.03462   2.91724
   R14        2.06128   0.00011  -0.00329  -0.00306  -0.00635   2.05493
   R15        2.06769   0.00091  -0.00335   0.00009  -0.00326   2.06443
   R16        2.27279   0.00451  -0.01183  -0.00491  -0.01674   2.25605
   R17        2.55377   0.00180  -0.00081   0.00103   0.00022   2.55399
   R18        1.83956   0.00702  -0.00589   0.01148   0.00558   1.84514
    A1        1.92881   0.00000   0.00248   0.00224   0.00472   1.93353
    A2        1.91958   0.00033  -0.00327   0.00074  -0.00255   1.91702
    A3        1.92761  -0.00041  -0.00104  -0.00430  -0.00536   1.92225
    A4        1.89364  -0.00001   0.00209   0.00235   0.00444   1.89808
    A5        1.90455   0.00023   0.00203   0.00269   0.00473   1.90928
    A6        1.88883  -0.00014  -0.00226  -0.00372  -0.00604   1.88279
    A7        1.89333  -0.00023  -0.00937  -0.00645  -0.01581   1.87753
    A8        1.91632   0.00071  -0.00133   0.00369   0.00223   1.91854
    A9        1.91161   0.00024   0.00752   0.00949   0.01699   1.92860
   A10        1.93681  -0.00046   0.00060  -0.00265  -0.00215   1.93467
   A11        1.87559   0.00005  -0.00003  -0.00218  -0.00208   1.87351
   A12        1.92935  -0.00033   0.00264  -0.00194   0.00059   1.92994
   A13        1.68026   0.00134  -0.00282   0.01067   0.00785   1.68811
   A14        2.14558   0.00107   0.00403   0.01027   0.01418   2.15975
   A15        2.00697   0.00381  -0.01657   0.00527  -0.01143   1.99554
   A16        2.12910  -0.00485   0.01220  -0.01370  -0.00164   2.12746
   A17        2.12558  -0.00419   0.00241  -0.02166  -0.02244   2.10313
   A18        2.09036   0.00187   0.00332   0.00980   0.00979   2.10015
   A19        2.06578   0.00223  -0.00639   0.00573  -0.00379   2.06199
   A20        1.96121  -0.00149   0.00224  -0.00541  -0.00337   1.95785
   A21        1.93281  -0.00118   0.00225  -0.00657  -0.00449   1.92832
   A22        1.85954   0.00184  -0.00349   0.00661   0.00285   1.86239
   A23        1.90682   0.00277   0.00408   0.02730   0.03142   1.93825
   A24        1.89581  -0.00180  -0.00818  -0.02489  -0.03307   1.86275
   A25        1.90623  -0.00021   0.00281   0.00185   0.00491   1.91114
   A26        2.16539   0.00088   0.00404   0.00932   0.01332   2.17871
   A27        1.98950  -0.00248  -0.02455  -0.02939  -0.05398   1.93552
   A28        2.12827   0.00160   0.02049   0.02021   0.04066   2.16892
   A29        1.91547   0.00146  -0.01508  -0.00564  -0.02073   1.89474
    D1        1.03894   0.00001  -0.00095  -0.00093  -0.00194   1.03700
    D2       -3.12501  -0.00026  -0.00703  -0.00596  -0.01300  -3.13801
    D3       -1.00339  -0.00006   0.00014   0.00007   0.00028  -1.00311
    D4        3.12929   0.00021   0.00113   0.00388   0.00493   3.13422
    D5       -1.03465  -0.00006  -0.00495  -0.00115  -0.00613  -1.04078
    D6        1.08696   0.00014   0.00222   0.00488   0.00716   1.09412
    D7       -1.07025  -0.00002  -0.00443  -0.00295  -0.00743  -1.07768
    D8        1.04899  -0.00028  -0.01052  -0.00798  -0.01849   1.03050
    D9       -3.11258  -0.00009  -0.00334  -0.00195  -0.00521  -3.11778
   D10       -2.88100  -0.00043  -0.03485  -0.02141  -0.05625  -2.93726
   D11        1.29558  -0.00088  -0.02743  -0.02018  -0.04766   1.24792
   D12       -0.81570  -0.00024  -0.03100  -0.01484  -0.04579  -0.86149
   D13       -0.94834   0.00066   0.03090   0.02950   0.06033  -0.88802
   D14        2.13464   0.00095   0.02358   0.06400   0.08766   2.22230
   D15        1.14461   0.00055   0.01869   0.02218   0.04078   1.18538
   D16       -2.05559   0.00084   0.01137   0.05668   0.06811  -1.98748
   D17       -3.05930   0.00011   0.02073   0.01650   0.03718  -3.02212
   D18        0.02368   0.00040   0.01342   0.05101   0.06451   0.08820
   D19        3.07069  -0.00024  -0.03174   0.00546  -0.02587   3.04482
   D20       -0.13013  -0.00196  -0.05461  -0.11780  -0.17261  -0.30274
   D21       -0.12890   0.00026  -0.03919   0.04049   0.00150  -0.12740
   D22        2.95347  -0.00147  -0.06206  -0.08277  -0.14525   2.80822
   D23        1.62137  -0.00494  -0.08711  -0.28336  -0.37006   1.25131
   D24       -2.52398  -0.00327  -0.07868  -0.25667  -0.33497  -2.85896
   D25       -0.45289  -0.00307  -0.07614  -0.25411  -0.32984  -0.78274
   D26       -1.46180  -0.00323  -0.06461  -0.16193  -0.22692  -1.68873
   D27        0.67603  -0.00156  -0.05618  -0.13523  -0.19183   0.48419
   D28        2.74712  -0.00136  -0.05364  -0.13267  -0.18670   2.56041
   D29        2.14535  -0.00093  -0.01344  -0.03732  -0.05078   2.09457
   D30       -1.00439  -0.00068  -0.01703  -0.01736  -0.03445  -1.03885
   D31       -0.00710  -0.00040  -0.02071  -0.04489  -0.06575  -0.07284
   D32        3.12635  -0.00015  -0.02430  -0.02492  -0.04942   3.07693
   D33       -2.08498  -0.00070  -0.02171  -0.04834  -0.06980  -2.15479
   D34        1.04846  -0.00045  -0.02530  -0.02837  -0.05348   0.99499
   D35       -0.09147  -0.00041  -0.02673  -0.02032  -0.04712  -0.13859
   D36        3.04217  -0.00017  -0.03023  -0.00089  -0.03105   3.01112
         Item               Value     Threshold  Converged?
 Maximum Force            0.007170     0.000450     NO 
 RMS     Force            0.001972     0.000300     NO 
 Maximum Displacement     0.735328     0.001800     NO 
 RMS     Displacement     0.236973     0.001200     NO 
 Predicted change in Energy=-5.574944D-03
 Lowest energy point so far.  Saving SCF results.
 GradGradGradGradGradGradGradGradGradGradGradGradGradGradGradGradGradGrad

 Leave Link  103 at Fri Mar 14 14:22:29 2025, MaxMem=  8589934592 cpu:               1.9 elap:               0.4
 (Enter /home/enzo/gaussian_versions/gdv.j21/gdv/l202.exe)
                          Input orientation:                          
 ---------------------------------------------------------------------
 Center     Atomic      Atomic             Coordinates (Angstroms)
 Number     Number       Type             X           Y           Z
 ---------------------------------------------------------------------
      1          6           0       -2.007500    1.837690    0.664006
      2          6           0       -1.709007    0.332268    0.616631
      3         16           0       -3.099810   -0.486959   -0.305285
      4          6           0       -0.363050    0.086109   -0.090051
      5          8           0       -0.071929    0.557543   -1.181183
      6          7           0        0.503201   -0.671953    0.612737
      7          6           0        1.769314   -1.089353    0.022124
      8          6           0        2.763823    0.083551   -0.113403
      9          8           0        3.839030    0.129055    0.403448
     10          8           0        2.250885    1.063180   -0.890456
     11          1           0       -2.956617    2.028253    1.165211
     12          1           0       -1.213323    2.356316    1.206668
     13          1           0       -2.043548    2.245155   -0.346563
     14          1           0       -1.695426   -0.086306    1.623646
     15          1           0       -2.776578   -1.747938    0.011446
     16          1           0        0.372433   -0.809363    1.598615
     17          1           0        2.204362   -1.906452    0.592707
     18          1           0        1.545742   -1.430721   -0.991254
     19          1           0        1.418997    0.741340   -1.287631
 ---------------------------------------------------------------------
                    Distance matrix (angstroms):
                    1          2          3          4          5
     1  C    0.000000
     2  C    1.535460   0.000000
     3  S    2.745297   1.858869   0.000000
     4  C    2.518105   1.539998   2.804387   0.000000
     5  O    2.964782   2.441906   3.320579   1.223752   0.000000
     6  N    3.550290   2.429473   3.722724   1.348688   2.249574
     7  C    4.821194   3.804360   4.917158   2.437471   2.747796
     8  C    5.142654   4.538834   5.894445   3.126960   3.066970
     9  O    6.096658   5.555849   7.002091   4.231177   4.241492
    10  O    4.598919   4.299568   5.601365   2.903096   2.394922
    11  H    1.090112   2.175738   2.917045   3.474794   3.998747
    12  H    1.092782   2.165783   3.732164   2.749234   3.200031
    13  H    1.090219   2.167671   2.929477   2.747972   2.726152
    14  H    2.172570   1.090627   2.419419   2.177547   3.304141
    15  H    3.724788   2.415205   1.339726   3.033010   3.748697
    16  H    3.680281   2.569048   3.973066   2.048023   3.129403
    17  H    5.635909   4.508536   5.563775   3.320853   3.794662
    18  H    5.103717   4.035692   4.789822   2.599313   2.570238
    19  H    4.092890   3.684828   4.784698   2.244820   1.505978
                    6          7          8          9         10
     6  N    0.000000
     7  C    1.458111   0.000000
     8  C    2.491681   1.543735   0.000000
     9  O    3.437029   2.431800   1.193850   0.000000
    10  O    2.885251   2.387071   1.351514   2.251440   0.000000
    11  H    4.423425   5.775858   6.175771   7.097046   5.681127
    12  H    3.531236   4.708705   4.767152   5.579618   4.250984
    13  H    3.989450   5.078660   5.276145   6.296437   4.487207
    14  H    2.489755   3.946568   4.788642   5.671461   4.818235
    15  H    3.503747   4.593363   5.836606   6.887891   5.830196
    16  H    1.003960   2.124852   3.073605   3.785016   3.637371
    17  H    2.101984   1.087421   2.184422   2.617489   3.319737
    18  H    2.058010   1.092451   2.132454   3.104394   2.593632
    19  H    2.539189   2.278073   1.902644   3.015163   0.976405
                   11         12         13         14         15
    11  H    0.000000
    12  H    1.774378   0.000000
    13  H    1.779383   1.764697   0.000000
    14  H    2.504421   2.524420   3.072234   0.000000
    15  H    3.952620   4.551618   4.075573   2.555210   0.000000
    16  H    4.395735   3.562271   4.353247   2.190772   3.649151
    17  H    6.515011   5.498065   6.013552   4.425394   5.017246
    18  H    6.073391   5.175418   5.177904   4.376108   4.448425
    19  H    5.178665   3.969734   3.890537   4.342829   5.048460
                   16         17         18         19
    16  H    0.000000
    17  H    2.360385   0.000000
    18  H    2.910354   1.780178   0.000000
    19  H    3.439534   3.341149   2.195849   0.000000
 Stoichiometry    C5H9NO3S
 Framework group  C1[X(C5H9NO3S)]
 Deg. of freedom    51
 Full point group                 C1      NOp   1
 RotChk:  IX=2 Diff= 2.24D-02
 Largest Abelian subgroup         C1      NOp   1
 Largest concise Abelian subgroup C1      NOp   1
                         Standard orientation:                         
 ---------------------------------------------------------------------
 Center     Atomic      Atomic             Coordinates (Angstroms)
 Number     Number       Type             X           Y           Z
 ---------------------------------------------------------------------
      1          6           0        2.043231    1.643624   -0.765398
      2          6           0        1.722823    0.148033   -0.630549
      3         16           0        3.079911   -0.628276    0.374961
      4          6           0        0.357233   -0.036203    0.057065
      5          8           0        0.046949    0.506971    1.108852
      6          7           0       -0.502589   -0.826497   -0.617548
      7          6           0       -1.787997   -1.189957   -0.032987
      8          6           0       -2.769051    0.001382    0.003938
      9          8           0       -3.830992    0.027341   -0.540933
     10          8           0       -2.261089    1.021853    0.730025
     11          1           0        3.006496    1.790304   -1.254220
     12          1           0        1.269396    2.136610   -1.358960
     13          1           0        2.061010    2.113814    0.218057
     14          1           0        1.727264   -0.333295   -1.609207
     15          1           0        2.746785   -1.902695    0.130523
     16          1           0       -0.350450   -1.027693   -1.589304
     17          1           0       -2.220727   -2.036121   -0.561415
     18          1           0       -1.593229   -1.469180    1.005065
     19          1           0       -1.443382    0.715561    1.166954
 ---------------------------------------------------------------------
 Rotational constants (GHZ):           2.7727725           0.5364077           0.5088651
 Leave Link  202 at Fri Mar 14 14:22:30 2025, MaxMem=  8589934592 cpu:               0.4 elap:               0.2
 (Enter /home/enzo/gaussian_versions/gdv.j21/gdv/l301.exe)
 Standard basis: 6-31G(d) (6D, 7F)
 Ernie: Thresh=  0.10000D-02 Tol=  0.10000D-05 Strict=F.
 There are   172 symmetry adapted cartesian basis functions of A   symmetry.
 There are   172 symmetry adapted basis functions of A   symmetry.
   172 basis functions,   340 primitive gaussians,   172 cartesian basis functions
    43 alpha electrons       43 beta electrons
       nuclear repulsion energy       632.4161793438 Hartrees.
 IExCor=      4002 DFT=T Ex+Corr=B3LYP ScaHFX=  0.200000
 ScaDFX=  0.800000  0.720000  1.000000  0.810000  1.000000  0.000000
 ScaDFX=  0.000000  0.000000  0.000000  0.000000  0.000000  0.000000
 IRadAn=      5 IRanWt=     -1 IRanGd=            0 ICorTp=0 IEmpDi=  4
 NAtoms=   19 NActive=   19 NUniq=   19 SFac= 1.00D+00 NAtFMM=   60 NAOKFM=F Big=F
 Integral buffers will be    131072 words long.
 Raffenetti 2 integral format.
 Two-electron integral symmetry is turned on.
 Leave Link  301 at Fri Mar 14 14:22:30 2025, MaxMem=  8589934592 cpu:               1.2 elap:               0.3
 (Enter /home/enzo/gaussian_versions/gdv.j21/gdv/l302.exe)
 NPDir=0 NMtPBC=     1 NCelOv=     1 NCel=       1 NClECP=     1 NCelD=      1
         NCelK=      1 NCelE2=     1 NClLst=     1 CellRange=     0.0.
 One-electron integrals computed using PRISM.
 One-electron integral symmetry used in STVInt
 NBasis=   172 RedAO= T EigKep=  2.65D-03  NBF=   172
 NBsUse=   172 1.00D-06 EigRej= -1.00D+00 NBFU=   172
 Precomputing XC quadrature grid using
 IXCGrd= 4 IRadAn=           5 IRanWt=          -1 IRanGd=           0 AccXCQ= 0.00D+00.
 Generated NRdTot=       0 NPtTot=      406496 NUsed=           0 NTot=          64
 NSgBfM=   171   171   171   171   171 MxSgAt=    19 MxSgA2=    19 SizInc=   0.000
 NMBTot=     3431 MaxBatPerAtom=       85 MaxMicBPerAtom=      204 NBfPt=            52673407.
 Leave Link  302 at Fri Mar 14 14:22:31 2025, MaxMem=  8589934592 cpu:               4.5 elap:               0.8
 (Enter /home/enzo/gaussian_versions/gdv.j21/gdv/l303.exe)
 DipDrv:  MaxL=1.
 Leave Link  303 at Fri Mar 14 14:22:31 2025, MaxMem=  8589934592 cpu:               0.6 elap:               0.4
 (Enter /home/enzo/gaussian_versions/gdv.j21/gdv/l401.exe)
 Initial guess from the checkpoint file:  "/local/home/enzo/scratch/Gau-2271009.chk"
 B after Tr=     0.000000   -0.000000   -0.000000
         Rot=    0.999938    0.008990    0.004092    0.005204 Ang=   1.28 deg.
 AO Guess basis will be translated and rotated to current coordinates.
 JPrj=2 DoOrth=T DoCkMO=T.
 Generating alternative initial guess.
 ExpMin= 1.17D-01 ExpMax= 2.19D+04 ExpMxC= 3.30D+03 IAcc=3 IRadAn=         5 AccDes= 0.00D+00
 Harris functional with IExCor= 4002 and IRadAn=       5 diagonalized for initial guess.
 HarFok:  IExCor=    4002 AccDes= 0.00D+00 IRadAn=         5 IDoV= 1 UseB2=F ITyADJ=14 ICtDFT=  3500011
 FoFCou: FMM=F IPFlag=           0 FMFlag=      100000 FMFlg1=           0
         NFxFlg=           0 DoJE=T BraDBF=F KetDBF=T FulRan=T
         wScrn=  0.000000 ICntrl=       500 IOpCl=  0 I1Cent=   200000004 NGrid=           0
         NMat0=    1 NMatS0=      1 NMatT0=    0 NMatD0=    1 NMtDS0=    0 NMtDT0=    0
 Petite list used in FoFCou.
 Harris En= -874.536902430137    
 Leave Link  401 at Fri Mar 14 14:22:33 2025, MaxMem=  8589934592 cpu:              10.7 elap:               1.7
 (Enter /home/enzo/gaussian_versions/gdv.j21/gdv/l502.exe)
 Integral symmetry usage will be decided dynamically.
 Closed shell SCF:
 Using DIIS extrapolation, IDIIS=  1040.
 NGot=  8589934592 LenX=  8589843591 LenY=  8589813566
 Requested convergence on RMS density matrix=1.00D-08 within 128 cycles.
 Requested convergence on MAX density matrix=1.00D-06.
 Requested convergence on             energy=1.00D-06.
 No special actions if energy rises.
 Fock matrices will be formed incrementally for  20 cycles.
 Integral accuracy reduced to 1.0D-05 until final iterations.

 Cycle   1  Pass 0  IDiag  1:
 FoFJK:  IHMeth= 1 ICntrl=       0 DoSepK=F KAlg= 0 I1Cent=           0 FoldK=F
 IRaf= 920000000 NMat=       1 IRICut=       1 DoRegI=T DoRafI=F ISym2E= 0 IDoP0=0 IntGTp=1.
 FoFCou: FMM=F IPFlag=           0 FMFlag=      100000 FMFlg1=           0
         NFxFlg=           0 DoJE=F BraDBF=F KetDBF=F FulRan=T
         wScrn=  0.000000 ICntrl=         0 IOpCl=  0 I1Cent=           0 NGrid=           0
         NMat0=    1 NMatS0=      1 NMatT0=    0 NMatD0=    1 NMtDS0=    0 NMtDT0=    0
 Symmetry not used in FoFCou.
 E= -874.453724748187    
 DIIS: error= 1.06D-02 at cycle   1 NSaved=   1.
 NSaved= 1 IEnMin= 1 EnMin= -874.453724748187     IErMin= 1 ErrMin= 1.06D-02
 ErrMax= 1.06D-02  0.00D+00 EMaxC= 1.00D-01 BMatC= 6.74D-02 BMatP= 6.74D-02
 IDIUse=3 WtCom= 8.94D-01 WtEn= 1.06D-01
 Coeff-Com:  0.100D+01
 Coeff-En:   0.100D+01
 Coeff:      0.100D+01
 Recover alternate guess density for next cycle.
 RMSDP=4.20D-03 MaxDP=8.39D-02              OVMax= 0.00D+00

 Cycle   2  Pass 0  IDiag  1:
 RMSU=  4.19D-03    CP:  9.90D-01
 E= -874.300371688588     Delta-E=        0.153353059599 Rises=F Damp=F
 Switch densities from cycles 1 and 2 for lowest energy.
 DIIS: error= 3.18D-02 at cycle   2 NSaved=   2.
 NSaved= 2 IEnMin= 1 EnMin= -874.453724748187     IErMin= 1 ErrMin= 1.06D-02
 ErrMax= 3.18D-02  0.00D+00 EMaxC= 1.00D+00 BMatC= 3.33D-01 BMatP= 6.74D-02
 IDIUse=1 WtCom= 1.00D+00 WtEn= 0.00D+00
 Coeff-Com:  0.846D+00 0.154D+00
 Coeff:      0.846D+00 0.154D+00
 Gap=     0.240 Goal=   None    Shift=    0.000
 RMSDP=2.86D-03 MaxDP=5.29D-02 DE= 1.53D-01 OVMax= 1.12D-01

 Cycle   3  Pass 0  IDiag  1:
 RMSU=  2.43D-03    CP:  9.92D-01  3.56D-01
 E= -874.554357101415     Delta-E=       -0.253985412827 Rises=F Damp=F
 DIIS: error= 6.72D-03 at cycle   3 NSaved=   3.
 NSaved= 3 IEnMin= 3 EnMin= -874.554357101415     IErMin= 3 ErrMin= 6.72D-03
 ErrMax= 6.72D-03  0.00D+00 EMaxC= 1.00D+00 BMatC= 2.24D-02 BMatP= 6.74D-02
 IDIUse=1 WtCom= 1.00D+00 WtEn= 0.00D+00
 Coeff-Com:  0.168D-01 0.191D+00 0.792D+00
 Coeff:      0.168D-01 0.191D+00 0.792D+00
 Gap=     0.224 Goal=   None    Shift=    0.000
 RMSDP=8.36D-04 MaxDP=2.30D-02 DE=-2.54D-01 OVMax= 3.26D-02

 Cycle   4  Pass 0  IDiag  1:
 RMSU=  5.44D-04    CP:  9.91D-01  4.79D-01  8.49D-01
 E= -874.569315607948     Delta-E=       -0.014958506533 Rises=F Damp=F
 DIIS: error= 3.22D-03 at cycle   4 NSaved=   4.
 NSaved= 4 IEnMin= 4 EnMin= -874.569315607948     IErMin= 4 ErrMin= 3.22D-03
 ErrMax= 3.22D-03  0.00D+00 EMaxC= 1.00D+00 BMatC= 2.94D-03 BMatP= 2.24D-02
 IDIUse=1 WtCom= 1.00D+00 WtEn= 0.00D+00
 Coeff-Com: -0.216D-01 0.804D-01 0.406D+00 0.536D+00
 Coeff:     -0.216D-01 0.804D-01 0.406D+00 0.536D+00
 Gap=     0.227 Goal=   None    Shift=    0.000
 RMSDP=3.18D-04 MaxDP=9.55D-03 DE=-1.50D-02 OVMax= 1.07D-02

 Cycle   5  Pass 0  IDiag  1:
 RMSU=  1.92D-04    CP:  9.91D-01  4.84D-01  8.69D-01  5.45D-01
 E= -874.571490914444     Delta-E=       -0.002175306496 Rises=F Damp=F
 DIIS: error= 7.33D-04 at cycle   5 NSaved=   5.
 NSaved= 5 IEnMin= 5 EnMin= -874.571490914444     IErMin= 5 ErrMin= 7.33D-04
 ErrMax= 7.33D-04  0.00D+00 EMaxC= 1.00D+00 BMatC= 2.98D-04 BMatP= 2.94D-03
 IDIUse=1 WtCom= 1.00D+00 WtEn= 0.00D+00
 Coeff-Com: -0.853D-02 0.154D-01 0.105D+00 0.278D+00 0.610D+00
 Coeff:     -0.853D-02 0.154D-01 0.105D+00 0.278D+00 0.610D+00
 Gap=     0.226 Goal=   None    Shift=    0.000
 RMSDP=1.15D-04 MaxDP=3.05D-03 DE=-2.18D-03 OVMax= 5.14D-03

 Cycle   6  Pass 0  IDiag  1:
 RMSU=  6.99D-05    CP:  9.91D-01  4.85D-01  8.70D-01  6.16D-01  5.72D-01
 E= -874.571702904811     Delta-E=       -0.000211990367 Rises=F Damp=F
 DIIS: error= 4.69D-04 at cycle   6 NSaved=   6.
 NSaved= 6 IEnMin= 6 EnMin= -874.571702904811     IErMin= 6 ErrMin= 4.69D-04
 ErrMax= 4.69D-04  0.00D+00 EMaxC= 1.00D+00 BMatC= 5.42D-05 BMatP= 2.98D-04
 IDIUse=1 WtCom= 1.00D+00 WtEn= 0.00D+00
 Coeff-Com: -0.309D-02 0.334D-02 0.316D-01 0.129D+00 0.377D+00 0.462D+00
 Coeff:     -0.309D-02 0.334D-02 0.316D-01 0.129D+00 0.377D+00 0.462D+00
 Gap=     0.226 Goal=   None    Shift=    0.000
 RMSDP=4.36D-05 MaxDP=1.29D-03 DE=-2.12D-04 OVMax= 2.12D-03

 Cycle   7  Pass 0  IDiag  1:
 RMSU=  2.43D-05    CP:  9.91D-01  4.84D-01  8.72D-01  6.17D-01  6.54D-01
                    CP:  5.40D-01
 E= -874.571743519026     Delta-E=       -0.000040614215 Rises=F Damp=F
 DIIS: error= 1.05D-04 at cycle   7 NSaved=   7.
 NSaved= 7 IEnMin= 7 EnMin= -874.571743519026     IErMin= 7 ErrMin= 1.05D-04
 ErrMax= 1.05D-04  0.00D+00 EMaxC= 1.00D+00 BMatC= 5.44D-06 BMatP= 5.42D-05
 IDIUse=1 WtCom= 1.00D+00 WtEn= 0.00D+00
 Coeff-Com: -0.997D-03 0.456D-03 0.834D-02 0.497D-01 0.167D+00 0.285D+00
 Coeff-Com:  0.491D+00
 Coeff:     -0.997D-03 0.456D-03 0.834D-02 0.497D-01 0.167D+00 0.285D+00
 Coeff:      0.491D+00
 Gap=     0.226 Goal=   None    Shift=    0.000
 RMSDP=1.37D-05 MaxDP=4.04D-04 DE=-4.06D-05 OVMax= 5.90D-04

 Cycle   8  Pass 0  IDiag  1:
 RMSU=  7.36D-06    CP:  9.91D-01  4.84D-01  8.72D-01  6.23D-01  6.62D-01
                    CP:  5.83D-01  5.75D-01
 E= -874.571747655453     Delta-E=       -0.000004136427 Rises=F Damp=F
 DIIS: error= 2.17D-05 at cycle   8 NSaved=   8.
 NSaved= 8 IEnMin= 8 EnMin= -874.571747655453     IErMin= 8 ErrMin= 2.17D-05
 ErrMax= 2.17D-05  0.00D+00 EMaxC= 1.00D+00 BMatC= 2.44D-07 BMatP= 5.44D-06
 IDIUse=1 WtCom= 1.00D+00 WtEn= 0.00D+00
 Coeff-Com: -0.201D-03-0.185D-03 0.653D-03 0.114D-01 0.443D-01 0.935D-01
 Coeff-Com:  0.238D+00 0.612D+00
 Coeff:     -0.201D-03-0.185D-03 0.653D-03 0.114D-01 0.443D-01 0.935D-01
 Coeff:      0.238D+00 0.612D+00
 Gap=     0.226 Goal=   None    Shift=    0.000
 RMSDP=2.94D-06 MaxDP=7.78D-05 DE=-4.14D-06 OVMax= 9.59D-05

 Initial convergence to 1.0D-05 achieved.  Increase integral accuracy.
 Cycle   9  Pass 1  IDiag  1:
 E= -874.571741683815     Delta-E=        0.000005971638 Rises=F Damp=F
 DIIS: error= 8.63D-06 at cycle   1 NSaved=   1.
 NSaved= 1 IEnMin= 1 EnMin= -874.571741683815     IErMin= 1 ErrMin= 8.63D-06
 ErrMax= 8.63D-06  0.00D+00 EMaxC= 1.00D+00 BMatC= 3.48D-08 BMatP= 3.48D-08
 IDIUse=1 WtCom= 1.00D+00 WtEn= 0.00D+00
 Coeff-Com:  0.100D+01
 Coeff:      0.100D+01
 Gap=     0.226 Goal=   None    Shift=    0.000
 RMSDP=2.94D-06 MaxDP=7.78D-05 DE= 5.97D-06 OVMax= 6.46D-05

 Cycle  10  Pass 1  IDiag  1:
 RMSU=  3.72D-06    CP:  1.00D+00
 E= -874.571741685722     Delta-E=       -0.000000001907 Rises=F Damp=F
 DIIS: error= 8.35D-06 at cycle   2 NSaved=   2.
 NSaved= 2 IEnMin= 2 EnMin= -874.571741685722     IErMin= 2 ErrMin= 8.35D-06
 ErrMax= 8.35D-06  0.00D+00 EMaxC= 1.00D+00 BMatC= 3.65D-08 BMatP= 3.48D-08
 IDIUse=1 WtCom= 1.00D+00 WtEn= 0.00D+00
 Coeff-Com:  0.507D+00 0.493D+00
 Coeff:      0.507D+00 0.493D+00
 Gap=     0.226 Goal=   None    Shift=    0.000
 RMSDP=1.10D-06 MaxDP=4.20D-05 DE=-1.91D-09 OVMax= 3.88D-05

 Cycle  11  Pass 1  IDiag  1:
 RMSU=  1.03D-06    CP:  1.00D+00  8.92D-01
 E= -874.571741713546     Delta-E=       -0.000000027825 Rises=F Damp=F
 DIIS: error= 2.14D-06 at cycle   3 NSaved=   3.
 NSaved= 3 IEnMin= 3 EnMin= -874.571741713546     IErMin= 3 ErrMin= 2.14D-06
 ErrMax= 2.14D-06  0.00D+00 EMaxC= 1.00D+00 BMatC= 3.13D-09 BMatP= 3.48D-08
 IDIUse=1 WtCom= 1.00D+00 WtEn= 0.00D+00
 Coeff-Com:  0.561D-01 0.229D+00 0.715D+00
 Coeff:      0.561D-01 0.229D+00 0.715D+00
 Gap=     0.226 Goal=   None    Shift=    0.000
 RMSDP=3.81D-07 MaxDP=1.10D-05 DE=-2.78D-08 OVMax= 1.97D-05

 Cycle  12  Pass 1  IDiag  1:
 RMSU=  2.96D-07    CP:  1.00D+00  9.24D-01  7.98D-01
 E= -874.571741715343     Delta-E=       -0.000000001797 Rises=F Damp=F
 DIIS: error= 1.83D-06 at cycle   4 NSaved=   4.
 NSaved= 4 IEnMin= 4 EnMin= -874.571741715343     IErMin= 4 ErrMin= 1.83D-06
 ErrMax= 1.83D-06  0.00D+00 EMaxC= 1.00D+00 BMatC= 9.94D-10 BMatP= 3.13D-09
 IDIUse=1 WtCom= 1.00D+00 WtEn= 0.00D+00
 Coeff-Com: -0.294D-02 0.110D+00 0.469D+00 0.423D+00
 Coeff:     -0.294D-02 0.110D+00 0.469D+00 0.423D+00
 Gap=     0.226 Goal=   None    Shift=    0.000
 RMSDP=1.67D-07 MaxDP=6.54D-06 DE=-1.80D-09 OVMax= 1.02D-05

 Cycle  13  Pass 1  IDiag  1:
 RMSU=  8.78D-08    CP:  1.00D+00  9.28D-01  8.35D-01  5.42D-01
 E= -874.571741716116     Delta-E=       -0.000000000773 Rises=F Damp=F
 DIIS: error= 4.62D-07 at cycle   5 NSaved=   5.
 NSaved= 5 IEnMin= 5 EnMin= -874.571741716116     IErMin= 5 ErrMin= 4.62D-07
 ErrMax= 4.62D-07  0.00D+00 EMaxC= 1.00D+00 BMatC= 4.86D-11 BMatP= 9.94D-10
 IDIUse=1 WtCom= 1.00D+00 WtEn= 0.00D+00
 Coeff-Com: -0.571D-02 0.514D-01 0.238D+00 0.255D+00 0.461D+00
 Coeff:     -0.571D-02 0.514D-01 0.238D+00 0.255D+00 0.461D+00
 Gap=     0.226 Goal=   None    Shift=    0.000
 RMSDP=3.93D-08 MaxDP=1.15D-06 DE=-7.73D-10 OVMax= 2.11D-06

 Cycle  14  Pass 1  IDiag  1:
 RMSU=  3.18D-08    CP:  1.00D+00  9.29D-01  8.34D-01  5.55D-01  7.46D-01
 E= -874.571741716148     Delta-E=       -0.000000000032 Rises=F Damp=F
 DIIS: error= 7.37D-08 at cycle   6 NSaved=   6.
 NSaved= 6 IEnMin= 6 EnMin= -874.571741716148     IErMin= 6 ErrMin= 7.37D-08
 ErrMax= 7.37D-08  0.00D+00 EMaxC= 1.00D+00 BMatC= 2.11D-12 BMatP= 4.86D-11
 IDIUse=1 WtCom= 1.00D+00 WtEn= 0.00D+00
 Coeff-Com: -0.213D-02 0.820D-02 0.440D-01 0.549D-01 0.191D+00 0.704D+00
 Coeff:     -0.213D-02 0.820D-02 0.440D-01 0.549D-01 0.191D+00 0.704D+00
 Gap=     0.226 Goal=   None    Shift=    0.000
 RMSDP=1.29D-08 MaxDP=2.85D-07 DE=-3.23D-11 OVMax= 5.61D-07

 Cycle  15  Pass 1  IDiag  1:
 RMSU=  1.16D-08    CP:  1.00D+00  9.30D-01  8.34D-01  5.58D-01  8.03D-01
                    CP:  9.87D-01
 E= -874.571741716148     Delta-E=        0.000000000000 Rises=F Damp=F
 DIIS: error= 2.52D-08 at cycle   7 NSaved=   7.
 NSaved= 7 IEnMin= 6 EnMin= -874.571741716148     IErMin= 7 ErrMin= 2.52D-08
 ErrMax= 2.52D-08  0.00D+00 EMaxC= 1.00D+00 BMatC= 3.29D-13 BMatP= 2.11D-12
 IDIUse=1 WtCom= 1.00D+00 WtEn= 0.00D+00
 Coeff-Com:  0.146D-03-0.558D-02-0.233D-01-0.235D-01-0.695D-02 0.303D+00
 Coeff-Com:  0.756D+00
 Coeff:      0.146D-03-0.558D-02-0.233D-01-0.235D-01-0.695D-02 0.303D+00
 Coeff:      0.756D+00
 Gap=     0.226 Goal=   None    Shift=    0.000
 RMSDP=6.15D-09 MaxDP=1.18D-07 DE= 0.00D+00 OVMax= 3.33D-07

 SCF Done:  E(RB3LYP) =  -874.571741716     A.U. after   15 cycles
            NFock= 15  Conv=0.61D-08     -V/T= 2.0061
 KE= 8.692745423043D+02 PE=-3.324165957383D+03 EE= 9.479034940189D+02
 Leave Link  502 at Fri Mar 14 14:22:45 2025, MaxMem=  8589934592 cpu:              91.9 elap:              11.8
 (Enter /home/enzo/gaussian_versions/gdv.j21/gdv/l701.exe)
 ... and contract with generalized density number  0.
 Compute integral first derivatives.
 Leave Link  701 at Fri Mar 14 14:22:45 2025, MaxMem=  8589934592 cpu:               1.6 elap:               0.4
 (Enter /home/enzo/gaussian_versions/gdv.j21/gdv/l702.exe)
 L702 exits ... SP integral derivatives will be done elsewhere.
 Leave Link  702 at Fri Mar 14 14:22:45 2025, MaxMem=  8589934592 cpu:               0.2 elap:               0.2
 (Enter /home/enzo/gaussian_versions/gdv.j21/gdv/l703.exe)
 Integral derivatives from FoFJK, PRISM(SPDF).
 Compute integral first derivatives, UseDBF=F ICtDFT=           0.
 Calling FoFJK, ICntrl=      2127 FMM=F ISym2X=0 I1Cent= 0 IOpClX= 0 NMat=1 NMatS=1 NMatT=0.
 FoFJK:  IHMeth= 1 ICntrl=    2127 DoSepK=F KAlg= 0 I1Cent=           0 FoldK=F
 IRaf=         0 NMat=       1 IRICut=       1 DoRegI=T DoRafI=F ISym2E= 0 IDoP0=0 IntGTp=1.
 FoFCou: FMM=F IPFlag=           0 FMFlag=      100000 FMFlg1=         800
         NFxFlg=           0 DoJE=F BraDBF=F KetDBF=F FulRan=T
         wScrn=  0.000000 ICntrl=      2127 IOpCl=  0 I1Cent=           0 NGrid=           0
         NMat0=    1 NMatS0=      1 NMatT0=    0 NMatD0=    1 NMtDS0=    0 NMtDT0=    0
 Symmetry not used in FoFCou.
 Leave Link  703 at Fri Mar 14 14:22:48 2025, MaxMem=  8589934592 cpu:              16.6 elap:               2.1
 (Enter /home/enzo/gaussian_versions/gdv.j21/gdv/l716.exe)
 Dipole        = 1.40637582D+00-1.27919207D+00-1.07673902D+00
 ***** Axes restored to original set *****
 -------------------------------------------------------------------
 Center     Atomic                   Forces (Hartrees/Bohr)
 Number     Number              X              Y              Z
 -------------------------------------------------------------------
      1        6           0.001611496   -0.003105062    0.000417901
      2        6          -0.000053745    0.005624365   -0.009850436
      3       16           0.000579623    0.005293266   -0.000047289
      4        6          -0.014210332   -0.000061899    0.023758477
      5        8          -0.024937919   -0.002900787   -0.020559970
      6        7           0.007477354   -0.007519030   -0.002517994
      7        6           0.004777136    0.002631680   -0.002305799
      8        6          -0.023232777    0.007138615   -0.016157440
      9        8           0.018299101    0.000013530    0.010841668
     10        8           0.042882783    0.000383742    0.011945987
     11        1          -0.001835842    0.000213413    0.000885330
     12        1           0.001052846    0.001215677    0.001092077
     13        1          -0.000232931    0.000823567   -0.001923327
     14        1           0.001165039   -0.000306407    0.002085502
     15        1           0.001665106   -0.005745879    0.001010590
     16        1          -0.003366848   -0.002674467    0.004922609
     17        1           0.000336439   -0.000166773    0.002304183
     18        1           0.000155888   -0.005198576   -0.001459150
     19        1          -0.012132416    0.004341023   -0.004442921
 -------------------------------------------------------------------
 Cartesian Forces:  Max     0.042882783 RMS     0.010041000
 Leave Link  716 at Fri Mar 14 14:22:48 2025, MaxMem=  8589934592 cpu:               0.2 elap:               0.2
 (Enter /home/enzo/gaussian_versions/gdv.j21/gdv/l103.exe)

 GradGradGradGradGradGradGradGradGradGradGradGradGradGradGradGradGradGrad
 Berny optimization.
 Using GEDIIS/GDIIS optimizer.
 FormGI is forming the generalized inverse of G from B-inverse, IUseBI=4.
 Internal  Forces:  Max     0.059393879 RMS     0.016446900
 Search for a local minimum.
 Step number   4 out of a maximum of   93
 All quantities printed in internal units (Hartrees-Bohrs-Radians)
 RMS Force = .16447D-01 SwitMx=.10000D-02 MixMth= 1
 Mixed Optimization -- RFO/linear search
 Update second derivatives using D2CorX and points    2    4    3
 DE=  7.16D-03 DEPred=-5.57D-03 R=-1.28D+00
 Trust test=-1.28D+00 RLast= 7.74D-01 DXMaxT set to 4.24D-01
 ITU= -1  1  1  0
 Use linear search instead of GDIIS.
     Eigenvalues ---    0.00228   0.00449   0.00696   0.00817   0.00922
     Eigenvalues ---    0.01068   0.01107   0.01276   0.01859   0.02329
     Eigenvalues ---    0.05100   0.05604   0.05638   0.05785   0.05856
     Eigenvalues ---    0.07369   0.07575   0.09945   0.13047   0.15767
     Eigenvalues ---    0.15990   0.16000   0.16000   0.16132   0.17101
     Eigenvalues ---    0.17299   0.19639   0.21703   0.22224   0.23505
     Eigenvalues ---    0.24571   0.24983   0.26008   0.29686   0.30005
     Eigenvalues ---    0.30235   0.32342   0.32581   0.32597   0.32608
     Eigenvalues ---    0.32627   0.32649   0.33340   0.36584   0.39943
     Eigenvalues ---    0.41144   0.47559   0.50199   0.72447   0.79956
     Eigenvalues ---    0.91573
 RFO step:  Lambda=-1.40637297D-02 EMin= 2.28228582D-03
 Quartic linear search produced a step of -0.57782.
 Iteration  1 RMS(Cart)=  0.16347384 RMS(Int)=  0.00827607
 Iteration  2 RMS(Cart)=  0.01424593 RMS(Int)=  0.00085688
 Iteration  3 RMS(Cart)=  0.00011735 RMS(Int)=  0.00085596
 Iteration  4 RMS(Cart)=  0.00000007 RMS(Int)=  0.00085596
 Variable       Old X    -DE/DX   Delta X   Delta X   Delta X     New X
                                 (Linear)    (Quad)   (Total)
    R1        2.90160  -0.00094  -0.00181   0.00122  -0.00059   2.90101
    R2        2.06001   0.00204   0.00274  -0.00098   0.00176   2.06178
    R3        2.06506   0.00188   0.00234  -0.00067   0.00168   2.06673
    R4        2.06022   0.00210   0.00278  -0.00105   0.00174   2.06195
    R5        3.51275  -0.00196  -0.00970   0.00925  -0.00045   3.51231
    R6        2.91017  -0.00572  -0.01301   0.00898  -0.00402   2.90615
    R7        2.06099   0.00206   0.00485  -0.00330   0.00154   2.06253
    R8        2.53171   0.00605   0.00804  -0.00041   0.00763   2.53934
    R9        2.31256   0.01128   0.00139   0.00443   0.00583   2.31838
   R10        2.54865   0.02483   0.01887  -0.00295   0.01593   2.56458
   R11        2.75543   0.02408  -0.00258   0.02168   0.01910   2.77453
   R12        1.89721   0.00564   0.00488  -0.00056   0.00431   1.90152
   R13        2.91724   0.02546  -0.02000   0.04452   0.02452   2.94176
   R14        2.05493   0.00147   0.00367  -0.00278   0.00089   2.05581
   R15        2.06443   0.00295   0.00188   0.00097   0.00285   2.06729
   R16        2.25605   0.02118   0.00967  -0.00064   0.00904   2.26509
   R17        2.55399  -0.01256  -0.00013  -0.00790  -0.00803   2.54596
   R18        1.84514   0.01071  -0.00323   0.01246   0.00924   1.85438
    A1        1.93353  -0.00040  -0.00273   0.00289   0.00016   1.93369
    A2        1.91702   0.00067   0.00148   0.00014   0.00163   1.91865
    A3        1.92225   0.00008   0.00310  -0.00413  -0.00102   1.92123
    A4        1.89808  -0.00019  -0.00257   0.00307   0.00050   1.89858
    A5        1.90928  -0.00002  -0.00273   0.00341   0.00068   1.90996
    A6        1.88279  -0.00014   0.00349  -0.00550  -0.00199   1.88081
    A7        1.87753   0.00117   0.00913  -0.00790   0.00123   1.87875
    A8        1.91854   0.00153  -0.00129   0.00427   0.00303   1.92158
    A9        1.92860  -0.00055  -0.00981   0.01258   0.00278   1.93137
   A10        1.93467  -0.00170   0.00124  -0.00527  -0.00402   1.93065
   A11        1.87351   0.00030   0.00120  -0.00231  -0.00117   1.87234
   A12        1.92994  -0.00074  -0.00034  -0.00159  -0.00189   1.92805
   A13        1.68811   0.00020  -0.00453   0.00908   0.00455   1.69265
   A14        2.15975  -0.02176  -0.00819  -0.01367  -0.02367   2.13609
   A15        1.99554  -0.00795   0.00660  -0.01260  -0.00793   1.98760
   A16        2.12746   0.02994   0.00095   0.02994   0.02881   2.15627
   A17        2.10313   0.05627   0.01297   0.05471   0.06926   2.17239
   A18        2.10015  -0.02494  -0.00565  -0.02405  -0.02806   2.07208
   A19        2.06199  -0.02881   0.00219  -0.03922  -0.03548   2.02651
   A20        1.95785   0.05686   0.00194   0.07330   0.07393   2.03178
   A21        1.92832  -0.02109   0.00259  -0.05154  -0.04771   1.88061
   A22        1.86239  -0.01018  -0.00165   0.01616   0.01115   1.87354
   A23        1.93825  -0.03201  -0.01816  -0.04596  -0.06283   1.87542
   A24        1.86275   0.00304   0.01911   0.01857   0.03494   1.89769
   A25        1.91114   0.00450  -0.00284  -0.00667  -0.00914   1.90200
   A26        2.17871  -0.03139  -0.00770  -0.02585  -0.03359   2.14512
   A27        1.93552   0.05939   0.03119   0.03369   0.06484   2.00036
   A28        2.16892  -0.02799  -0.02349  -0.00775  -0.03129   2.13764
   A29        1.89474   0.01342   0.01198   0.00696   0.01894   1.91368
    D1        1.03700   0.00030   0.00112  -0.00601  -0.00487   1.03213
    D2       -3.13801  -0.00016   0.00751  -0.01475  -0.00722   3.13796
    D3       -1.00311  -0.00044  -0.00016  -0.00551  -0.00570  -1.00881
    D4        3.13422   0.00024  -0.00285  -0.00026  -0.00308   3.13114
    D5       -1.04078  -0.00021   0.00354  -0.00899  -0.00544  -1.04621
    D6        1.09412  -0.00049  -0.00414   0.00024  -0.00392   1.09020
    D7       -1.07768   0.00053   0.00429  -0.00945  -0.00515  -1.08283
    D8        1.03050   0.00007   0.01068  -0.01819  -0.00750   1.02300
    D9       -3.11778  -0.00020   0.00301  -0.00895  -0.00598  -3.12377
   D10       -2.93726   0.00010   0.03250  -0.09913  -0.06663  -3.00388
   D11        1.24792  -0.00150   0.02754  -0.09629  -0.06873   1.17919
   D12       -0.86149   0.00023   0.02646  -0.08977  -0.06333  -0.92483
   D13       -0.88802  -0.00424  -0.03486   0.03563   0.00162  -0.88640
   D14        2.22230   0.00445  -0.05065   0.16777   0.11627   2.33857
   D15        1.18538  -0.00288  -0.02356   0.02527   0.00255   1.18794
   D16       -1.98748   0.00581  -0.03935   0.15740   0.11720  -1.87028
   D17       -3.02212  -0.00407  -0.02148   0.01799  -0.00265  -3.02477
   D18        0.08820   0.00461  -0.03728   0.15012   0.11200   0.20019
   D19        3.04482   0.00172   0.01495  -0.02529  -0.01172   3.03310
   D20       -0.30274   0.01262   0.09974  -0.07856   0.02019  -0.28255
   D21       -0.12740   0.00921  -0.00087   0.10327   0.10339  -0.02402
   D22        2.80822   0.02011   0.08393   0.05000   0.13530   2.94352
   D23        1.25131   0.03339   0.21383  -0.16985   0.04452   1.29583
   D24       -2.85896   0.01746   0.19355  -0.21480  -0.02169  -2.88064
   D25       -0.78274   0.00524   0.19059  -0.24156  -0.05170  -0.83444
   D26       -1.68873   0.02256   0.13112  -0.11916   0.01292  -1.67581
   D27        0.48419   0.00664   0.11084  -0.16412  -0.05329   0.43090
   D28        2.56041  -0.00559   0.10788  -0.19087  -0.08331   2.47710
   D29        2.09457  -0.00979   0.02934  -0.11873  -0.09073   2.00384
   D30       -1.03885  -0.01197   0.01991  -0.13027  -0.11165  -1.15049
   D31       -0.07284  -0.00022   0.03799  -0.07094  -0.03279  -0.10564
   D32        3.07693  -0.00240   0.02856  -0.08248  -0.05371   3.02321
   D33       -2.15479   0.01043   0.04033  -0.04845  -0.00702  -2.16181
   D34        0.99499   0.00825   0.03090  -0.05999  -0.02794   0.96704
   D35       -0.13859   0.00479   0.02723  -0.00510   0.02221  -0.11639
   D36        3.01112   0.00265   0.01794  -0.01646   0.00140   3.01253
         Item               Value     Threshold  Converged?
 Maximum Force            0.059394     0.000450     NO 
 RMS     Force            0.016447     0.000300     NO 
 Maximum Displacement     0.727520     0.001800     NO 
 RMS     Displacement     0.170012     0.001200     NO 
 Predicted change in Energy=-9.416000D-03
 GradGradGradGradGradGradGradGradGradGradGradGradGradGradGradGradGradGrad

 Leave Link  103 at Fri Mar 14 14:22:48 2025, MaxMem=  8589934592 cpu:               1.5 elap:               0.4
 (Enter /home/enzo/gaussian_versions/gdv.j21/gdv/l202.exe)
                          Input orientation:                          
 ---------------------------------------------------------------------
 Center     Atomic      Atomic             Coordinates (Angstroms)
 Number     Number       Type             X           Y           Z
 ---------------------------------------------------------------------
      1          6           0       -2.141530    1.848299    0.679105
      2          6           0       -1.746816    0.364826    0.665629
      3         16           0       -3.118030   -0.575472   -0.165110
      4          6           0       -0.423328    0.177015   -0.094729
      5          8           0       -0.238297    0.639241   -1.215995
      6          7           0        0.467271   -0.624760    0.542262
      7          6           0        1.745409   -1.066042   -0.029840
      8          6           0        2.877421    0.000224   -0.100383
      9          8           0        3.894984   -0.087889    0.526929
     10          8           0        2.629910    1.026833   -0.937003
     11          1           0       -3.081748    1.994073    1.213073
     12          1           0       -1.362188    2.436987    1.171227
     13          1           0       -2.243045    2.218209   -0.342387
     14          1           0       -1.660217   -0.019867    1.683353
     15          1           0       -2.654174   -1.808560    0.099513
     16          1           0        0.327247   -0.822938    1.518809
     17          1           0        2.112356   -1.891923    0.575779
     18          1           0        1.541792   -1.429635   -1.041320
     19          1           0        1.803983    0.852797   -1.437498
 ---------------------------------------------------------------------
                    Distance matrix (angstroms):
                    1          2          3          4          5
     1  C    0.000000
     2  C    1.535146   0.000000
     3  S    2.746073   1.858633   0.000000
     4  C    2.518776   1.537869   2.798680   0.000000
     5  O    2.945425   2.427230   3.297385   1.226836   0.000000
     6  N    3.597303   2.428308   3.654749   1.357117   2.277497
     7  C    4.909612   3.837538   4.889989   2.500564   2.872289
     8  C    5.404891   4.701412   6.023375   3.305484   3.370553
     9  O    6.341253   5.661634   7.063924   4.370863   4.544283
    10  O    5.104239   4.707698   6.016811   3.279310   2.907693
    11  H    1.091045   2.176278   2.916036   3.475521   3.977582
    12  H    1.093669   2.167353   3.734124   2.755282   3.192781
    13  H    1.091139   2.167342   2.932862   2.745757   2.697286
    14  H    2.174908   1.091444   2.418829   2.174911   3.295831
    15  H    3.737827   2.422270   1.343761   2.992810   3.682221
    16  H    3.733025   2.537802   3.842754   2.041268   3.152295
    17  H    5.665288   4.471488   5.444162   3.340626   3.891377
    18  H    5.222220   4.116881   4.817809   2.709069   2.734863
    19  H    4.586732   4.155651   5.280638   2.687122   2.065328
                    6          7          8          9         10
     6  N    0.000000
     7  C    1.468219   0.000000
     8  C    2.571462   1.556712   0.000000
     9  O    3.469536   2.426406   1.198632   0.000000
    10  O    3.097255   2.446511   1.347264   2.232961   0.000000
    11  H    4.461368   5.848981   6.419680   7.313012   6.179111
    12  H    3.621714   4.834350   5.052632   5.867536   4.729695
    13  H    4.026275   5.176076   5.585445   6.614318   5.051598
    14  H    2.488813   3.953202   4.875682   5.674698   5.134885
    15  H    3.367615   4.463675   5.823247   6.784900   6.085669
    16  H    1.006244   2.113906   3.130937   3.775297   3.841214
    17  H    2.076808   1.087890   2.150056   2.536668   3.327989
    18  H    2.076090   1.093961   2.171121   3.130048   2.688702
    19  H    2.808812   2.380520   1.914948   3.019296   0.981295
                   11         12         13         14         15
    11  H    0.000000
    12  H    1.776178   0.000000
    13  H    1.781323   1.764879   0.000000
    14  H    2.509556   2.527296   3.074459   0.000000
    15  H    3.985330   4.565355   4.071753   2.587648   0.000000
    16  H    4.432863   3.688105   4.395342   2.149887   3.445972
    17  H    6.518116   5.582695   6.058526   4.354725   4.790991
    18  H    6.179093   5.317822   5.302855   4.434428   4.364770
    19  H    5.674364   4.397698   4.409315   4.743622   5.414831
                   16         17         18         19
    16  H    0.000000
    17  H    2.284436   0.000000
    18  H    2.897837   1.776024   0.000000
    19  H    3.705211   3.417875   2.331351   0.000000
 Stoichiometry    C5H9NO3S
 Framework group  C1[X(C5H9NO3S)]
 Deg. of freedom    51
 Full point group                 C1      NOp   1
 RotChk:  IX=2 Diff= 8.98D-02
 Largest Abelian subgroup         C1      NOp   1
 Largest concise Abelian subgroup C1      NOp   1
                         Standard orientation:                         
 ---------------------------------------------------------------------
 Center     Atomic      Atomic             Coordinates (Angstroms)
 Number     Number       Type             X           Y           Z
 ---------------------------------------------------------------------
      1          6           0        2.211099    1.612429   -0.813440
      2          6           0        1.783022    0.148980   -0.635288
      3         16           0        3.097215   -0.704769    0.363975
      4          6           0        0.425283    0.079296    0.083553
      5          8           0        0.204349    0.679677    1.130384
      6          7           0       -0.455895   -0.779694   -0.488660
      7          6           0       -1.766211   -1.124915    0.076638
      8          6           0       -2.875996   -0.038872   -0.034001
      9          8           0       -3.868406   -0.186408   -0.689800
     10          8           0       -2.640426    1.078886    0.680313
     11          1           0        3.175667    1.674955   -1.319482
     12          1           0        1.466208    2.149034   -1.407834
     13          1           0        2.278458    2.103975    0.158378
     14          1           0        1.730075   -0.357024   -1.600900
     15          1           0        2.617209   -1.952982    0.232629
     16          1           0       -0.279998   -1.099433   -1.426398
     17          1           0       -2.126160   -2.012915   -0.438529
     18          1           0       -1.612885   -1.364125    1.133057
     19          1           0       -1.840058    0.953928    1.234149
 ---------------------------------------------------------------------
 Rotational constants (GHZ):           2.6769739           0.5042504           0.4782203
 Leave Link  202 at Fri Mar 14 14:22:49 2025, MaxMem=  8589934592 cpu:               0.8 elap:               0.3
 (Enter /home/enzo/gaussian_versions/gdv.j21/gdv/l301.exe)
 Standard basis: 6-31G(d) (6D, 7F)
 Ernie: Thresh=  0.10000D-02 Tol=  0.10000D-05 Strict=F.
 There are   172 symmetry adapted cartesian basis functions of A   symmetry.
 There are   172 symmetry adapted basis functions of A   symmetry.
   172 basis functions,   340 primitive gaussians,   172 cartesian basis functions
    43 alpha electrons       43 beta electrons
       nuclear repulsion energy       620.1520263630 Hartrees.
 IExCor=      4002 DFT=T Ex+Corr=B3LYP ScaHFX=  0.200000
 ScaDFX=  0.800000  0.720000  1.000000  0.810000  1.000000  0.000000
 ScaDFX=  0.000000  0.000000  0.000000  0.000000  0.000000  0.000000
 IRadAn=      5 IRanWt=     -1 IRanGd=            0 ICorTp=0 IEmpDi=  4
 NAtoms=   19 NActive=   19 NUniq=   19 SFac= 1.00D+00 NAtFMM=   60 NAOKFM=F Big=F
 Integral buffers will be    131072 words long.
 Raffenetti 2 integral format.
 Two-electron integral symmetry is turned on.
 Leave Link  301 at Fri Mar 14 14:22:49 2025, MaxMem=  8589934592 cpu:               0.2 elap:               0.2
 (Enter /home/enzo/gaussian_versions/gdv.j21/gdv/l302.exe)
 NPDir=0 NMtPBC=     1 NCelOv=     1 NCel=       1 NClECP=     1 NCelD=      1
         NCelK=      1 NCelE2=     1 NClLst=     1 CellRange=     0.0.
 One-electron integrals computed using PRISM.
 One-electron integral symmetry used in STVInt
 NBasis=   172 RedAO= T EigKep=  2.61D-03  NBF=   172
 NBsUse=   172 1.00D-06 EigRej= -1.00D+00 NBFU=   172
 Precomputing XC quadrature grid using
 IXCGrd= 4 IRadAn=           5 IRanWt=          -1 IRanGd=           0 AccXCQ= 0.00D+00.
 Generated NRdTot=       0 NPtTot=      407289 NUsed=           0 NTot=          64
 NSgBfM=   171   171   171   171   171 MxSgAt=    19 MxSgA2=    19 SizInc=   0.000
 NMBTot=     3479 MaxBatPerAtom=       85 MaxMicBPerAtom=      209 NBfPt=            51811571.
 Leave Link  302 at Fri Mar 14 14:22:50 2025, MaxMem=  8589934592 cpu:               4.3 elap:               0.9
 (Enter /home/enzo/gaussian_versions/gdv.j21/gdv/l303.exe)
 DipDrv:  MaxL=1.
 Leave Link  303 at Fri Mar 14 14:22:50 2025, MaxMem=  8589934592 cpu:               0.5 elap:               0.3
 (Enter /home/enzo/gaussian_versions/gdv.j21/gdv/l401.exe)
 Lowest energy guess from the checkpoint file:  "/local/home/enzo/scratch/Gau-2271009.chk"
 B after Tr=     0.000000   -0.000000   -0.000000
         Rot=    0.999228    0.038352    0.007826    0.003496 Ang=   4.50 deg.
 AO Guess basis will be translated and rotated to current coordinates.
 B after Tr=     0.000000   -0.000000   -0.000000
         Rot=    0.999575    0.028638    0.005370   -0.000835 Ang=   3.34 deg.
 AO Guess basis will be translated and rotated to current coordinates.
 CkInt1:  FT= 4.22D-01
 Max alpha theta=  7.723 degrees.
 JPrj=2 DoOrth=T DoCkMO=T.
 Leave Link  401 at Fri Mar 14 14:22:50 2025, MaxMem=  8589934592 cpu:               3.3 elap:               0.5
 (Enter /home/enzo/gaussian_versions/gdv.j21/gdv/l502.exe)
 Integral symmetry usage will be decided dynamically.
 Closed shell SCF:
 Using DIIS extrapolation, IDIIS=  1040.
 NGot=  8589934592 LenX=  8589843591 LenY=  8589813566
 Requested convergence on RMS density matrix=1.00D-08 within 128 cycles.
 Requested convergence on MAX density matrix=1.00D-06.
 Requested convergence on             energy=1.00D-06.
 No special actions if energy rises.
 Fock matrices will be formed incrementally for  20 cycles.
 Integral accuracy reduced to 1.0D-05 until final iterations.

 Cycle   1  Pass 0  IDiag  1:
 FoFJK:  IHMeth= 1 ICntrl=       0 DoSepK=F KAlg= 0 I1Cent=           0 FoldK=F
 IRaf= 910000000 NMat=       1 IRICut=       1 DoRegI=T DoRafI=F ISym2E= 0 IDoP0=0 IntGTp=1.
 FoFCou: FMM=F IPFlag=           0 FMFlag=      100000 FMFlg1=           0
         NFxFlg=           0 DoJE=F BraDBF=F KetDBF=F FulRan=T
         wScrn=  0.000000 ICntrl=         0 IOpCl=  0 I1Cent=           0 NGrid=           0
         NMat0=    1 NMatS0=      1 NMatT0=    0 NMatD0=    1 NMtDS0=    0 NMtDT0=    0
 Symmetry not used in FoFCou.
 E= -874.528167184214    
 DIIS: error= 6.70D-03 at cycle   1 NSaved=   1.
 NSaved= 1 IEnMin= 1 EnMin= -874.528167184214     IErMin= 1 ErrMin= 6.70D-03
 ErrMax= 6.70D-03  0.00D+00 EMaxC= 1.00D-01 BMatC= 2.52D-02 BMatP= 2.52D-02
 IDIUse=3 WtCom= 9.33D-01 WtEn= 6.70D-02
 Coeff-Com:  0.100D+01
 Coeff-En:   0.100D+01
 Coeff:      0.100D+01
 Gap=    87.860 Goal=   None    Shift=    0.000
 GapD=   87.860 DampG=2.000 DampE=1.000 DampFc=2.0000 IDamp=-1.
 RMSDP=1.82D-03 MaxDP=3.58D-02              OVMax= 5.54D-02

 Cycle   2  Pass 0  IDiag  1:
 RMSU=  1.82D-03    CP:  9.98D-01
 E= -874.577132211187     Delta-E=       -0.048965026974 Rises=F Damp=F
 DIIS: error= 2.13D-03 at cycle   2 NSaved=   2.
 NSaved= 2 IEnMin= 2 EnMin= -874.577132211187     IErMin= 2 ErrMin= 2.13D-03
 ErrMax= 2.13D-03  0.00D+00 EMaxC= 1.00D-01 BMatC= 1.76D-03 BMatP= 2.52D-02
 IDIUse=3 WtCom= 9.79D-01 WtEn= 2.13D-02
 Coeff-Com:  0.304D-01 0.970D+00
 Coeff-En:   0.000D+00 0.100D+01
 Coeff:      0.297D-01 0.970D+00
 Gap=     0.226 Goal=   None    Shift=    0.000
 RMSDP=5.61D-04 MaxDP=1.98D-02 DE=-4.90D-02 OVMax= 2.41D-02

 Cycle   3  Pass 0  IDiag  1:
 RMSU=  5.60D-04    CP:  9.96D-01  1.01D+00
 E= -874.575448339755     Delta-E=        0.001683871432 Rises=F Damp=F
 DIIS: error= 3.82D-03 at cycle   3 NSaved=   3.
 NSaved= 3 IEnMin= 2 EnMin= -874.577132211187     IErMin= 2 ErrMin= 2.13D-03
 ErrMax= 3.82D-03  0.00D+00 EMaxC= 1.00D-01 BMatC= 4.52D-03 BMatP= 1.76D-03
 IDIUse=3 WtCom= 1.39D-01 WtEn= 8.61D-01
 Coeff-Com: -0.441D-01 0.650D+00 0.395D+00
 Coeff-En:   0.000D+00 0.657D+00 0.343D+00
 Coeff:     -0.614D-02 0.656D+00 0.350D+00
 Gap=     0.226 Goal=   None    Shift=    0.000
 RMSDP=3.46D-04 MaxDP=1.31D-02 DE= 1.68D-03 OVMax= 1.69D-02

 Cycle   4  Pass 0  IDiag  1:
 RMSU=  1.33D-04    CP:  9.97D-01  1.06D+00  4.52D-01
 E= -874.578844772992     Delta-E=       -0.003396433237 Rises=F Damp=F
 DIIS: error= 4.06D-04 at cycle   4 NSaved=   4.
 NSaved= 4 IEnMin= 4 EnMin= -874.578844772992     IErMin= 4 ErrMin= 4.06D-04
 ErrMax= 4.06D-04  0.00D+00 EMaxC= 1.00D-01 BMatC= 8.28D-05 BMatP= 1.76D-03
 IDIUse=3 WtCom= 9.96D-01 WtEn= 4.06D-03
 Coeff-Com: -0.253D-01 0.261D+00 0.168D+00 0.596D+00
 Coeff-En:   0.000D+00 0.000D+00 0.000D+00 0.100D+01
 Coeff:     -0.252D-01 0.260D+00 0.167D+00 0.598D+00
 Gap=     0.227 Goal=   None    Shift=    0.000
 RMSDP=6.61D-05 MaxDP=1.82D-03 DE=-3.40D-03 OVMax= 2.64D-03

 Cycle   5  Pass 0  IDiag  1:
 RMSU=  5.26D-05    CP:  9.97D-01  1.07D+00  4.71D-01  7.38D-01
 E= -874.578902038308     Delta-E=       -0.000057265316 Rises=F Damp=F
 DIIS: error= 1.99D-04 at cycle   5 NSaved=   5.
 NSaved= 5 IEnMin= 5 EnMin= -874.578902038308     IErMin= 5 ErrMin= 1.99D-04
 ErrMax= 1.99D-04  0.00D+00 EMaxC= 1.00D-01 BMatC= 2.02D-05 BMatP= 8.28D-05
 IDIUse=3 WtCom= 9.98D-01 WtEn= 1.99D-03
 Coeff-Com: -0.858D-02 0.742D-01 0.497D-01 0.349D+00 0.536D+00
 Coeff-En:   0.000D+00 0.000D+00 0.000D+00 0.155D+00 0.845D+00
 Coeff:     -0.856D-02 0.741D-01 0.496D-01 0.348D+00 0.537D+00
 Gap=     0.227 Goal=   None    Shift=    0.000
 RMSDP=2.38D-05 MaxDP=7.58D-04 DE=-5.73D-05 OVMax= 9.89D-04

 Cycle   6  Pass 0  IDiag  1:
 RMSU=  1.61D-05    CP:  9.97D-01  1.07D+00  4.64D-01  8.26D-01  7.76D-01
 E= -874.578918002179     Delta-E=       -0.000015963871 Rises=F Damp=F
 DIIS: error= 4.90D-05 at cycle   6 NSaved=   6.
 NSaved= 6 IEnMin= 6 EnMin= -874.578918002179     IErMin= 6 ErrMin= 4.90D-05
 ErrMax= 4.90D-05  0.00D+00 EMaxC= 1.00D-01 BMatC= 1.01D-06 BMatP= 2.02D-05
 IDIUse=1 WtCom= 1.00D+00 WtEn= 0.00D+00
 Coeff-Com: -0.829D-03 0.145D-02 0.247D-02 0.777D-01 0.229D+00 0.690D+00
 Coeff:     -0.829D-03 0.145D-02 0.247D-02 0.777D-01 0.229D+00 0.690D+00
 Gap=     0.227 Goal=   None    Shift=    0.000
 RMSDP=7.90D-06 MaxDP=1.98D-04 DE=-1.60D-05 OVMax= 3.62D-04

 Initial convergence to 1.0D-05 achieved.  Increase integral accuracy.
 Cycle   7  Pass 1  IDiag  1:
 E= -874.578921813352     Delta-E=       -0.000003811173 Rises=F Damp=F
 DIIS: error= 1.66D-05 at cycle   1 NSaved=   1.
 NSaved= 1 IEnMin= 1 EnMin= -874.578921813352     IErMin= 1 ErrMin= 1.66D-05
 ErrMax= 1.66D-05  0.00D+00 EMaxC= 1.00D-01 BMatC= 1.88D-07 BMatP= 1.88D-07
 IDIUse=1 WtCom= 1.00D+00 WtEn= 0.00D+00
 Coeff-Com:  0.100D+01
 Coeff:      0.100D+01
 Gap=     0.227 Goal=   None    Shift=    0.000
 RMSDP=7.90D-06 MaxDP=1.98D-04 DE=-3.81D-06 OVMax= 2.72D-04

 Cycle   8  Pass 1  IDiag  1:
 RMSU=  6.15D-06    CP:  1.00D+00
 E= -874.578921652035     Delta-E=        0.000000161317 Rises=F Damp=F
 DIIS: error= 3.50D-05 at cycle   2 NSaved=   2.
 NSaved= 2 IEnMin= 1 EnMin= -874.578921813352     IErMin= 1 ErrMin= 1.66D-05
 ErrMax= 3.50D-05  0.00D+00 EMaxC= 1.00D-01 BMatC= 4.17D-07 BMatP= 1.88D-07
 IDIUse=1 WtCom= 1.00D+00 WtEn= 0.00D+00
 Coeff-Com:  0.603D+00 0.397D+00
 Coeff:      0.603D+00 0.397D+00
 Gap=     0.227 Goal=   None    Shift=    0.000
 RMSDP=3.45D-06 MaxDP=1.12D-04 DE= 1.61D-07 OVMax= 2.03D-04

 Cycle   9  Pass 1  IDiag  1:
 RMSU=  1.94D-06    CP:  1.00D+00  5.36D-01
 E= -874.578921982079     Delta-E=       -0.000000330044 Rises=F Damp=F
 DIIS: error= 6.10D-06 at cycle   3 NSaved=   3.
 NSaved= 3 IEnMin= 3 EnMin= -874.578921982079     IErMin= 3 ErrMin= 6.10D-06
 ErrMax= 6.10D-06  0.00D+00 EMaxC= 1.00D-01 BMatC= 1.51D-08 BMatP= 1.88D-07
 IDIUse=1 WtCom= 1.00D+00 WtEn= 0.00D+00
 Coeff-Com:  0.271D+00 0.219D+00 0.510D+00
 Coeff:      0.271D+00 0.219D+00 0.510D+00
 Gap=     0.227 Goal=   None    Shift=    0.000
 RMSDP=8.52D-07 MaxDP=2.79D-05 DE=-3.30D-07 OVMax= 5.54D-05

 Cycle  10  Pass 1  IDiag  1:
 RMSU=  7.99D-07    CP:  1.00D+00  5.40D-01  8.50D-01
 E= -874.578921992278     Delta-E=       -0.000000010199 Rises=F Damp=F
 DIIS: error= 2.43D-06 at cycle   4 NSaved=   4.
 NSaved= 4 IEnMin= 4 EnMin= -874.578921992278     IErMin= 4 ErrMin= 2.43D-06
 ErrMax= 2.43D-06  0.00D+00 EMaxC= 1.00D-01 BMatC= 2.62D-09 BMatP= 1.51D-08
 IDIUse=1 WtCom= 1.00D+00 WtEn= 0.00D+00
 Coeff-Com:  0.262D-01 0.426D-01 0.311D+00 0.620D+00
 Coeff:      0.262D-01 0.426D-01 0.311D+00 0.620D+00
 Gap=     0.227 Goal=   None    Shift=    0.000
 RMSDP=3.25D-07 MaxDP=1.32D-05 DE=-1.02D-08 OVMax= 1.38D-05

 Cycle  11  Pass 1  IDiag  1:
 RMSU=  1.86D-07    CP:  1.00D+00  5.55D-01  9.19D-01  7.38D-01
 E= -874.578921994366     Delta-E=       -0.000000002088 Rises=F Damp=F
 DIIS: error= 8.09D-07 at cycle   5 NSaved=   5.
 NSaved= 5 IEnMin= 5 EnMin= -874.578921994366     IErMin= 5 ErrMin= 8.09D-07
 ErrMax= 8.09D-07  0.00D+00 EMaxC= 1.00D-01 BMatC= 3.37D-10 BMatP= 2.62D-09
 IDIUse=1 WtCom= 1.00D+00 WtEn= 0.00D+00
 Coeff-Com: -0.120D-01 0.357D-02 0.135D+00 0.363D+00 0.510D+00
 Coeff:     -0.120D-01 0.357D-02 0.135D+00 0.363D+00 0.510D+00
 Gap=     0.227 Goal=   None    Shift=    0.000
 RMSDP=9.24D-08 MaxDP=3.23D-06 DE=-2.09D-09 OVMax= 4.11D-06

 Cycle  12  Pass 1  IDiag  1:
 RMSU=  7.62D-08    CP:  1.00D+00  5.59D-01  9.26D-01  7.64D-01  7.87D-01
 E= -874.578921994630     Delta-E=       -0.000000000264 Rises=F Damp=F
 DIIS: error= 1.85D-07 at cycle   6 NSaved=   6.
 NSaved= 6 IEnMin= 6 EnMin= -874.578921994630     IErMin= 6 ErrMin= 1.85D-07
 ErrMax= 1.85D-07  0.00D+00 EMaxC= 1.00D-01 BMatC= 1.15D-11 BMatP= 3.37D-10
 IDIUse=1 WtCom= 1.00D+00 WtEn= 0.00D+00
 Coeff-Com: -0.732D-02-0.365D-02 0.116D-01 0.539D-01 0.181D+00 0.765D+00
 Coeff:     -0.732D-02-0.365D-02 0.116D-01 0.539D-01 0.181D+00 0.765D+00
 Gap=     0.227 Goal=   None    Shift=    0.000
 RMSDP=3.09D-08 MaxDP=6.16D-07 DE=-2.64D-10 OVMax= 2.12D-06

 Cycle  13  Pass 1  IDiag  1:
 RMSU=  2.26D-08    CP:  1.00D+00  5.59D-01  9.31D-01  7.80D-01  8.61D-01
                    CP:  1.03D+00
 E= -874.578921994636     Delta-E=       -0.000000000006 Rises=F Damp=F
 DIIS: error= 4.68D-08 at cycle   7 NSaved=   7.
 NSaved= 7 IEnMin= 7 EnMin= -874.578921994636     IErMin= 7 ErrMin= 4.68D-08
 ErrMax= 4.68D-08  0.00D+00 EMaxC= 1.00D-01 BMatC= 1.84D-12 BMatP= 1.15D-11
 IDIUse=1 WtCom= 1.00D+00 WtEn= 0.00D+00
 Coeff-Com: -0.209D-02-0.187D-02-0.697D-02-0.953D-02 0.344D-01 0.346D+00
 Coeff-Com:  0.640D+00
 Coeff:     -0.209D-02-0.187D-02-0.697D-02-0.953D-02 0.344D-01 0.346D+00
 Coeff:      0.640D+00
 Gap=     0.227 Goal=   None    Shift=    0.000
 RMSDP=1.27D-08 MaxDP=3.42D-07 DE=-6.37D-12 OVMax= 6.17D-07

 Cycle  14  Pass 1  IDiag  1:
 RMSU=  7.94D-09    CP:  1.00D+00  5.60D-01  9.32D-01  7.80D-01  8.83D-01
                    CP:  1.09D+00  7.10D-01
 E= -874.578921994637     Delta-E=       -0.000000000001 Rises=F Damp=F
 DIIS: error= 4.11D-08 at cycle   8 NSaved=   8.
 NSaved= 8 IEnMin= 8 EnMin= -874.578921994637     IErMin= 8 ErrMin= 4.11D-08
 ErrMax= 4.11D-08  0.00D+00 EMaxC= 1.00D-01 BMatC= 5.43D-13 BMatP= 1.84D-12
 IDIUse=1 WtCom= 1.00D+00 WtEn= 0.00D+00
 Coeff-Com: -0.893D-04-0.566D-03-0.639D-02-0.152D-01-0.883D-02 0.874D-01
 Coeff-Com:  0.393D+00 0.551D+00
 Coeff:     -0.893D-04-0.566D-03-0.639D-02-0.152D-01-0.883D-02 0.874D-01
 Coeff:      0.393D+00 0.551D+00
 Gap=     0.227 Goal=   None    Shift=    0.000
 RMSDP=5.21D-09 MaxDP=1.81D-07 DE=-6.82D-13 OVMax= 2.58D-07

 SCF Done:  E(RB3LYP) =  -874.578921995     A.U. after   14 cycles
            NFock= 14  Conv=0.52D-08     -V/T= 2.0064
 KE= 8.690083538624D+02 PE=-3.299495188823D+03 EE= 9.357558866028D+02
 Leave Link  502 at Fri Mar 14 14:23:03 2025, MaxMem=  8589934592 cpu:              93.0 elap:              12.5
 (Enter /home/enzo/gaussian_versions/gdv.j21/gdv/l701.exe)
 ... and contract with generalized density number  0.
 Compute integral first derivatives.
 Leave Link  701 at Fri Mar 14 14:23:03 2025, MaxMem=  8589934592 cpu:               1.6 elap:               0.3
 (Enter /home/enzo/gaussian_versions/gdv.j21/gdv/l702.exe)
 L702 exits ... SP integral derivatives will be done elsewhere.
 Leave Link  702 at Fri Mar 14 14:23:04 2025, MaxMem=  8589934592 cpu:               0.7 elap:               0.3
 (Enter /home/enzo/gaussian_versions/gdv.j21/gdv/l703.exe)
 Integral derivatives from FoFJK, PRISM(SPDF).
 Compute integral first derivatives, UseDBF=F ICtDFT=           0.
 Calling FoFJK, ICntrl=      2127 FMM=F ISym2X=0 I1Cent= 0 IOpClX= 0 NMat=1 NMatS=1 NMatT=0.
 FoFJK:  IHMeth= 1 ICntrl=    2127 DoSepK=F KAlg= 0 I1Cent=           0 FoldK=F
 IRaf=         0 NMat=       1 IRICut=       1 DoRegI=T DoRafI=F ISym2E= 0 IDoP0=0 IntGTp=1.
 FoFCou: FMM=F IPFlag=           0 FMFlag=      100000 FMFlg1=         800
         NFxFlg=           0 DoJE=F BraDBF=F KetDBF=F FulRan=T
         wScrn=  0.000000 ICntrl=      2127 IOpCl=  0 I1Cent=           0 NGrid=           0
         NMat0=    1 NMatS0=      1 NMatT0=    0 NMatD0=    1 NMtDS0=    0 NMtDT0=    0
 Symmetry not used in FoFCou.
 Leave Link  703 at Fri Mar 14 14:23:06 2025, MaxMem=  8589934592 cpu:              15.5 elap:               2.1
 (Enter /home/enzo/gaussian_versions/gdv.j21/gdv/l716.exe)
 Dipole        = 1.06772145D+00-1.08509491D+00-7.80554767D-01
 ***** Axes restored to original set *****
 -------------------------------------------------------------------
 Center     Atomic                   Forces (Hartrees/Bohr)
 Number     Number              X              Y              Z
 -------------------------------------------------------------------
      1        6           0.001142401   -0.002942630    0.000454341
      2        6           0.000170982    0.005562921   -0.004795272
      3       16           0.000179833    0.003859504    0.000255250
      4        6          -0.010554024   -0.006105994   -0.000419266
      5        8           0.008020383    0.001550077   -0.003205149
      6        7           0.013593345   -0.000834834    0.001023878
      7        6          -0.001265048    0.004072557   -0.001555912
      8        6          -0.016615669   -0.001358642   -0.006062687
      9        8           0.008575885   -0.000488836    0.006883860
     10        8           0.001313751   -0.003133740   -0.002723676
     11        1          -0.001314736    0.000352989    0.000729407
     12        1           0.000543099    0.000713929    0.001088886
     13        1          -0.000258306    0.000195770   -0.001368480
     14        1           0.000126262    0.000789091    0.002430678
     15        1           0.001786086   -0.003466260    0.000638069
     16        1          -0.001796317   -0.000785011    0.003381460
     17        1           0.000951543   -0.001183863    0.000338098
     18        1           0.000561433   -0.001194607   -0.001700658
     19        1          -0.005160902    0.004397578    0.004607174
 -------------------------------------------------------------------
 Cartesian Forces:  Max     0.016615669 RMS     0.004362878
 Leave Link  716 at Fri Mar 14 14:23:06 2025, MaxMem=  8589934592 cpu:               0.2 elap:               0.2
 (Enter /home/enzo/gaussian_versions/gdv.j21/gdv/l103.exe)

 GradGradGradGradGradGradGradGradGradGradGradGradGradGradGradGradGradGrad
 Berny optimization.
 Using GEDIIS/GDIIS optimizer.
 FormGI is forming the generalized inverse of G from B-inverse, IUseBI=4.
 Internal  Forces:  Max     0.020765552 RMS     0.004745987
 Search for a local minimum.
 Step number   5 out of a maximum of   93
 All quantities printed in internal units (Hartrees-Bohrs-Radians)
 RMS Force = .47460D-02 SwitMx=.10000D-02 MixMth= 1
 Mixed Optimization -- RFO/linear search
 Update second derivatives using D2CorX and points    4    3    5
 DE= -1.93D-05 DEPred=-9.42D-03 R= 2.05D-03
 Trust test= 2.05D-03 RLast= 9.20D-01 DXMaxT set to 2.12D-01
 ITU= -1 -1  1  1  0
 Use linear search instead of GDIIS.
     Eigenvalues ---    0.00227   0.00448   0.00571   0.00882   0.00998
     Eigenvalues ---    0.01091   0.01137   0.01244   0.01602   0.03096
     Eigenvalues ---    0.05072   0.05598   0.05634   0.05786   0.05873
     Eigenvalues ---    0.06875   0.07620   0.10583   0.13834   0.15847
     Eigenvalues ---    0.15990   0.16000   0.16001   0.16168   0.17127
     Eigenvalues ---    0.17310   0.19603   0.21683   0.22249   0.24000
     Eigenvalues ---    0.24573   0.25009   0.26051   0.29467   0.30018
     Eigenvalues ---    0.30148   0.32346   0.32581   0.32600   0.32608
     Eigenvalues ---    0.32627   0.32648   0.33255   0.36545   0.40339
     Eigenvalues ---    0.41374   0.47372   0.50098   0.79796   0.87020
     Eigenvalues ---    0.98152
 RFO step:  Lambda=-2.56669967D-03 EMin= 2.26585677D-03
 Quartic linear search produced a step of -0.48329.
 Iteration  1 RMS(Cart)=  0.12955310 RMS(Int)=  0.00600086
 Iteration  2 RMS(Cart)=  0.01024274 RMS(Int)=  0.00029956
 Iteration  3 RMS(Cart)=  0.00010026 RMS(Int)=  0.00029147
 Iteration  4 RMS(Cart)=  0.00000002 RMS(Int)=  0.00029147
 Variable       Old X    -DE/DX   Delta X   Delta X   Delta X     New X
                                 (Linear)    (Quad)   (Total)
    R1        2.90101  -0.00164  -0.00123  -0.00125  -0.00249   2.89852
    R2        2.06178   0.00154   0.00144   0.00112   0.00256   2.06434
    R3        2.06673   0.00126   0.00115   0.00101   0.00216   2.06890
    R4        2.06195   0.00137   0.00149   0.00089   0.00238   2.06434
    R5        3.51231  -0.00205  -0.00789   0.00365  -0.00425   3.50806
    R6        2.90615  -0.00171  -0.00893   0.00538  -0.00355   2.90260
    R7        2.06253   0.00200   0.00331  -0.00024   0.00307   2.06560
    R8        2.53934   0.00392   0.00304   0.00610   0.00914   2.54848
    R9        2.31838   0.00472  -0.00165   0.00599   0.00434   2.32272
   R10        2.56458   0.00237   0.00809  -0.00149   0.00660   2.57118
   R11        2.77453  -0.01038  -0.01139   0.00290  -0.00849   2.76605
   R12        1.90152   0.00369   0.00200   0.00327   0.00527   1.90680
   R13        2.94176  -0.00917  -0.02858   0.01937  -0.00921   2.93254
   R14        2.05581   0.00141   0.00264  -0.00021   0.00243   2.05824
   R15        2.06729   0.00186   0.00019   0.00281   0.00301   2.07029
   R16        2.26509   0.01092   0.00372   0.00482   0.00854   2.27363
   R17        2.54596   0.00050   0.00377  -0.00281   0.00097   2.54693
   R18        1.85438   0.00121  -0.00716   0.01049   0.00333   1.85771
    A1        1.93369   0.00014  -0.00236   0.00217  -0.00019   1.93351
    A2        1.91865   0.00026   0.00045   0.00063   0.00109   1.91974
    A3        1.92123  -0.00036   0.00308  -0.00367  -0.00058   1.92065
    A4        1.89858  -0.00033  -0.00239   0.00115  -0.00124   1.89734
    A5        1.90996   0.00000  -0.00261   0.00222  -0.00040   1.90956
    A6        1.88081   0.00028   0.00388  -0.00255   0.00135   1.88215
    A7        1.87875   0.00075   0.00705  -0.00404   0.00299   1.88174
    A8        1.92158   0.00156  -0.00254   0.00669   0.00420   1.92578
    A9        1.93137  -0.00134  -0.00955   0.00500  -0.00454   1.92684
   A10        1.93065  -0.00156   0.00298  -0.00584  -0.00287   1.92779
   A11        1.87234   0.00036   0.00157  -0.00161  -0.00007   1.87227
   A12        1.92805   0.00017   0.00063  -0.00054   0.00017   1.92821
   A13        1.69265  -0.00083  -0.00599   0.00417  -0.00182   1.69084
   A14        2.13609   0.00326   0.00459  -0.00325   0.00223   2.13831
   A15        1.98760   0.00946   0.00936   0.00548   0.01573   2.00334
   A16        2.15627  -0.01250  -0.01313  -0.00272  -0.01495   2.14132
   A17        2.17239  -0.02077  -0.02262  -0.00469  -0.02657   2.14582
   A18        2.07208   0.00927   0.00883   0.00301   0.01262   2.08470
   A19        2.02651   0.01116   0.01898  -0.00296   0.01674   2.04325
   A20        2.03178  -0.01535  -0.03410   0.01559  -0.01827   2.01351
   A21        1.88061   0.00737   0.02522  -0.01102   0.01382   1.89444
   A22        1.87354   0.00247  -0.00677   0.00495  -0.00108   1.87246
   A23        1.87542   0.00427   0.01518  -0.01332   0.00144   1.87685
   A24        1.89769   0.00354  -0.00091   0.00603   0.00596   1.90365
   A25        1.90200  -0.00186   0.00204  -0.00329  -0.00122   1.90078
   A26        2.14512   0.00093   0.00980  -0.01330  -0.00368   2.14144
   A27        2.00036  -0.00288  -0.00525   0.01071   0.00528   2.00564
   A28        2.13764   0.00198  -0.00453   0.00296  -0.00174   2.13589
   A29        1.91368   0.00203   0.00086   0.00758   0.00844   1.92212
    D1        1.03213   0.00013   0.00329  -0.01131  -0.00801   1.02412
    D2        3.13796  -0.00039   0.00977  -0.01698  -0.00717   3.13078
    D3       -1.00881  -0.00001   0.00262  -0.00976  -0.00717  -1.01598
    D4        3.13114  -0.00001  -0.00089  -0.00808  -0.00896   3.12218
    D5       -1.04621  -0.00054   0.00559  -0.01374  -0.00812  -1.05434
    D6        1.09020  -0.00015  -0.00157  -0.00653  -0.00813   1.08208
    D7       -1.08283   0.00027   0.00608  -0.01308  -0.00700  -1.08983
    D8        1.02300  -0.00025   0.01256  -0.01874  -0.00616   1.01684
    D9       -3.12377   0.00013   0.00541  -0.01152  -0.00616  -3.12993
   D10       -3.00388   0.00053   0.05939  -0.11541  -0.05604  -3.05992
   D11        1.17919  -0.00093   0.05625  -0.11762  -0.06134   1.11785
   D12       -0.92483  -0.00045   0.05274  -0.11255  -0.05983  -0.98465
   D13       -0.88640   0.00129  -0.02994   0.09382   0.06370  -0.82270
   D14        2.33857  -0.00098  -0.09856   0.10018   0.00182   2.34040
   D15        1.18794   0.00223  -0.02094   0.08938   0.06826   1.25620
   D16       -1.87028  -0.00004  -0.08956   0.09575   0.00639  -1.86390
   D17       -3.02477   0.00180  -0.01669   0.08336   0.06647  -2.95830
   D18        0.20019  -0.00047  -0.08531   0.08972   0.00460   0.20479
   D19        3.03310   0.00313   0.01817   0.05384   0.07215   3.10525
   D20       -0.28255   0.00203   0.07366   0.02071   0.09477  -0.18778
   D21       -0.02402  -0.00005  -0.05069   0.06031   0.00922  -0.01480
   D22        2.94352  -0.00114   0.00481   0.02718   0.03184   2.97535
   D23        1.29583  -0.00236   0.15733  -0.08930   0.06756   1.36339
   D24       -2.88064  -0.00140   0.17237  -0.10469   0.06769  -2.81296
   D25       -0.83444   0.00151   0.18440  -0.11164   0.07288  -0.76156
   D26       -1.67581  -0.00123   0.10343  -0.05750   0.04568  -1.63012
   D27        0.43090  -0.00026   0.11847  -0.07289   0.04581   0.47671
   D28        2.47710   0.00265   0.13049  -0.07984   0.05101   2.52811
   D29        2.00384   0.00426   0.06839   0.00644   0.07506   2.07890
   D30       -1.15049   0.00618   0.07061   0.03901   0.10983  -1.04066
   D31       -0.10564   0.00159   0.04762   0.02062   0.06816  -0.03747
   D32        3.02321   0.00352   0.04984   0.05319   0.10293   3.12615
   D33       -2.16181  -0.00044   0.03713   0.02861   0.06561  -2.09620
   D34        0.96704   0.00149   0.03935   0.06118   0.10038   1.06742
   D35       -0.11639   0.00606   0.01204   0.10395   0.11596  -0.00043
   D36        3.01253   0.00797   0.01433   0.13623   0.15059  -3.12007
         Item               Value     Threshold  Converged?
 Maximum Force            0.020766     0.000450     NO 
 RMS     Force            0.004746     0.000300     NO 
 Maximum Displacement     0.612622     0.001800     NO 
 RMS     Displacement     0.130484     0.001200     NO 
 Predicted change in Energy=-3.268247D-03
 Lowest energy point so far.  Saving SCF results.
 GradGradGradGradGradGradGradGradGradGradGradGradGradGradGradGradGradGrad

 Leave Link  103 at Fri Mar 14 14:23:06 2025, MaxMem=  8589934592 cpu:               1.5 elap:               0.4
 (Enter /home/enzo/gaussian_versions/gdv.j21/gdv/l202.exe)
                          Input orientation:                          
 ---------------------------------------------------------------------
 Center     Atomic      Atomic             Coordinates (Angstroms)
 Number     Number       Type             X           Y           Z
 ---------------------------------------------------------------------
      1          6           0       -2.092815    1.857722    0.595255
      2          6           0       -1.726465    0.369918    0.665011
      3         16           0       -3.138700   -0.597076   -0.053795
      4          6           0       -0.435555    0.100476   -0.122528
      5          8           0       -0.249630    0.537901   -1.256041
      6          7           0        0.473065   -0.680873    0.521804
      7          6           0        1.743950   -1.086123   -0.080795
      8          6           0        2.854817   -0.002532   -0.081499
      9          8           0        3.907761   -0.150866    0.481427
     10          8           0        2.541467    1.131398   -0.739156
     11          1           0       -3.016307    2.055646    1.144187
     12          1           0       -1.289690    2.461747    1.029717
     13          1           0       -2.216502    2.164466   -0.445873
     14          1           0       -1.612865    0.053867    1.705203
     15          1           0       -2.646345   -1.824039    0.212406
     16          1           0        0.339570   -0.894039    1.498986
     17          1           0        2.126538   -1.947969    0.464319
     18          1           0        1.533953   -1.384156   -1.113902
     19          1           0        1.634756    1.065950   -1.113312
 ---------------------------------------------------------------------
                    Distance matrix (angstroms):
                    1          2          3          4          5
     1  C    0.000000
     2  C    1.533831   0.000000
     3  S    2.746120   1.856386   0.000000
     4  C    2.519848   1.535990   2.792543   0.000000
     5  O    2.926868   2.428930   3.328707   1.229130   0.000000
     6  N    3.610208   2.441845   3.658303   1.360610   2.273418
     7  C    4.883035   3.836674   4.907155   2.481935   2.827193
     8  C    5.328940   4.656623   6.022997   3.292240   3.362917
     9  O    6.328847   5.661221   7.080832   4.392303   4.558190
    10  O    4.876964   4.557059   5.976758   3.210248   2.899936
    11  H    1.092399   2.176001   2.913259   3.476713   3.964737
    12  H    1.094812   2.167840   3.734868   2.762755   3.163478
    13  H    1.092400   2.166703   2.937735   2.745246   2.677810
    14  H    2.171688   1.093066   2.417845   2.174588   3.295704
    15  H    3.742771   2.421669   1.348597   2.950175   3.671422
    16  H    3.782250   2.561563   3.820691   2.054066   3.160346
    17  H    5.683605   4.500946   5.460411   3.332392   3.845174
    18  H    5.156010   4.107510   4.855616   2.658179   2.625962
    19  H    4.176229   3.865838   5.164699   2.489976   1.962172
                    6          7          8          9         10
     6  N    0.000000
     7  C    1.463728   0.000000
     8  C    2.548894   1.551836   0.000000
     9  O    3.475583   2.423402   1.203154   0.000000
    10  O    3.025332   2.446808   1.347775   2.236243   0.000000
    11  H    4.477903   5.833639   6.341017   7.297305   5.940544
    12  H    3.638866   4.798290   4.948172   5.842933   4.424534
    13  H    4.033128   5.136613   5.526927   6.612658   4.877654
    14  H    2.508263   3.969581   4.812034   5.658344   4.939073
    15  H    3.336656   4.461522   5.802331   6.769652   6.045947
    16  H    1.009033   2.122472   3.101481   3.784141   3.736312
    17  H    2.083941   1.089174   2.147797   2.530341   3.332119
    18  H    2.072589   1.095552   2.172423   3.114650   2.735604
    19  H    2.659798   2.389443   1.922198   3.031565   0.983057
                   11         12         13         14         15
    11  H    0.000000
    12  H    1.777422   0.000000
    13  H    1.783205   1.767689   0.000000
    14  H    2.508288   2.521629   3.073457   0.000000
    15  H    4.007124   4.569078   4.065251   2.612098   0.000000
    16  H    4.482012   3.759788   4.435136   2.180150   3.381697
    17  H    6.552862   5.606771   6.050005   4.419307   4.781133
    18  H    6.134824   5.230586   5.206236   4.462929   4.407662
    19  H    5.263856   3.884998   4.060098   4.417622   5.332672
                   16         17         18         19
    16  H    0.000000
    17  H    2.318310   0.000000
    18  H    2.914439   1.777590   0.000000
    19  H    3.513285   3.437220   2.452179   0.000000
 Stoichiometry    C5H9NO3S
 Framework group  C1[X(C5H9NO3S)]
 Deg. of freedom    51
 Full point group                 C1      NOp   1
 RotChk:  IX=0 Diff= 1.30D-02
 Largest Abelian subgroup         C1      NOp   1
 Largest concise Abelian subgroup C1      NOp   1
                         Standard orientation:                         
 ---------------------------------------------------------------------
 Center     Atomic      Atomic             Coordinates (Angstroms)
 Number     Number       Type             X           Y           Z
 ---------------------------------------------------------------------
      1          6           0        2.145291    1.665068   -0.704368
      2          6           0        1.753153    0.184635   -0.619605
      3         16           0        3.115434   -0.714016    0.265145
      4          6           0        0.425884    0.026401    0.137088
      5          8           0        0.201998    0.593804    1.204182
      6          7           0       -0.470501   -0.810367   -0.452465
      7          6           0       -1.772799   -1.125031    0.137035
      8          6           0       -2.861388   -0.032348   -0.033883
      9          8           0       -3.892945   -0.228891   -0.621115
     10          8           0       -2.553320    1.164893    0.502964
     11          1           0        3.094298    1.785062   -1.231931
     12          1           0        1.372688    2.226913   -1.239184
     13          1           0        2.231950    2.087515    0.299309
     14          1           0        1.676350   -0.247097   -1.620856
     15          1           0        2.610606   -1.956077    0.119722
     16          1           0       -0.301053   -1.136294   -1.392255
     17          1           0       -2.149358   -2.038076   -0.322152
     18          1           0       -1.611394   -1.305480    1.205501
     19          1           0       -1.664242    1.129557    0.920926
 ---------------------------------------------------------------------
 Rotational constants (GHZ):           2.7030479           0.5120110           0.4790153
 Leave Link  202 at Fri Mar 14 14:23:07 2025, MaxMem=  8589934592 cpu:               0.1 elap:               0.2
 (Enter /home/enzo/gaussian_versions/gdv.j21/gdv/l301.exe)
 Standard basis: 6-31G(d) (6D, 7F)
 Ernie: Thresh=  0.10000D-02 Tol=  0.10000D-05 Strict=F.
 There are   172 symmetry adapted cartesian basis functions of A   symmetry.
 There are   172 symmetry adapted basis functions of A   symmetry.
   172 basis functions,   340 primitive gaussians,   172 cartesian basis functions
    43 alpha electrons       43 beta electrons
       nuclear repulsion energy       621.8635106484 Hartrees.
 IExCor=      4002 DFT=T Ex+Corr=B3LYP ScaHFX=  0.200000
 ScaDFX=  0.800000  0.720000  1.000000  0.810000  1.000000  0.000000
 ScaDFX=  0.000000  0.000000  0.000000  0.000000  0.000000  0.000000
 IRadAn=      5 IRanWt=     -1 IRanGd=            0 ICorTp=0 IEmpDi=  4
 NAtoms=   19 NActive=   19 NUniq=   19 SFac= 1.00D+00 NAtFMM=   60 NAOKFM=F Big=F
 Integral buffers will be    131072 words long.
 Raffenetti 2 integral format.
 Two-electron integral symmetry is turned on.
 Leave Link  301 at Fri Mar 14 14:23:07 2025, MaxMem=  8589934592 cpu:               0.5 elap:               0.3
 (Enter /home/enzo/gaussian_versions/gdv.j21/gdv/l302.exe)
 NPDir=0 NMtPBC=     1 NCelOv=     1 NCel=       1 NClECP=     1 NCelD=      1
         NCelK=      1 NCelE2=     1 NClLst=     1 CellRange=     0.0.
 One-electron integrals computed using PRISM.
 One-electron integral symmetry used in STVInt
 NBasis=   172 RedAO= T EigKep=  2.61D-03  NBF=   172
 NBsUse=   172 1.00D-06 EigRej= -1.00D+00 NBFU=   172
 Precomputing XC quadrature grid using
 IXCGrd= 4 IRadAn=           5 IRanWt=          -1 IRanGd=           0 AccXCQ= 0.00D+00.
 Generated NRdTot=       0 NPtTot=      406993 NUsed=           0 NTot=          64
 NSgBfM=   171   171   171   171   171 MxSgAt=    19 MxSgA2=    19 SizInc=   0.000
 NMBTot=     3468 MaxBatPerAtom=       85 MaxMicBPerAtom=      205 NBfPt=            52119551.
 Leave Link  302 at Fri Mar 14 14:23:08 2025, MaxMem=  8589934592 cpu:               8.0 elap:               1.3
 (Enter /home/enzo/gaussian_versions/gdv.j21/gdv/l303.exe)
 DipDrv:  MaxL=1.
 Leave Link  303 at Fri Mar 14 14:23:08 2025, MaxMem=  8589934592 cpu:               0.8 elap:               0.2
 (Enter /home/enzo/gaussian_versions/gdv.j21/gdv/l401.exe)
 Initial guess from the checkpoint file:  "/local/home/enzo/scratch/Gau-2271009.chk"
 B after Tr=     0.000000   -0.000000    0.000000
         Rot=    0.999979   -0.005705   -0.003064   -0.000203 Ang=  -0.74 deg.
 AO Guess basis will be translated and rotated to current coordinates.
 JPrj=2 DoOrth=T DoCkMO=T.
 Generating alternative initial guess.
 ExpMin= 1.17D-01 ExpMax= 2.19D+04 ExpMxC= 3.30D+03 IAcc=3 IRadAn=         5 AccDes= 0.00D+00
 Harris functional with IExCor= 4002 and IRadAn=       5 diagonalized for initial guess.
 HarFok:  IExCor=    4002 AccDes= 0.00D+00 IRadAn=         5 IDoV= 1 UseB2=F ITyADJ=14 ICtDFT=  3500011
 FoFCou: FMM=F IPFlag=           0 FMFlag=      100000 FMFlg1=           0
         NFxFlg=           0 DoJE=T BraDBF=F KetDBF=T FulRan=T
         wScrn=  0.000000 ICntrl=       500 IOpCl=  0 I1Cent=   200000004 NGrid=           0
         NMat0=    1 NMatS0=      1 NMatT0=    0 NMatD0=    1 NMtDS0=    0 NMtDT0=    0
 Petite list used in FoFCou.
 Harris En= -874.546558783744    
 Leave Link  401 at Fri Mar 14 14:23:10 2025, MaxMem=  8589934592 cpu:               9.7 elap:               1.6
 (Enter /home/enzo/gaussian_versions/gdv.j21/gdv/l502.exe)
 Integral symmetry usage will be decided dynamically.
 Closed shell SCF:
 Using DIIS extrapolation, IDIIS=  1040.
 NGot=  8589934592 LenX=  8589843591 LenY=  8589813566
 Requested convergence on RMS density matrix=1.00D-08 within 128 cycles.
 Requested convergence on MAX density matrix=1.00D-06.
 Requested convergence on             energy=1.00D-06.
 No special actions if energy rises.
 Fock matrices will be formed incrementally for  20 cycles.
 Integral accuracy reduced to 1.0D-05 until final iterations.

 Cycle   1  Pass 0  IDiag  1:
 FoFJK:  IHMeth= 1 ICntrl=       0 DoSepK=F KAlg= 0 I1Cent=           0 FoldK=F
 IRaf= 910000000 NMat=       1 IRICut=       1 DoRegI=T DoRafI=F ISym2E= 0 IDoP0=0 IntGTp=1.
 FoFCou: FMM=F IPFlag=           0 FMFlag=      100000 FMFlg1=           0
         NFxFlg=           0 DoJE=F BraDBF=F KetDBF=F FulRan=T
         wScrn=  0.000000 ICntrl=         0 IOpCl=  0 I1Cent=           0 NGrid=           0
         NMat0=    1 NMatS0=      1 NMatT0=    0 NMatD0=    1 NMtDS0=    0 NMtDT0=    0
 Symmetry not used in FoFCou.
 E= -874.553743129461    
 DIIS: error= 8.06D-03 at cycle   1 NSaved=   1.
 NSaved= 1 IEnMin= 1 EnMin= -874.553743129461     IErMin= 1 ErrMin= 8.06D-03
 ErrMax= 8.06D-03  0.00D+00 EMaxC= 1.00D-01 BMatC= 1.38D-02 BMatP= 1.38D-02
 IDIUse=3 WtCom= 9.19D-01 WtEn= 8.06D-02
 Coeff-Com:  0.100D+01
 Coeff-En:   0.100D+01
 Coeff:      0.100D+01
 Gap=     1.537 Goal=   None    Shift=    0.000
 GapD=    1.537 DampG=2.000 DampE=1.000 DampFc=2.0000 IDamp=-1.
 RMSDP=1.29D-03 MaxDP=3.41D-02              OVMax= 4.64D-02

 Cycle   2  Pass 0  IDiag  1:
 RMSU=  1.29D-03    CP:  9.99D-01
 E= -874.581396758579     Delta-E=       -0.027653629118 Rises=F Damp=F
 DIIS: error= 1.35D-03 at cycle   2 NSaved=   2.
 NSaved= 2 IEnMin= 2 EnMin= -874.581396758579     IErMin= 2 ErrMin= 1.35D-03
 ErrMax= 1.35D-03  0.00D+00 EMaxC= 1.00D-01 BMatC= 5.39D-04 BMatP= 1.38D-02
 IDIUse=3 WtCom= 9.87D-01 WtEn= 1.35D-02
 Coeff-Com: -0.147D-01 0.101D+01
 Coeff-En:   0.000D+00 0.100D+01
 Coeff:     -0.145D-01 0.101D+01
 Gap=     0.227 Goal=   None    Shift=    0.000
 RMSDP=2.70D-04 MaxDP=9.77D-03 DE=-2.77D-02 OVMax= 1.02D-02

 Cycle   3  Pass 0  IDiag  1:
 RMSU=  2.58D-04    CP:  9.99D-01  1.06D+00
 E= -874.581375516059     Delta-E=        0.000021242520 Rises=F Damp=F
 DIIS: error= 1.61D-03 at cycle   3 NSaved=   3.
 NSaved= 3 IEnMin= 2 EnMin= -874.581396758579     IErMin= 2 ErrMin= 1.35D-03
 ErrMax= 1.61D-03  0.00D+00 EMaxC= 1.00D-01 BMatC= 9.09D-04 BMatP= 5.39D-04
 IDIUse=3 WtCom= 1.99D-01 WtEn= 8.01D-01
 Coeff-Com: -0.441D-01 0.602D+00 0.442D+00
 Coeff-En:   0.000D+00 0.510D+00 0.490D+00
 Coeff:     -0.881D-02 0.529D+00 0.480D+00
 Gap=     0.225 Goal=   None    Shift=    0.000
 RMSDP=1.77D-04 MaxDP=7.33D-03 DE= 2.12D-05 OVMax= 8.66D-03

 Cycle   4  Pass 0  IDiag  1:
 RMSU=  9.91D-05    CP:  9.98D-01  1.08D+00  4.43D-01
 E= -874.581952782481     Delta-E=       -0.000577266422 Rises=F Damp=F
 DIIS: error= 5.94D-04 at cycle   4 NSaved=   4.
 NSaved= 4 IEnMin= 4 EnMin= -874.581952782481     IErMin= 4 ErrMin= 5.94D-04
 ErrMax= 5.94D-04  0.00D+00 EMaxC= 1.00D-01 BMatC= 1.29D-04 BMatP= 5.39D-04
 IDIUse=3 WtCom= 9.94D-01 WtEn= 5.94D-03
 Coeff-Com: -0.209D-01 0.204D+00 0.307D+00 0.510D+00
 Coeff-En:   0.000D+00 0.000D+00 0.129D+00 0.871D+00
 Coeff:     -0.208D-01 0.203D+00 0.306D+00 0.512D+00
 Gap=     0.225 Goal=   None    Shift=    0.000
 RMSDP=6.28D-05 MaxDP=1.73D-03 DE=-5.77D-04 OVMax= 3.04D-03

 Cycle   5  Pass 0  IDiag  1:
 RMSU=  3.45D-05    CP:  9.99D-01  1.09D+00  5.76D-01  6.08D-01
 E= -874.582043446633     Delta-E=       -0.000090664152 Rises=F Damp=F
 DIIS: error= 1.67D-04 at cycle   5 NSaved=   5.
 NSaved= 5 IEnMin= 5 EnMin= -874.582043446633     IErMin= 5 ErrMin= 1.67D-04
 ErrMax= 1.67D-04  0.00D+00 EMaxC= 1.00D-01 BMatC= 1.04D-05 BMatP= 1.29D-04
 IDIUse=3 WtCom= 9.98D-01 WtEn= 1.67D-03
 Coeff-Com: -0.859D-02 0.697D-01 0.153D+00 0.330D+00 0.455D+00
 Coeff-En:   0.000D+00 0.000D+00 0.000D+00 0.000D+00 0.100D+01
 Coeff:     -0.857D-02 0.696D-01 0.153D+00 0.330D+00 0.456D+00
 Gap=     0.225 Goal=   None    Shift=    0.000
 RMSDP=1.88D-05 MaxDP=4.77D-04 DE=-9.07D-05 OVMax= 8.35D-04

 Cycle   6  Pass 0  IDiag  1:
 RMSU=  1.21D-05    CP:  9.99D-01  1.09D+00  5.74D-01  6.85D-01  6.52D-01
 E= -874.582051255734     Delta-E=       -0.000007809101 Rises=F Damp=F
 DIIS: error= 4.14D-05 at cycle   6 NSaved=   6.
 NSaved= 6 IEnMin= 6 EnMin= -874.582051255734     IErMin= 6 ErrMin= 4.14D-05
 ErrMax= 4.14D-05  0.00D+00 EMaxC= 1.00D-01 BMatC= 5.99D-07 BMatP= 1.04D-05
 IDIUse=1 WtCom= 1.00D+00 WtEn= 0.00D+00
 Coeff-Com: -0.173D-03-0.559D-02 0.123D-01 0.514D-01 0.218D+00 0.724D+00
 Coeff:     -0.173D-03-0.559D-02 0.123D-01 0.514D-01 0.218D+00 0.724D+00
 Gap=     0.226 Goal=   None    Shift=    0.000
 RMSDP=5.54D-06 MaxDP=1.46D-04 DE=-7.81D-06 OVMax= 3.03D-04

 Initial convergence to 1.0D-05 achieved.  Increase integral accuracy.
 Cycle   7  Pass 1  IDiag  1:
 E= -874.582043614199     Delta-E=        0.000007641536 Rises=F Damp=F
 DIIS: error= 1.12D-05 at cycle   1 NSaved=   1.
 NSaved= 1 IEnMin= 1 EnMin= -874.582043614199     IErMin= 1 ErrMin= 1.12D-05
 ErrMax= 1.12D-05  0.00D+00 EMaxC= 1.00D-01 BMatC= 5.19D-08 BMatP= 5.19D-08
 IDIUse=1 WtCom= 1.00D+00 WtEn= 0.00D+00
 Coeff-Com:  0.100D+01
 Coeff:      0.100D+01
 Gap=     0.225 Goal=   None    Shift=    0.000
 RMSDP=5.54D-06 MaxDP=1.46D-04 DE= 7.64D-06 OVMax= 9.80D-05

 Cycle   8  Pass 1  IDiag  1:
 RMSU=  3.95D-06    CP:  1.00D+00
 E= -874.582043614204     Delta-E=       -0.000000000006 Rises=F Damp=F
 DIIS: error= 1.09D-05 at cycle   2 NSaved=   2.
 NSaved= 2 IEnMin= 2 EnMin= -874.582043614204     IErMin= 2 ErrMin= 1.09D-05
 ErrMax= 1.09D-05  0.00D+00 EMaxC= 1.00D-01 BMatC= 5.54D-08 BMatP= 5.19D-08
 IDIUse=1 WtCom= 1.00D+00 WtEn= 0.00D+00
 Coeff-Com:  0.509D+00 0.491D+00
 Coeff:      0.509D+00 0.491D+00
 Gap=     0.225 Goal=   None    Shift=    0.000
 RMSDP=1.78D-06 MaxDP=4.44D-05 DE=-5.68D-12 OVMax= 5.69D-05

 Cycle   9  Pass 1  IDiag  1:
 RMSU=  1.32D-06    CP:  1.00D+00  6.97D-01
 E= -874.582043664534     Delta-E=       -0.000000050329 Rises=F Damp=F
 DIIS: error= 3.71D-06 at cycle   3 NSaved=   3.
 NSaved= 3 IEnMin= 3 EnMin= -874.582043664534     IErMin= 3 ErrMin= 3.71D-06
 ErrMax= 3.71D-06  0.00D+00 EMaxC= 1.00D-01 BMatC= 4.36D-09 BMatP= 5.19D-08
 IDIUse=1 WtCom= 1.00D+00 WtEn= 0.00D+00
 Coeff-Com:  0.137D+00 0.242D+00 0.621D+00
 Coeff:      0.137D+00 0.242D+00 0.621D+00
 Gap=     0.225 Goal=   None    Shift=    0.000
 RMSDP=5.15D-07 MaxDP=1.53D-05 DE=-5.03D-08 OVMax= 2.48D-05

 Cycle  10  Pass 1  IDiag  1:
 RMSU=  4.34D-07    CP:  1.00D+00  7.38D-01  8.29D-01
 E= -874.582043667324     Delta-E=       -0.000000002790 Rises=F Damp=F
 DIIS: error= 1.90D-06 at cycle   4 NSaved=   4.
 NSaved= 4 IEnMin= 4 EnMin= -874.582043667324     IErMin= 4 ErrMin= 1.90D-06
 ErrMax= 1.90D-06  0.00D+00 EMaxC= 1.00D-01 BMatC= 1.31D-09 BMatP= 4.36D-09
 IDIUse=1 WtCom= 1.00D+00 WtEn= 0.00D+00
 Coeff-Com:  0.951D-02 0.813D-01 0.401D+00 0.509D+00
 Coeff:      0.951D-02 0.813D-01 0.401D+00 0.509D+00
 Gap=     0.225 Goal=   None    Shift=    0.000
 RMSDP=2.28D-07 MaxDP=7.11D-06 DE=-2.79D-09 OVMax= 1.19D-05

 Cycle  11  Pass 1  IDiag  1:
 RMSU=  1.37D-07    CP:  1.00D+00  7.46D-01  8.64D-01  6.02D-01
 E= -874.582043668341     Delta-E=       -0.000000001018 Rises=F Damp=F
 DIIS: error= 7.33D-07 at cycle   5 NSaved=   5.
 NSaved= 5 IEnMin= 5 EnMin= -874.582043668341     IErMin= 5 ErrMin= 7.33D-07
 ErrMax= 7.33D-07  0.00D+00 EMaxC= 1.00D-01 BMatC= 1.38D-10 BMatP= 1.31D-09
 IDIUse=1 WtCom= 1.00D+00 WtEn= 0.00D+00
 Coeff-Com: -0.712D-02 0.287D-01 0.194D+00 0.316D+00 0.469D+00
 Coeff:     -0.712D-02 0.287D-01 0.194D+00 0.316D+00 0.469D+00
 Gap=     0.225 Goal=   None    Shift=    0.000
 RMSDP=7.09D-08 MaxDP=2.24D-06 DE=-1.02D-09 OVMax= 3.01D-06

 Cycle  12  Pass 1  IDiag  1:
 RMSU=  5.10D-08    CP:  1.00D+00  7.49D-01  8.66D-01  6.40D-01  6.78D-01
 E= -874.582043668450     Delta-E=       -0.000000000108 Rises=F Damp=F
 DIIS: error= 1.33D-07 at cycle   6 NSaved=   6.
 NSaved= 6 IEnMin= 6 EnMin= -874.582043668450     IErMin= 6 ErrMin= 1.33D-07
 ErrMax= 1.33D-07  0.00D+00 EMaxC= 1.00D-01 BMatC= 9.11D-12 BMatP= 1.38D-10
 IDIUse=1 WtCom= 1.00D+00 WtEn= 0.00D+00
 Coeff-Com: -0.491D-02 0.434D-02 0.483D-01 0.954D-01 0.241D+00 0.615D+00
 Coeff:     -0.491D-02 0.434D-02 0.483D-01 0.954D-01 0.241D+00 0.615D+00
 Gap=     0.225 Goal=   None    Shift=    0.000
 RMSDP=2.40D-08 MaxDP=5.18D-07 DE=-1.08D-10 OVMax= 1.22D-06

 Cycle  13  Pass 1  IDiag  1:
 RMSU=  2.13D-08    CP:  1.00D+00  7.49D-01  8.71D-01  6.44D-01  7.24D-01
                    CP:  9.16D-01
 E= -874.582043668462     Delta-E=       -0.000000000013 Rises=F Damp=F
 DIIS: error= 3.23D-08 at cycle   7 NSaved=   7.
 NSaved= 7 IEnMin= 7 EnMin= -874.582043668462     IErMin= 7 ErrMin= 3.23D-08
 ErrMax= 3.23D-08  0.00D+00 EMaxC= 1.00D-01 BMatC= 7.77D-13 BMatP= 9.11D-12
 IDIUse=1 WtCom= 1.00D+00 WtEn= 0.00D+00
 Coeff-Com: -0.490D-03-0.351D-02-0.174D-01-0.241D-01 0.310D-02 0.237D+00
 Coeff-Com:  0.805D+00
 Coeff:     -0.490D-03-0.351D-02-0.174D-01-0.241D-01 0.310D-02 0.237D+00
 Coeff:      0.805D+00
 Gap=     0.225 Goal=   None    Shift=    0.000
 RMSDP=9.75D-09 MaxDP=2.18D-07 DE=-1.25D-11 OVMax= 6.96D-07

 SCF Done:  E(RB3LYP) =  -874.582043668     A.U. after   13 cycles
            NFock= 13  Conv=0.97D-08     -V/T= 2.0064
 KE= 8.689821403095D+02 PE=-3.302788345160D+03 EE= 9.373606505337D+02
 Leave Link  502 at Fri Mar 14 14:23:21 2025, MaxMem=  8589934592 cpu:              82.2 elap:              10.7
 (Enter /home/enzo/gaussian_versions/gdv.j21/gdv/l701.exe)
 ... and contract with generalized density number  0.
 Compute integral first derivatives.
 Leave Link  701 at Fri Mar 14 14:23:21 2025, MaxMem=  8589934592 cpu:               1.8 elap:               0.4
 (Enter /home/enzo/gaussian_versions/gdv.j21/gdv/l702.exe)
 L702 exits ... SP integral derivatives will be done elsewhere.
 Leave Link  702 at Fri Mar 14 14:23:22 2025, MaxMem=  8589934592 cpu:               0.1 elap:               0.2
 (Enter /home/enzo/gaussian_versions/gdv.j21/gdv/l703.exe)
 Integral derivatives from FoFJK, PRISM(SPDF).
 Compute integral first derivatives, UseDBF=F ICtDFT=           0.
 Calling FoFJK, ICntrl=      2127 FMM=F ISym2X=0 I1Cent= 0 IOpClX= 0 NMat=1 NMatS=1 NMatT=0.
 FoFJK:  IHMeth= 1 ICntrl=    2127 DoSepK=F KAlg= 0 I1Cent=           0 FoldK=F
 IRaf=         0 NMat=       1 IRICut=       1 DoRegI=T DoRafI=F ISym2E= 0 IDoP0=0 IntGTp=1.
 FoFCou: FMM=F IPFlag=           0 FMFlag=      100000 FMFlg1=         800
         NFxFlg=           0 DoJE=F BraDBF=F KetDBF=F FulRan=T
         wScrn=  0.000000 ICntrl=      2127 IOpCl=  0 I1Cent=           0 NGrid=           0
         NMat0=    1 NMatS0=      1 NMatT0=    0 NMatD0=    1 NMtDS0=    0 NMtDT0=    0
 Symmetry not used in FoFCou.
 Leave Link  703 at Fri Mar 14 14:23:24 2025, MaxMem=  8589934592 cpu:              15.4 elap:               2.0
 (Enter /home/enzo/gaussian_versions/gdv.j21/gdv/l716.exe)
 Dipole        = 1.18335312D+00-9.74413128D-01-8.67052100D-01
 ***** Axes restored to original set *****
 -------------------------------------------------------------------
 Center     Atomic                   Forces (Hartrees/Bohr)
 Number     Number              X              Y              Z
 -------------------------------------------------------------------
      1        6           0.001140760   -0.001675088   -0.000373009
      2        6           0.000256318    0.001153435   -0.003802690
      3       16          -0.000009606    0.001255604   -0.000092081
      4        6          -0.006379607   -0.002829891    0.005788250
      5        8           0.006714857    0.003016076   -0.001878458
      6        7           0.006170179    0.001085569   -0.000264331
      7        6           0.000632280    0.000240910   -0.002913626
      8        6          -0.011519167    0.002175852    0.001752645
      9        8           0.004003967   -0.001464210   -0.000180514
     10        8          -0.000212145   -0.001791286    0.000634385
     11        1          -0.000518507    0.000078460    0.000403156
     12        1           0.000020987    0.000258210    0.000725951
     13        1          -0.000200879   -0.000002867   -0.000429560
     14        1           0.000672626    0.000817081    0.001350345
     15        1           0.000715943   -0.001215041    0.000246631
     16        1          -0.001185750    0.000231087    0.001172829
     17        1           0.000392382   -0.000405691    0.000346213
     18        1           0.000960514   -0.000031891   -0.000565884
     19        1          -0.001655151   -0.000896318   -0.001920252
 -------------------------------------------------------------------
 Cartesian Forces:  Max     0.011519167 RMS     0.002616545
 Leave Link  716 at Fri Mar 14 14:23:24 2025, MaxMem=  8589934592 cpu:               0.7 elap:               0.3
 (Enter /home/enzo/gaussian_versions/gdv.j21/gdv/l103.exe)

 GradGradGradGradGradGradGradGradGradGradGradGradGradGradGradGradGradGrad
 Berny optimization.
 Using GEDIIS/GDIIS optimizer.
 FormGI is forming the generalized inverse of G from B-inverse, IUseBI=4.
 Internal  Forces:  Max     0.011586561 RMS     0.002925737
 Search for a local minimum.
 Step number   6 out of a maximum of   93
 All quantities printed in internal units (Hartrees-Bohrs-Radians)
 RMS Force = .29257D-02 SwitMx=.10000D-02 MixMth= 1
 Mixed Optimization -- RFO/linear search
 Update second derivatives using D2CorX and points    4    5    6
 DE= -3.12D-03 DEPred=-3.27D-03 R= 9.55D-01
 TightC=F SS=  1.41D+00  RLast= 3.83D-01 DXNew= 3.5676D-01 1.1503D+00
 Trust test= 9.55D-01 RLast= 3.83D-01 DXMaxT set to 3.57D-01
 ITU=  1 -1 -1  1  1  0
 Use linear search instead of GDIIS.
     Eigenvalues ---    0.00227   0.00447   0.00563   0.00868   0.00975
     Eigenvalues ---    0.01016   0.01129   0.01288   0.01610   0.04622
     Eigenvalues ---    0.05077   0.05581   0.05639   0.05776   0.05845
     Eigenvalues ---    0.06939   0.07640   0.10425   0.14035   0.15956
     Eigenvalues ---    0.15991   0.15999   0.16009   0.16168   0.17153
     Eigenvalues ---    0.17315   0.19590   0.21884   0.22267   0.24030
     Eigenvalues ---    0.24524   0.24917   0.25671   0.28410   0.30030
     Eigenvalues ---    0.30218   0.32340   0.32581   0.32595   0.32608
     Eigenvalues ---    0.32619   0.32645   0.32953   0.36751   0.40355
     Eigenvalues ---    0.41167   0.46640   0.50092   0.79931   0.83902
     Eigenvalues ---    0.93870
 RFO step:  Lambda=-1.80888075D-03 EMin= 2.27423746D-03
 Quartic linear search produced a step of -0.03370.
 Iteration  1 RMS(Cart)=  0.02841980 RMS(Int)=  0.00096244
 Iteration  2 RMS(Cart)=  0.00102175 RMS(Int)=  0.00055018
 Iteration  3 RMS(Cart)=  0.00000063 RMS(Int)=  0.00055018
 Variable       Old X    -DE/DX   Delta X   Delta X   Delta X     New X
                                 (Linear)    (Quad)   (Total)
    R1        2.89852  -0.00142   0.00008  -0.00488  -0.00479   2.89373
    R2        2.06434   0.00066  -0.00009   0.00269   0.00261   2.06694
    R3        2.06890   0.00045  -0.00007   0.00200   0.00193   2.07083
    R4        2.06434   0.00043  -0.00008   0.00215   0.00207   2.06641
    R5        3.50806  -0.00062   0.00014  -0.00464  -0.00450   3.50356
    R6        2.90260  -0.00264   0.00012  -0.01037  -0.01025   2.89235
    R7        2.06560   0.00112  -0.00010   0.00432   0.00421   2.06981
    R8        2.54848   0.00142  -0.00031   0.00850   0.00819   2.55667
    R9        2.32272   0.00382  -0.00015   0.00523   0.00508   2.32780
   R10        2.57118  -0.00204  -0.00022   0.00451   0.00429   2.57547
   R11        2.76605  -0.00465   0.00029  -0.00672  -0.00644   2.75961
   R12        1.90680   0.00124  -0.00018   0.00466   0.00449   1.91128
   R13        2.93254  -0.00810   0.00031  -0.01796  -0.01765   2.91489
   R14        2.05824   0.00063  -0.00008   0.00274   0.00266   2.06090
   R15        2.07029   0.00036  -0.00010   0.00201   0.00191   2.07220
   R16        2.27363   0.00360  -0.00029   0.00787   0.00758   2.28121
   R17        2.54693  -0.00120  -0.00003  -0.00417  -0.00420   2.54272
   R18        1.85771   0.00232  -0.00011   0.00490   0.00479   1.86250
    A1        1.93351  -0.00019   0.00001  -0.00250  -0.00250   1.93101
    A2        1.91974   0.00015  -0.00004   0.00132   0.00128   1.92102
    A3        1.92065  -0.00004   0.00002   0.00115   0.00116   1.92181
    A4        1.89734  -0.00020   0.00004  -0.00316  -0.00312   1.89423
    A5        1.90956   0.00005   0.00001  -0.00070  -0.00069   1.90887
    A6        1.88215   0.00023  -0.00005   0.00401   0.00396   1.88611
    A7        1.88174   0.00040  -0.00010   0.00487   0.00477   1.88651
    A8        1.92578   0.00064  -0.00014   0.00349   0.00335   1.92913
    A9        1.92684  -0.00071   0.00015  -0.00748  -0.00733   1.91951
   A10        1.92779  -0.00072   0.00010  -0.00286  -0.00277   1.92501
   A11        1.87227   0.00041   0.00000   0.00415   0.00416   1.87643
   A12        1.92821  -0.00002  -0.00001  -0.00208  -0.00209   1.92613
   A13        1.69084  -0.00045   0.00006  -0.00413  -0.00407   1.68677
   A14        2.13831   0.00275  -0.00007   0.00094   0.00023   2.13854
   A15        2.00334   0.00546  -0.00053   0.01646   0.01531   2.01865
   A16        2.14132  -0.00818   0.00050  -0.01608  -0.01619   2.12514
   A17        2.14582  -0.00975   0.00090  -0.01489  -0.01419   2.13163
   A18        2.08470   0.00331  -0.00043   0.00303   0.00239   2.08709
   A19        2.04325   0.00623  -0.00056   0.01676   0.01601   2.05926
   A20        2.01351  -0.01159   0.00062  -0.02438  -0.02376   1.98975
   A21        1.89444   0.00326  -0.00047   0.00601   0.00546   1.89990
   A22        1.87246   0.00420   0.00004   0.01293   0.01296   1.88542
   A23        1.87685   0.00524  -0.00005   0.00187   0.00179   1.87865
   A24        1.90365   0.00035  -0.00020   0.00383   0.00369   1.90734
   A25        1.90078  -0.00118   0.00004   0.00063   0.00061   1.90139
   A26        2.14144   0.00249   0.00012  -0.00370  -0.00636   2.13507
   A27        2.00564  -0.00527  -0.00018   0.00782   0.00485   2.01049
   A28        2.13589   0.00282   0.00006  -0.00142  -0.00417   2.13172
   A29        1.92212  -0.00045  -0.00028   0.00535   0.00506   1.92719
    D1        1.02412   0.00017   0.00027  -0.01096  -0.01070   1.01342
    D2        3.13078  -0.00008   0.00024  -0.00934  -0.00910   3.12169
    D3       -1.01598  -0.00015   0.00024  -0.01465  -0.01441  -1.03039
    D4        3.12218  -0.00010   0.00030  -0.01564  -0.01535   3.10683
    D5       -1.05434  -0.00035   0.00027  -0.01403  -0.01375  -1.06809
    D6        1.08208  -0.00042   0.00027  -0.01934  -0.01906   1.06302
    D7       -1.08983   0.00026   0.00024  -0.00920  -0.00897  -1.09880
    D8        1.01684   0.00000   0.00021  -0.00758  -0.00737   1.00947
    D9       -3.12993  -0.00007   0.00021  -0.01290  -0.01268   3.14058
   D10       -3.05992   0.00024   0.00189  -0.03225  -0.03037  -3.09029
   D11        1.11785  -0.00037   0.00207  -0.03786  -0.03579   1.08206
   D12       -0.98465  -0.00017   0.00202  -0.03623  -0.03421  -1.01886
   D13       -0.82270   0.00087  -0.00215   0.07302   0.07100  -0.75170
   D14        2.34040  -0.00064  -0.00006   0.00578   0.00560   2.34599
   D15        1.25620   0.00131  -0.00230   0.07946   0.07728   1.33348
   D16       -1.86390  -0.00020  -0.00022   0.01223   0.01188  -1.85201
   D17       -2.95830   0.00135  -0.00224   0.08150   0.07939  -2.87891
   D18        0.20479  -0.00017  -0.00015   0.01427   0.01399   0.21878
   D19        3.10525  -0.00051  -0.00243  -0.00531  -0.00787   3.09738
   D20       -0.18778  -0.00160  -0.00319   0.03530   0.03183  -0.15595
   D21       -0.01480  -0.00218  -0.00031  -0.07291  -0.07294  -0.08774
   D22        2.97535  -0.00327  -0.00107  -0.03230  -0.03324   2.94211
   D23        1.36339  -0.00459  -0.00228   0.04020   0.03795   1.40134
   D24       -2.81296  -0.00314  -0.00228   0.03076   0.02850  -2.78445
   D25       -0.76156  -0.00054  -0.00246   0.04165   0.03930  -0.72226
   D26       -1.63012  -0.00332  -0.00154   0.00153  -0.00009  -1.63022
   D27        0.47671  -0.00188  -0.00154  -0.00791  -0.00954   0.46718
   D28        2.52811   0.00072  -0.00172   0.00298   0.00126   2.52937
   D29        2.07890   0.00166  -0.00253   0.06854   0.06593   2.14483
   D30       -1.04066  -0.00009  -0.00370  -0.06685  -0.07045  -1.11111
   D31       -0.03747   0.00117  -0.00230   0.07543   0.07302   0.03554
   D32        3.12615  -0.00058  -0.00347  -0.05996  -0.06335   3.06279
   D33       -2.09620  -0.00054  -0.00221   0.07157   0.06927  -2.02692
   D34        1.06742  -0.00229  -0.00338  -0.06382  -0.06710   1.00033
   D35       -0.00043  -0.00030  -0.00391   0.06111   0.05721   0.05678
   D36       -3.12007  -0.00204  -0.00507  -0.07377  -0.07884   3.08427
         Item               Value     Threshold  Converged?
 Maximum Force            0.011587     0.000450     NO 
 RMS     Force            0.002926     0.000300     NO 
 Maximum Displacement     0.077091     0.001800     NO 
 RMS     Displacement     0.028470     0.001200     NO 
 Predicted change in Energy=-9.718703D-04
 Lowest energy point so far.  Saving SCF results.
 GradGradGradGradGradGradGradGradGradGradGradGradGradGradGradGradGradGrad

 Leave Link  103 at Fri Mar 14 14:23:24 2025, MaxMem=  8589934592 cpu:               1.7 elap:               0.5
 (Enter /home/enzo/gaussian_versions/gdv.j21/gdv/l202.exe)
                          Input orientation:                          
 ---------------------------------------------------------------------
 Center     Atomic      Atomic             Coordinates (Angstroms)
 Number     Number       Type             X           Y           Z
 ---------------------------------------------------------------------
      1          6           0       -2.097780    1.857779    0.578078
      2          6           0       -1.728861    0.374446    0.670195
      3         16           0       -3.130262   -0.612274   -0.036763
      4          6           0       -0.438360    0.093232   -0.103211
      5          8           0       -0.214542    0.573506   -1.215246
      6          7           0        0.477941   -0.683763    0.540308
      7          6           0        1.734013   -1.084780   -0.087393
      8          6           0        2.828049    0.002023   -0.052306
      9          8           0        3.910636   -0.187597    0.446992
     10          8           0        2.541977    1.124971   -0.736163
     11          1           0       -3.030606    2.057010    1.113331
     12          1           0       -1.304521    2.470699    1.020708
     13          1           0       -2.210171    2.152972   -0.468805
     14          1           0       -1.615823    0.081369    1.719481
     15          1           0       -2.606192   -1.833284    0.218006
     16          1           0        0.338314   -0.917455    1.514391
     17          1           0        2.122832   -1.961942    0.431040
     18          1           0        1.522372   -1.352035   -1.129618
     19          1           0        1.631985    1.076539   -1.111612
 ---------------------------------------------------------------------
                    Distance matrix (angstroms):
                    1          2          3          4          5
     1  C    0.000000
     2  C    1.531295   0.000000
     3  S    2.746854   1.854004   0.000000
     4  C    2.516238   1.530566   2.783612   0.000000
     5  O    2.900337   2.426454   3.361000   1.231820   0.000000
     6  N    3.618729   2.450847   3.654758   1.362881   2.267648
     7  C    4.876898   3.833376   4.887433   2.471268   2.796217
     8  C    5.301415   4.628838   5.989915   3.268078   3.307020
     9  O    6.348371   5.671829   7.070263   4.392648   4.512140
    10  O    4.877662   4.558639   5.973398   3.216756   2.851672
    11  H    1.093779   2.173000   2.908216   3.472195   3.943763
    12  H    1.095834   2.167303   3.735813   2.768714   3.128400
    13  H    1.093496   2.166134   2.946152   2.741442   2.652248
    14  H    2.165806   1.095296   2.420550   2.169970   3.289136
    15  H    3.743271   2.418316   1.352931   2.917899   3.683318
    16  H    3.809614   2.579707   3.811855   2.059453   3.159040
    17  H    5.694335   4.511258   5.443845   3.326991   3.821266
    18  H    5.130753   4.097631   4.836175   2.643251   2.594592
    19  H    4.168517   3.868211   5.165887   2.504015   1.916623
                    6          7          8          9         10
     6  N    0.000000
     7  C    1.460322   0.000000
     8  C    2.518829   1.542494   0.000000
     9  O    3.469623   2.414165   1.207166   0.000000
    10  O    3.026737   2.440636   1.345551   2.235154   0.000000
    11  H    4.488885   5.832167   6.317081   7.325510   5.944998
    12  H    3.654940   4.806454   4.931922   5.881628   4.437694
    13  H    4.036251   5.117137   5.493970   6.616738   4.869412
    14  H    2.521849   3.980715   4.784718   5.677440   4.940303
    15  H    3.307137   4.414850   5.742159   6.725308   6.013763
    16  H    1.011407   2.131123   3.082006   3.799147   3.754015
    17  H    2.085989   1.090581   2.141988   2.518888   3.326722
    18  H    2.079923   1.096563   2.167687   3.089567   2.707390
    19  H    2.675690   2.393895   1.925430   3.036369   0.985593
                   11         12         13         14         15
    11  H    0.000000
    12  H    1.777382   0.000000
    13  H    1.784790   1.771948   0.000000
    14  H    2.504433   2.508803   3.071382   0.000000
    15  H    4.014488   4.567597   4.064330   2.627005   0.000000
    16  H    4.511974   3.797659   4.455936   2.204169   3.345067
    17  H    6.570800   5.634072   6.042943   4.451151   4.735568
    18  H    6.114083   5.218096   5.162714   4.474403   4.369522
    19  H    5.258464   3.887613   4.041543   4.421958   5.310094
                   16         17         18         19
    16  H    0.000000
    17  H    2.334332   0.000000
    18  H    2.929443   1.779942   0.000000
    19  H    3.541961   3.442830   2.431113   0.000000
 Stoichiometry    C5H9NO3S
 Framework group  C1[X(C5H9NO3S)]
 Deg. of freedom    51
 Full point group                 C1      NOp   1
 RotChk:  IX=0 Diff= 1.78D-02
 Largest Abelian subgroup         C1      NOp   1
 Largest concise Abelian subgroup C1      NOp   1
                         Standard orientation:                         
 ---------------------------------------------------------------------
 Center     Atomic      Atomic             Coordinates (Angstroms)
 Number     Number       Type             X           Y           Z
 ---------------------------------------------------------------------
      1          6           0        2.155823    1.660772   -0.692142
      2          6           0        1.760428    0.183463   -0.614130
      3         16           0        3.107674   -0.726773    0.276785
      4          6           0        0.430873    0.022031    0.126717
      5          8           0        0.167424    0.642662    1.157635
      6          7           0       -0.471661   -0.816316   -0.456423
      7          6           0       -1.762792   -1.115554    0.156748
      8          6           0       -2.831143   -0.025562   -0.066480
      9          8           0       -3.893936   -0.260551   -0.588495
     10          8           0       -2.552630    1.170536    0.483327
     11          1           0        3.115725    1.776468   -1.203567
     12          1           0        1.396265    2.224574   -1.245361
     13          1           0        2.227220    2.084504    0.313387
     14          1           0        1.688537   -0.238464   -1.622337
     15          1           0        2.570121   -1.962169    0.153277
     16          1           0       -0.293333   -1.173630   -1.385654
     17          1           0       -2.146211   -2.045364   -0.264927
     18          1           0       -1.603838   -1.251761    1.233145
     19          1           0       -1.661640    1.156333    0.904432
 ---------------------------------------------------------------------
 Rotational constants (GHZ):           2.7173547           0.5151390           0.4797371
 Leave Link  202 at Fri Mar 14 14:23:25 2025, MaxMem=  8589934592 cpu:               0.2 elap:               0.2
 (Enter /home/enzo/gaussian_versions/gdv.j21/gdv/l301.exe)
 Standard basis: 6-31G(d) (6D, 7F)
 Ernie: Thresh=  0.10000D-02 Tol=  0.10000D-05 Strict=F.
 There are   172 symmetry adapted cartesian basis functions of A   symmetry.
 There are   172 symmetry adapted basis functions of A   symmetry.
   172 basis functions,   340 primitive gaussians,   172 cartesian basis functions
    43 alpha electrons       43 beta electrons
       nuclear repulsion energy       622.8977436067 Hartrees.
 IExCor=      4002 DFT=T Ex+Corr=B3LYP ScaHFX=  0.200000
 ScaDFX=  0.800000  0.720000  1.000000  0.810000  1.000000  0.000000
 ScaDFX=  0.000000  0.000000  0.000000  0.000000  0.000000  0.000000
 IRadAn=      5 IRanWt=     -1 IRanGd=            0 ICorTp=0 IEmpDi=  4
 NAtoms=   19 NActive=   19 NUniq=   19 SFac= 1.00D+00 NAtFMM=   60 NAOKFM=F Big=F
 Integral buffers will be    131072 words long.
 Raffenetti 2 integral format.
 Two-electron integral symmetry is turned on.
 Leave Link  301 at Fri Mar 14 14:23:25 2025, MaxMem=  8589934592 cpu:               0.5 elap:               0.3
 (Enter /home/enzo/gaussian_versions/gdv.j21/gdv/l302.exe)
 NPDir=0 NMtPBC=     1 NCelOv=     1 NCel=       1 NClECP=     1 NCelD=      1
         NCelK=      1 NCelE2=     1 NClLst=     1 CellRange=     0.0.
 One-electron integrals computed using PRISM.
 One-electron integral symmetry used in STVInt
 NBasis=   172 RedAO= T EigKep=  2.70D-03  NBF=   172
 NBsUse=   172 1.00D-06 EigRej= -1.00D+00 NBFU=   172
 Precomputing XC quadrature grid using
 IXCGrd= 4 IRadAn=           5 IRanWt=          -1 IRanGd=           0 AccXCQ= 0.00D+00.
 Generated NRdTot=       0 NPtTot=      406876 NUsed=           0 NTot=          64
 NSgBfM=   171   171   171   171   171 MxSgAt=    19 MxSgA2=    19 SizInc=   0.000
 NMBTot=     3467 MaxBatPerAtom=       85 MaxMicBPerAtom=      208 NBfPt=            52136727.
 Leave Link  302 at Fri Mar 14 14:23:26 2025, MaxMem=  8589934592 cpu:               4.3 elap:               0.8
 (Enter /home/enzo/gaussian_versions/gdv.j21/gdv/l303.exe)
 DipDrv:  MaxL=1.
 Leave Link  303 at Fri Mar 14 14:23:26 2025, MaxMem=  8589934592 cpu:               0.6 elap:               0.4
 (Enter /home/enzo/gaussian_versions/gdv.j21/gdv/l401.exe)
 Initial guess from the checkpoint file:  "/local/home/enzo/scratch/Gau-2271009.chk"
 B after Tr=    -0.000000    0.000000    0.000000
         Rot=    0.999975    0.006930    0.000968    0.000197 Ang=   0.80 deg.
 AO Guess basis will be translated and rotated to current coordinates.
 JPrj=2 DoOrth=T DoCkMO=T.
 Generating alternative initial guess.
 ExpMin= 1.17D-01 ExpMax= 2.19D+04 ExpMxC= 3.30D+03 IAcc=3 IRadAn=         5 AccDes= 0.00D+00
 Harris functional with IExCor= 4002 and IRadAn=       5 diagonalized for initial guess.
 HarFok:  IExCor=    4002 AccDes= 0.00D+00 IRadAn=         5 IDoV= 1 UseB2=F ITyADJ=14 ICtDFT=  3500011
 FoFCou: FMM=F IPFlag=           0 FMFlag=      100000 FMFlg1=           0
         NFxFlg=           0 DoJE=T BraDBF=F KetDBF=T FulRan=T
         wScrn=  0.000000 ICntrl=       500 IOpCl=  0 I1Cent=   200000004 NGrid=           0
         NMat0=    1 NMatS0=      1 NMatT0=    0 NMatD0=    1 NMtDS0=    0 NMtDT0=    0
 Petite list used in FoFCou.
 Harris En= -874.546348505970    
 Leave Link  401 at Fri Mar 14 14:23:28 2025, MaxMem=  8589934592 cpu:              10.3 elap:               1.6
 (Enter /home/enzo/gaussian_versions/gdv.j21/gdv/l502.exe)
 Integral symmetry usage will be decided dynamically.
 Closed shell SCF:
 Using DIIS extrapolation, IDIIS=  1040.
 NGot=  8589934592 LenX=  8589843591 LenY=  8589813566
 Requested convergence on RMS density matrix=1.00D-08 within 128 cycles.
 Requested convergence on MAX density matrix=1.00D-06.
 Requested convergence on             energy=1.00D-06.
 No special actions if energy rises.
 Fock matrices will be formed incrementally for  20 cycles.
 Integral accuracy reduced to 1.0D-05 until final iterations.

 Cycle   1  Pass 0  IDiag  1:
 FoFJK:  IHMeth= 1 ICntrl=       0 DoSepK=F KAlg= 0 I1Cent=           0 FoldK=F
 IRaf= 910000000 NMat=       1 IRICut=       1 DoRegI=T DoRafI=F ISym2E= 0 IDoP0=0 IntGTp=1.
 FoFCou: FMM=F IPFlag=           0 FMFlag=      100000 FMFlg1=           0
         NFxFlg=           0 DoJE=F BraDBF=F KetDBF=F FulRan=T
         wScrn=  0.000000 ICntrl=         0 IOpCl=  0 I1Cent=           0 NGrid=           0
         NMat0=    1 NMatS0=      1 NMatT0=    0 NMatD0=    1 NMtDS0=    0 NMtDT0=    0
 Symmetry not used in FoFCou.
 E= -874.576848954671    
 DIIS: error= 2.40D-03 at cycle   1 NSaved=   1.
 NSaved= 1 IEnMin= 1 EnMin= -874.576848954671     IErMin= 1 ErrMin= 2.40D-03
 ErrMax= 2.40D-03  0.00D+00 EMaxC= 1.00D-01 BMatC= 3.01D-03 BMatP= 3.01D-03
 IDIUse=3 WtCom= 9.76D-01 WtEn= 2.40D-02
 Coeff-Com:  0.100D+01
 Coeff-En:   0.100D+01
 Coeff:      0.100D+01
 Gap=     1.546 Goal=   None    Shift=    0.000
 GapD=    1.546 DampG=2.000 DampE=1.000 DampFc=2.0000 IDamp=-1.
 RMSDP=6.79D-04 MaxDP=1.73D-02              OVMax= 1.91D-02

 Cycle   2  Pass 0  IDiag  1:
 RMSU=  6.79D-04    CP:  1.00D+00
 E= -874.582194197191     Delta-E=       -0.005345242520 Rises=F Damp=F
 DIIS: error= 3.27D-04 at cycle   2 NSaved=   2.
 NSaved= 2 IEnMin= 2 EnMin= -874.582194197191     IErMin= 2 ErrMin= 3.27D-04
 ErrMax= 3.27D-04  0.00D+00 EMaxC= 1.00D-01 BMatC= 8.03D-05 BMatP= 3.01D-03
 IDIUse=3 WtCom= 9.97D-01 WtEn= 3.27D-03
 Coeff-Com: -0.465D-01 0.105D+01
 Coeff-En:   0.000D+00 0.100D+01
 Coeff:     -0.463D-01 0.105D+01
 Gap=     0.226 Goal=   None    Shift=    0.000
 RMSDP=1.01D-04 MaxDP=3.49D-03 DE=-5.35D-03 OVMax= 4.13D-03

 Cycle   3  Pass 0  IDiag  1:
 RMSU=  9.31D-05    CP:  1.00D+00  1.06D+00
 E= -874.582175459328     Delta-E=        0.000018737864 Rises=F Damp=F
 DIIS: error= 6.15D-04 at cycle   3 NSaved=   3.
 NSaved= 3 IEnMin= 2 EnMin= -874.582194197191     IErMin= 2 ErrMin= 3.27D-04
 ErrMax= 6.15D-04  0.00D+00 EMaxC= 1.00D-01 BMatC= 1.48D-04 BMatP= 8.03D-05
 IDIUse=3 WtCom= 2.87D-01 WtEn= 7.13D-01
 Coeff-Com: -0.469D-01 0.636D+00 0.411D+00
 Coeff-En:   0.000D+00 0.560D+00 0.440D+00
 Coeff:     -0.135D-01 0.582D+00 0.431D+00
 Gap=     0.226 Goal=   None    Shift=    0.000
 RMSDP=7.45D-05 MaxDP=3.49D-03 DE= 1.87D-05 OVMax= 4.09D-03

 Cycle   4  Pass 0  IDiag  1:
 RMSU=  3.71D-05    CP:  1.00D+00  1.07D+00  3.13D-01
 E= -874.582271379060     Delta-E=       -0.000095919732 Rises=F Damp=F
 DIIS: error= 3.13D-04 at cycle   4 NSaved=   4.
 NSaved= 4 IEnMin= 4 EnMin= -874.582271379060     IErMin= 4 ErrMin= 3.13D-04
 ErrMax= 3.13D-04  0.00D+00 EMaxC= 1.00D-01 BMatC= 2.15D-05 BMatP= 8.03D-05
 IDIUse=3 WtCom= 9.97D-01 WtEn= 3.13D-03
 Coeff-Com: -0.162D-01 0.172D+00 0.290D+00 0.554D+00
 Coeff-En:   0.000D+00 0.000D+00 0.156D+00 0.844D+00
 Coeff:     -0.162D-01 0.172D+00 0.289D+00 0.555D+00
 Gap=     0.226 Goal=   None    Shift=    0.000
 RMSDP=2.34D-05 MaxDP=9.50D-04 DE=-9.59D-05 OVMax= 1.52D-03

 Cycle   5  Pass 0  IDiag  1:
 RMSU=  1.11D-05    CP:  1.00D+00  1.07D+00  4.89D-01  6.68D-01
 E= -874.582287115556     Delta-E=       -0.000015736496 Rises=F Damp=F
 DIIS: error= 6.81D-05 at cycle   5 NSaved=   5.
 NSaved= 5 IEnMin= 5 EnMin= -874.582287115556     IErMin= 5 ErrMin= 6.81D-05
 ErrMax= 6.81D-05  0.00D+00 EMaxC= 1.00D-01 BMatC= 1.17D-06 BMatP= 2.15D-05
 IDIUse=1 WtCom= 1.00D+00 WtEn= 0.00D+00
 Coeff-Com: -0.609D-02 0.549D-01 0.144D+00 0.331D+00 0.476D+00
 Coeff:     -0.609D-02 0.549D-01 0.144D+00 0.331D+00 0.476D+00
 Gap=     0.226 Goal=   None    Shift=    0.000
 RMSDP=5.41D-06 MaxDP=2.48D-04 DE=-1.57D-05 OVMax= 2.92D-04

 Initial convergence to 1.0D-05 achieved.  Increase integral accuracy.
 Cycle   6  Pass 1  IDiag  1:
 E= -874.582271598917     Delta-E=        0.000015516639 Rises=F Damp=F
 DIIS: error= 1.41D-05 at cycle   1 NSaved=   1.
 NSaved= 1 IEnMin= 1 EnMin= -874.582271598917     IErMin= 1 ErrMin= 1.41D-05
 ErrMax= 1.41D-05  0.00D+00 EMaxC= 1.00D-01 BMatC= 6.73D-08 BMatP= 6.73D-08
 IDIUse=1 WtCom= 1.00D+00 WtEn= 0.00D+00
 Coeff-Com:  0.100D+01
 Coeff:      0.100D+01
 Gap=     0.226 Goal=   None    Shift=    0.000
 RMSDP=5.41D-06 MaxDP=2.48D-04 DE= 1.55D-05 OVMax= 1.21D-04

 Cycle   7  Pass 1  IDiag  1:
 RMSU=  3.85D-06    CP:  1.00D+00
 E= -874.582271562283     Delta-E=        0.000000036635 Rises=F Damp=F
 DIIS: error= 2.25D-05 at cycle   2 NSaved=   2.
 NSaved= 2 IEnMin= 1 EnMin= -874.582271598917     IErMin= 1 ErrMin= 1.41D-05
 ErrMax= 2.25D-05  0.00D+00 EMaxC= 1.00D-01 BMatC= 1.26D-07 BMatP= 6.73D-08
 IDIUse=1 WtCom= 1.00D+00 WtEn= 0.00D+00
 Coeff-Com:  0.586D+00 0.414D+00
 Coeff:      0.586D+00 0.414D+00
 Gap=     0.226 Goal=   None    Shift=    0.000
 RMSDP=1.76D-06 MaxDP=8.33D-05 DE= 3.66D-08 OVMax= 1.07D-04

 Cycle   8  Pass 1  IDiag  1:
 RMSU=  1.38D-06    CP:  1.00D+00  7.16D-01
 E= -874.582271652650     Delta-E=       -0.000000090367 Rises=F Damp=F
 DIIS: error= 5.64D-06 at cycle   3 NSaved=   3.
 NSaved= 3 IEnMin= 3 EnMin= -874.582271652650     IErMin= 3 ErrMin= 5.64D-06
 ErrMax= 5.64D-06  0.00D+00 EMaxC= 1.00D-01 BMatC= 5.66D-09 BMatP= 6.73D-08
 IDIUse=1 WtCom= 1.00D+00 WtEn= 0.00D+00
 Coeff-Com:  0.137D+00 0.197D+00 0.666D+00
 Coeff:      0.137D+00 0.197D+00 0.666D+00
 Gap=     0.226 Goal=   None    Shift=    0.000
 RMSDP=5.25D-07 MaxDP=1.84D-05 DE=-9.04D-08 OVMax= 3.22D-05

 Cycle   9  Pass 1  IDiag  1:
 RMSU=  4.23D-07    CP:  1.00D+00  7.66D-01  8.27D-01
 E= -874.582271655315     Delta-E=       -0.000000002666 Rises=F Damp=F
 DIIS: error= 2.69D-06 at cycle   4 NSaved=   4.
 NSaved= 4 IEnMin= 4 EnMin= -874.582271655315     IErMin= 4 ErrMin= 2.69D-06
 ErrMax= 2.69D-06  0.00D+00 EMaxC= 1.00D-01 BMatC= 2.32D-09 BMatP= 5.66D-09
 IDIUse=1 WtCom= 1.00D+00 WtEn= 0.00D+00
 Coeff-Com:  0.241D-01 0.862D-01 0.456D+00 0.433D+00
 Coeff:      0.241D-01 0.862D-01 0.456D+00 0.433D+00
 Gap=     0.226 Goal=   None    Shift=    0.000
 RMSDP=2.41D-07 MaxDP=1.09D-05 DE=-2.67D-09 OVMax= 1.31D-05

 Cycle  10  Pass 1  IDiag  1:
 RMSU=  1.31D-07    CP:  1.00D+00  7.66D-01  8.82D-01  5.58D-01
 E= -874.582271657042     Delta-E=       -0.000000001727 Rises=F Damp=F
 DIIS: error= 4.58D-07 at cycle   5 NSaved=   5.
 NSaved= 5 IEnMin= 5 EnMin= -874.582271657042     IErMin= 5 ErrMin= 4.58D-07
 ErrMax= 4.58D-07  0.00D+00 EMaxC= 1.00D-01 BMatC= 8.03D-11 BMatP= 2.32D-09
 IDIUse=1 WtCom= 1.00D+00 WtEn= 0.00D+00
 Coeff-Com: -0.788D-02 0.165D-01 0.139D+00 0.211D+00 0.642D+00
 Coeff:     -0.788D-02 0.165D-01 0.139D+00 0.211D+00 0.642D+00
 Gap=     0.226 Goal=   None    Shift=    0.000
 RMSDP=5.43D-08 MaxDP=1.56D-06 DE=-1.73D-09 OVMax= 2.70D-06

 Cycle  11  Pass 1  IDiag  1:
 RMSU=  4.13D-08    CP:  1.00D+00  7.70D-01  8.82D-01  5.91D-01  7.98D-01
 E= -874.582271657119     Delta-E=       -0.000000000077 Rises=F Damp=F
 DIIS: error= 6.97D-08 at cycle   6 NSaved=   6.
 NSaved= 6 IEnMin= 6 EnMin= -874.582271657119     IErMin= 6 ErrMin= 6.97D-08
 ErrMax= 6.97D-08  0.00D+00 EMaxC= 1.00D-01 BMatC= 2.70D-12 BMatP= 8.03D-11
 IDIUse=1 WtCom= 1.00D+00 WtEn= 0.00D+00
 Coeff-Com: -0.420D-02 0.238D-02 0.323D-01 0.599D-01 0.232D+00 0.678D+00
 Coeff:     -0.420D-02 0.238D-02 0.323D-01 0.599D-01 0.232D+00 0.678D+00
 Gap=     0.226 Goal=   None    Shift=    0.000
 RMSDP=1.61D-08 MaxDP=4.49D-07 DE=-7.66D-11 OVMax= 8.13D-07

 Cycle  12  Pass 1  IDiag  1:
 RMSU=  1.44D-08    CP:  1.00D+00  7.70D-01  8.84D-01  5.96D-01  8.43D-01
                    CP:  9.40D-01
 E= -874.582271657123     Delta-E=       -0.000000000004 Rises=F Damp=F
 DIIS: error= 4.63D-08 at cycle   7 NSaved=   7.
 NSaved= 7 IEnMin= 7 EnMin= -874.582271657123     IErMin= 7 ErrMin= 4.63D-08
 ErrMax= 4.63D-08  0.00D+00 EMaxC= 1.00D-01 BMatC= 8.40D-13 BMatP= 2.70D-12
 IDIUse=1 WtCom= 1.00D+00 WtEn= 0.00D+00
 Coeff-Com: -0.577D-03-0.197D-02-0.109D-01-0.111D-01-0.140D-01 0.358D+00
 Coeff-Com:  0.681D+00
 Coeff:     -0.577D-03-0.197D-02-0.109D-01-0.111D-01-0.140D-01 0.358D+00
 Coeff:      0.681D+00
 Gap=     0.226 Goal=   None    Shift=    0.000
 RMSDP=8.55D-09 MaxDP=2.39D-07 DE=-4.32D-12 OVMax= 4.90D-07

 SCF Done:  E(RB3LYP) =  -874.582271657     A.U. after   12 cycles
            NFock= 12  Conv=0.85D-08     -V/T= 2.0064
 KE= 8.689774907675D+02 PE=-3.304873995981D+03 EE= 9.384164899500D+02
 Leave Link  502 at Fri Mar 14 14:23:38 2025, MaxMem=  8589934592 cpu:              76.3 elap:               9.6
 (Enter /home/enzo/gaussian_versions/gdv.j21/gdv/l701.exe)
 ... and contract with generalized density number  0.
 Compute integral first derivatives.
 Leave Link  701 at Fri Mar 14 14:23:38 2025, MaxMem=  8589934592 cpu:               2.4 elap:               0.6
 (Enter /home/enzo/gaussian_versions/gdv.j21/gdv/l702.exe)
 L702 exits ... SP integral derivatives will be done elsewhere.
 Leave Link  702 at Fri Mar 14 14:23:38 2025, MaxMem=  8589934592 cpu:               0.1 elap:               0.2
 (Enter /home/enzo/gaussian_versions/gdv.j21/gdv/l703.exe)
 Integral derivatives from FoFJK, PRISM(SPDF).
 Compute integral first derivatives, UseDBF=F ICtDFT=           0.
 Calling FoFJK, ICntrl=      2127 FMM=F ISym2X=0 I1Cent= 0 IOpClX= 0 NMat=1 NMatS=1 NMatT=0.
 FoFJK:  IHMeth= 1 ICntrl=    2127 DoSepK=F KAlg= 0 I1Cent=           0 FoldK=F
 IRaf=         0 NMat=       1 IRICut=       1 DoRegI=T DoRafI=F ISym2E= 0 IDoP0=0 IntGTp=1.
 FoFCou: FMM=F IPFlag=           0 FMFlag=      100000 FMFlg1=         800
         NFxFlg=           0 DoJE=F BraDBF=F KetDBF=F FulRan=T
         wScrn=  0.000000 ICntrl=      2127 IOpCl=  0 I1Cent=           0 NGrid=           0
         NMat0=    1 NMatS0=      1 NMatT0=    0 NMatD0=    1 NMtDS0=    0 NMtDT0=    0
 Symmetry not used in FoFCou.
 Leave Link  703 at Fri Mar 14 14:23:40 2025, MaxMem=  8589934592 cpu:              14.7 elap:               2.0
 (Enter /home/enzo/gaussian_versions/gdv.j21/gdv/l716.exe)
 Dipole        = 1.27802050D+00-9.82531736D-01-8.50366945D-01
 ***** Axes restored to original set *****
 -------------------------------------------------------------------
 Center     Atomic                   Forces (Hartrees/Bohr)
 Number     Number              X              Y              Z
 -------------------------------------------------------------------
      1        6           0.000018863   -0.000022891   -0.000728842
      2        6           0.000342781   -0.000926961   -0.001121699
      3       16           0.000107162   -0.001245704    0.000042587
      4        6           0.002926705    0.004091913    0.006053628
      5        8           0.002042497   -0.000321924   -0.002242601
      6        7          -0.003147079   -0.001050399   -0.000582560
      7        6          -0.000167992    0.001100585    0.003714649
      8        6           0.004219557   -0.005100576   -0.012559369
      9        8          -0.002399219    0.002041830    0.003927934
     10        8          -0.002802802    0.001339475    0.003273820
     11        1           0.000096051   -0.000057376   -0.000004817
     12        1          -0.000328337   -0.000247739    0.000042688
     13        1           0.000094407   -0.000018602    0.000462101
     14        1           0.000487917    0.000329325   -0.000020763
     15        1          -0.000420952    0.000629245   -0.000191779
     16        1          -0.000621048   -0.000498455   -0.001144946
     17        1          -0.000138318    0.000271326    0.000128038
     18        1           0.000707865    0.000904405    0.000427128
     19        1          -0.001018059   -0.001217475    0.000524803
 -------------------------------------------------------------------
 Cartesian Forces:  Max     0.012559369 RMS     0.002502527
 Leave Link  716 at Fri Mar 14 14:23:41 2025, MaxMem=  8589934592 cpu:               0.2 elap:               0.3
 (Enter /home/enzo/gaussian_versions/gdv.j21/gdv/l103.exe)

 GradGradGradGradGradGradGradGradGradGradGradGradGradGradGradGradGradGrad
 Berny optimization.
 Using GEDIIS/GDIIS optimizer.
 FormGI is forming the generalized inverse of G from B-inverse, IUseBI=4.
 Internal  Forces:  Max     0.005905362 RMS     0.001891215
 Search for a local minimum.
 Step number   7 out of a maximum of   93
 All quantities printed in internal units (Hartrees-Bohrs-Radians)
 RMS Force = .18912D-02 SwitMx=.10000D-02 MixMth= 1
 Mixed Optimization -- RFO/linear search
 Update second derivatives using D2CorX and points    5    6    7
 DE= -2.28D-04 DEPred=-9.72D-04 R= 2.35D-01
 Trust test= 2.35D-01 RLast= 2.72D-01 DXMaxT set to 3.57D-01
 ITU=  0  1 -1 -1  1  1  0
 Use linear search instead of GDIIS.
     Eigenvalues ---    0.00223   0.00433   0.00514   0.00891   0.00960
     Eigenvalues ---    0.01031   0.01265   0.01606   0.03573   0.04281
     Eigenvalues ---    0.05088   0.05547   0.05657   0.05762   0.06329
     Eigenvalues ---    0.07077   0.07651   0.10165   0.14024   0.15933
     Eigenvalues ---    0.15993   0.15999   0.16015   0.16177   0.17136
     Eigenvalues ---    0.17398   0.19510   0.21983   0.22395   0.22930
     Eigenvalues ---    0.24421   0.24855   0.25363   0.27794   0.30028
     Eigenvalues ---    0.30212   0.32195   0.32580   0.32583   0.32607
     Eigenvalues ---    0.32620   0.32654   0.32962   0.36875   0.40197
     Eigenvalues ---    0.40869   0.45204   0.50104   0.62837   0.80212
     Eigenvalues ---    0.84395
 RFO step:  Lambda=-1.48032561D-03 EMin= 2.23401779D-03
 Quartic linear search produced a step of -0.42738.
 Iteration  1 RMS(Cart)=  0.06495222 RMS(Int)=  0.00156190
 Iteration  2 RMS(Cart)=  0.00246879 RMS(Int)=  0.00012574
 Iteration  3 RMS(Cart)=  0.00000257 RMS(Int)=  0.00012573
 Iteration  4 RMS(Cart)=  0.00000000 RMS(Int)=  0.00012573
 Variable       Old X    -DE/DX   Delta X   Delta X   Delta X     New X
                                 (Linear)    (Quad)   (Total)
    R1        2.89373  -0.00029   0.00205  -0.00638  -0.00434   2.88939
    R2        2.06694  -0.00009  -0.00111   0.00238   0.00126   2.06820
    R3        2.07083  -0.00036  -0.00083   0.00116   0.00034   2.07116
    R4        2.06641  -0.00046  -0.00089   0.00109   0.00021   2.06662
    R5        3.50356   0.00062   0.00192  -0.00183   0.00010   3.50366
    R6        2.89235  -0.00139   0.00438  -0.01236  -0.00798   2.88437
    R7        2.06981  -0.00006  -0.00180   0.00412   0.00232   2.07213
    R8        2.55667  -0.00077  -0.00350   0.00598   0.00248   2.55915
    R9        2.32780   0.00227  -0.00217   0.00707   0.00490   2.33270
   R10        2.57547  -0.00343  -0.00183  -0.00106  -0.00289   2.57258
   R11        2.75961  -0.00095   0.00275  -0.00576  -0.00301   2.75660
   R12        1.91128  -0.00090  -0.00192   0.00312   0.00120   1.91248
   R13        2.91489  -0.00360   0.00754  -0.01742  -0.00988   2.90501
   R14        2.06090  -0.00021  -0.00114   0.00191   0.00077   2.06167
   R15        2.07220  -0.00076  -0.00082   0.00084   0.00002   2.07222
   R16        2.28121  -0.00085  -0.00324   0.00688   0.00364   2.28485
   R17        2.54272  -0.00102   0.00180  -0.00963  -0.00783   2.53489
   R18        1.86250   0.00080  -0.00205   0.00712   0.00507   1.86757
    A1        1.93101  -0.00011   0.00107  -0.00272  -0.00165   1.92936
    A2        1.92102  -0.00009  -0.00055   0.00070   0.00016   1.92117
    A3        1.92181   0.00020  -0.00050   0.00157   0.00107   1.92289
    A4        1.89423  -0.00001   0.00133  -0.00391  -0.00258   1.89164
    A5        1.90887   0.00000   0.00029   0.00018   0.00047   1.90935
    A6        1.88611   0.00001  -0.00169   0.00426   0.00257   1.88868
    A7        1.88651  -0.00001  -0.00204   0.00377   0.00173   1.88824
    A8        1.92913   0.00034  -0.00143   0.00629   0.00486   1.93399
    A9        1.91951  -0.00005   0.00313  -0.00658  -0.00345   1.91607
   A10        1.92501  -0.00021   0.00118  -0.00502  -0.00383   1.92118
   A11        1.87643   0.00015  -0.00178   0.00565   0.00387   1.88030
   A12        1.92613  -0.00023   0.00089  -0.00405  -0.00316   1.92297
   A13        1.68677   0.00037   0.00174  -0.00316  -0.00142   1.68535
   A14        2.13854   0.00161  -0.00010   0.00095   0.00078   2.13932
   A15        2.01865   0.00153  -0.00654   0.01695   0.01035   2.02899
   A16        2.12514  -0.00308   0.00692  -0.01712  -0.01027   2.11487
   A17        2.13163  -0.00591   0.00607  -0.01964  -0.01362   2.11800
   A18        2.08709   0.00240  -0.00102   0.00439   0.00332   2.09042
   A19        2.05926   0.00340  -0.00684   0.01967   0.01279   2.07205
   A20        1.98975  -0.00395   0.01016  -0.02315  -0.01300   1.97675
   A21        1.89990   0.00143  -0.00234   0.00789   0.00558   1.90548
   A22        1.88542   0.00118  -0.00554   0.01355   0.00796   1.89338
   A23        1.87865   0.00314  -0.00077   0.00368   0.00295   1.88160
   A24        1.90734  -0.00156  -0.00158  -0.00325  -0.00485   1.90249
   A25        1.90139  -0.00013  -0.00026   0.00202   0.00175   1.90314
   A26        2.13507   0.00332   0.00272  -0.00426  -0.00209   2.13298
   A27        2.01049  -0.00581  -0.00207   0.00437   0.00175   2.01224
   A28        2.13172   0.00298   0.00178   0.00499   0.00623   2.13795
   A29        1.92719  -0.00267  -0.00216  -0.00380  -0.00596   1.92123
    D1        1.01342   0.00009   0.00457  -0.01675  -0.01218   1.00124
    D2        3.12169   0.00003   0.00389  -0.01673  -0.01284   3.10885
    D3       -1.03039  -0.00006   0.00616  -0.02206  -0.01590  -1.04629
    D4        3.10683  -0.00005   0.00656  -0.02290  -0.01634   3.09049
    D5       -1.06809  -0.00011   0.00588  -0.02288  -0.01700  -1.08509
    D6        1.06302  -0.00021   0.00815  -0.02821  -0.02006   1.04295
    D7       -1.09880   0.00002   0.00383  -0.01623  -0.01240  -1.11120
    D8        1.00947  -0.00004   0.00315  -0.01621  -0.01306   0.99641
    D9        3.14058  -0.00013   0.00542  -0.02154  -0.01613   3.12445
   D10       -3.09029   0.00010   0.01298  -0.04032  -0.02734  -3.11763
   D11        1.08206  -0.00019   0.01530  -0.04736  -0.03206   1.05000
   D12       -1.01886   0.00012   0.01462  -0.04298  -0.02836  -1.04722
   D13       -0.75170  -0.00035  -0.03034   0.07369   0.04323  -0.70847
   D14        2.34599   0.00096  -0.00239   0.09300   0.09072   2.43672
   D15        1.33348  -0.00028  -0.03303   0.07917   0.04602   1.37950
   D16       -1.85201   0.00103  -0.00508   0.09848   0.09352  -1.75850
   D17       -2.87891  -0.00037  -0.03393   0.08049   0.04645  -2.83247
   D18        0.21878   0.00095  -0.00598   0.09980   0.09394   0.31272
   D19        3.09738  -0.00110   0.00336  -0.05061  -0.04705   3.05033
   D20       -0.15595  -0.00198  -0.01360  -0.00209  -0.01552  -0.17147
   D21       -0.08774   0.00033   0.03117  -0.03098   0.00002  -0.08772
   D22        2.94211  -0.00055   0.01421   0.01754   0.03155   2.97366
   D23        1.40134  -0.00431  -0.01622   0.00268  -0.01353   1.38781
   D24       -2.78445  -0.00187  -0.01218  -0.00213  -0.01432  -2.79877
   D25       -0.72226  -0.00057  -0.01680   0.01224  -0.00454  -0.72680
   D26       -1.63022  -0.00339   0.00004  -0.04421  -0.04417  -1.67439
   D27        0.46718  -0.00095   0.00408  -0.04902  -0.04496   0.42221
   D28        2.52937   0.00034  -0.00054  -0.03465  -0.03519   2.49418
   D29        2.14483  -0.00090  -0.02818  -0.00062  -0.02874   2.11609
   D30       -1.11111   0.00408   0.03011   0.04896   0.07896  -1.03215
   D31        0.03554  -0.00242  -0.03121   0.00151  -0.02961   0.00593
   D32        3.06279   0.00256   0.02708   0.05109   0.07809   3.14088
   D33       -2.02692  -0.00319  -0.02961  -0.00121  -0.03071  -2.05763
   D34        1.00033   0.00179   0.02868   0.04837   0.07699   1.07732
   D35        0.05678  -0.00223  -0.02445  -0.00129  -0.02598   0.03080
   D36        3.08427   0.00276   0.03370   0.04752   0.08146  -3.11746
         Item               Value     Threshold  Converged?
 Maximum Force            0.005905     0.000450     NO 
 RMS     Force            0.001891     0.000300     NO 
 Maximum Displacement     0.230540     0.001800     NO 
 RMS     Displacement     0.065379     0.001200     NO 
 Predicted change in Energy=-1.091782D-03
 Lowest energy point so far.  Saving SCF results.
 GradGradGradGradGradGradGradGradGradGradGradGradGradGradGradGradGradGrad

 Leave Link  103 at Fri Mar 14 14:23:41 2025, MaxMem=  8589934592 cpu:               0.5 elap:               0.3
 (Enter /home/enzo/gaussian_versions/gdv.j21/gdv/l202.exe)
                          Input orientation:                          
 ---------------------------------------------------------------------
 Center     Atomic      Atomic             Coordinates (Angstroms)
 Number     Number       Type             X           Y           Z
 ---------------------------------------------------------------------
      1          6           0       -2.120015    1.868842    0.542592
      2          6           0       -1.706433    0.403293    0.680277
      3         16           0       -3.068807   -0.649569   -0.007427
      4          6           0       -0.405733    0.133982   -0.071641
      5          8           0       -0.165539    0.621667   -1.179903
      6          7           0        0.488380   -0.685779    0.546284
      7          6           0        1.716069   -1.108361   -0.118623
      8          6           0        2.821293   -0.040296   -0.088554
      9          8           0        3.902847   -0.245932    0.411307
     10          8           0        2.503216    1.129864   -0.662078
     11          1           0       -3.069905    2.049647    1.055263
     12          1           0       -1.357744    2.518297    0.988008
     13          1           0       -2.220886    2.134637   -0.513417
     14          1           0       -1.590170    0.148516    1.740436
     15          1           0       -2.488695   -1.844655    0.255662
     16          1           0        0.339332   -0.956441    1.510005
     17          1           0        2.101754   -2.001582    0.374999
     18          1           0        1.480908   -1.349612   -1.162160
     19          1           0        1.571129    1.104897   -0.989615
 ---------------------------------------------------------------------
                    Distance matrix (angstroms):
                    1          2          3          4          5
     1  C    0.000000
     2  C    1.529001   0.000000
     3  S    2.746839   1.854055   0.000000
     4  C    2.515111   1.526344   2.776696   0.000000
     5  O    2.888323   2.425347   3.379306   1.234412   0.000000
     6  N    3.651004   2.453821   3.600207   1.361352   2.262023
     7  C    4.900661   3.825814   4.808107   2.459201   2.767627
     8  C    5.334761   4.613911   5.922084   3.231773   3.248139
     9  O    6.384698   5.653128   6.995872   4.352176   4.453812
    10  O    4.834417   4.477831   5.885780   3.130876   2.765622
    11  H    1.094446   2.170289   2.900876   3.469509   3.933247
    12  H    1.096013   2.165531   3.735506   2.777434   3.117434
    13  H    1.093607   2.164976   2.954116   2.737255   2.637751
    14  H    2.162196   1.096524   2.424527   2.164884   3.283568
    15  H    3.742769   2.417747   1.354244   2.891516   3.679762
    16  H    3.868656   2.592774   3.743285   2.060522   3.159260
    17  H    5.729887   4.514300   5.358068   3.323795   3.799970
    18  H    5.121648   4.077547   4.745880   2.636228   2.568471
    19  H    4.068884   3.744756   5.056862   2.386071   1.812661
                    6          7          8          9         10
     6  N    0.000000
     7  C    1.458731   0.000000
     8  C    2.502429   1.537266   0.000000
     9  O    3.445325   2.409690   1.209093   0.000000
    10  O    2.969220   2.434049   1.341408   2.236948   0.000000
    11  H    4.516969   5.852911   6.354714   7.369099   5.903807
    12  H    3.724164   4.881148   5.016944   5.970541   4.422391
    13  H    4.051894   5.115908   5.507668   6.634932   4.832061
    14  H    2.538191   3.995879   4.779315   5.665280   4.846744
    15  H    3.207870   4.285120   5.618734   6.590292   5.882958
    16  H    1.012043   2.137970   3.091092   3.796130   3.708506
    17  H    2.088935   1.090990   2.139921   2.515464   3.323049
    18  H    2.084363   1.096573   2.159530   3.091875   2.728186
    19  H    2.595737   2.382886   1.919970   3.037141   0.988276
                   11         12         13         14         15
    11  H    0.000000
    12  H    1.776415   0.000000
    13  H    1.785725   1.773834   0.000000
    14  H    2.504671   2.497205   3.069582   0.000000
    15  H    4.017805   4.566260   4.061770   2.642845   0.000000
    16  H    4.567959   3.902096   4.494855   2.235398   3.218701
    17  H    6.604640   5.724789   6.048373   4.485269   4.594681
    18  H    6.097690   5.257555   5.124855   4.483410   4.244177
    19  H    5.158806   3.806178   3.958094   4.285050   5.170372
                   16         17         18         19
    16  H    0.000000
    17  H    2.342369   0.000000
    18  H    2.932277   1.781397   0.000000
    19  H    3.466200   3.434231   2.462219   0.000000
 Stoichiometry    C5H9NO3S
 Framework group  C1[X(C5H9NO3S)]
 Deg. of freedom    51
 Full point group                 C1      NOp   1
 RotChk:  IX=2 Diff= 1.57D-02
 Largest Abelian subgroup         C1      NOp   1
 Largest concise Abelian subgroup C1      NOp   1
                         Standard orientation:                         
 ---------------------------------------------------------------------
 Center     Atomic      Atomic             Coordinates (Angstroms)
 Number     Number       Type             X           Y           Z
 ---------------------------------------------------------------------
      1          6           0        2.204392    1.670711   -0.627118
      2          6           0        1.755933    0.209055   -0.610106
      3         16           0        3.051584   -0.783631    0.269315
      4          6           0        0.412365    0.062300    0.099129
      5          8           0        0.131805    0.685758    1.126922
      6          7           0       -0.473391   -0.805620   -0.462505
      7          6           0       -1.744192   -1.116664    0.182638
      8          6           0       -2.815230   -0.035214   -0.033072
      9          8           0       -3.876207   -0.275135   -0.560967
     10          8           0       -2.492236    1.188173    0.412321
     11          1           0        3.183325    1.766543   -1.107033
     12          1           0        1.484200    2.278706   -1.186502
     13          1           0        2.260507    2.059890    0.393356
     14          1           0        1.684975   -0.169341   -1.636823
     15          1           0        2.450896   -1.988256    0.120887
     16          1           0       -0.284706   -1.194152   -1.377749
     17          1           0       -2.130633   -2.054016   -0.220218
     18          1           0       -1.568051   -1.235241    1.258457
     19          1           0       -1.578617    1.181803    0.789085
 ---------------------------------------------------------------------
 Rotational constants (GHZ):           2.7052801           0.5271821           0.4858044
 Leave Link  202 at Fri Mar 14 14:23:41 2025, MaxMem=  8589934592 cpu:               0.2 elap:               0.2
 (Enter /home/enzo/gaussian_versions/gdv.j21/gdv/l301.exe)
 Standard basis: 6-31G(d) (6D, 7F)
 Ernie: Thresh=  0.10000D-02 Tol=  0.10000D-05 Strict=F.
 There are   172 symmetry adapted cartesian basis functions of A   symmetry.
 There are   172 symmetry adapted basis functions of A   symmetry.
   172 basis functions,   340 primitive gaussians,   172 cartesian basis functions
    43 alpha electrons       43 beta electrons
       nuclear repulsion energy       625.7771100396 Hartrees.
 IExCor=      4002 DFT=T Ex+Corr=B3LYP ScaHFX=  0.200000
 ScaDFX=  0.800000  0.720000  1.000000  0.810000  1.000000  0.000000
 ScaDFX=  0.000000  0.000000  0.000000  0.000000  0.000000  0.000000
 IRadAn=      5 IRanWt=     -1 IRanGd=            0 ICorTp=0 IEmpDi=  4
 NAtoms=   19 NActive=   19 NUniq=   19 SFac= 1.00D+00 NAtFMM=   60 NAOKFM=F Big=F
 Integral buffers will be    131072 words long.
 Raffenetti 2 integral format.
 Two-electron integral symmetry is turned on.
 Leave Link  301 at Fri Mar 14 14:23:42 2025, MaxMem=  8589934592 cpu:               0.5 elap:               0.3
 (Enter /home/enzo/gaussian_versions/gdv.j21/gdv/l302.exe)
 NPDir=0 NMtPBC=     1 NCelOv=     1 NCel=       1 NClECP=     1 NCelD=      1
         NCelK=      1 NCelE2=     1 NClLst=     1 CellRange=     0.0.
 One-electron integrals computed using PRISM.
 One-electron integral symmetry used in STVInt
 NBasis=   172 RedAO= T EigKep=  2.69D-03  NBF=   172
 NBsUse=   172 1.00D-06 EigRej= -1.00D+00 NBFU=   172
 Precomputing XC quadrature grid using
 IXCGrd= 4 IRadAn=           5 IRanWt=          -1 IRanGd=           0 AccXCQ= 0.00D+00.
 Generated NRdTot=       0 NPtTot=      406788 NUsed=           0 NTot=          64
 NSgBfM=   171   171   171   171   171 MxSgAt=    19 MxSgA2=    19 SizInc=   0.000
 NMBTot=     3440 MaxBatPerAtom=       85 MaxMicBPerAtom=      208 NBfPt=            52277564.
 Leave Link  302 at Fri Mar 14 14:23:43 2025, MaxMem=  8589934592 cpu:               6.0 elap:               1.1
 (Enter /home/enzo/gaussian_versions/gdv.j21/gdv/l303.exe)
 DipDrv:  MaxL=1.
 Leave Link  303 at Fri Mar 14 14:23:43 2025, MaxMem=  8589934592 cpu:               1.2 elap:               0.5
 (Enter /home/enzo/gaussian_versions/gdv.j21/gdv/l401.exe)
 Initial guess from the checkpoint file:  "/local/home/enzo/scratch/Gau-2271009.chk"
 B after Tr=     0.000000    0.000000    0.000000
         Rot=    0.999992    0.000273    0.001357    0.003632 Ang=   0.45 deg.
 AO Guess basis will be translated and rotated to current coordinates.
 JPrj=2 DoOrth=T DoCkMO=T.
 Generating alternative initial guess.
 ExpMin= 1.17D-01 ExpMax= 2.19D+04 ExpMxC= 3.30D+03 IAcc=3 IRadAn=         5 AccDes= 0.00D+00
 Harris functional with IExCor= 4002 and IRadAn=       5 diagonalized for initial guess.
 HarFok:  IExCor=    4002 AccDes= 0.00D+00 IRadAn=         5 IDoV= 1 UseB2=F ITyADJ=14 ICtDFT=  3500011
 FoFCou: FMM=F IPFlag=           0 FMFlag=      100000 FMFlg1=           0
         NFxFlg=           0 DoJE=T BraDBF=F KetDBF=T FulRan=T
         wScrn=  0.000000 ICntrl=       500 IOpCl=  0 I1Cent=   200000004 NGrid=           0
         NMat0=    1 NMatS0=      1 NMatT0=    0 NMatD0=    1 NMtDS0=    0 NMtDT0=    0
 Petite list used in FoFCou.
 Harris En= -874.546870765029    
 Leave Link  401 at Fri Mar 14 14:23:45 2025, MaxMem=  8589934592 cpu:               7.5 elap:               1.3
 (Enter /home/enzo/gaussian_versions/gdv.j21/gdv/l502.exe)
 Integral symmetry usage will be decided dynamically.
 Closed shell SCF:
 Using DIIS extrapolation, IDIIS=  1040.
 NGot=  8589934592 LenX=  8589843591 LenY=  8589813566
 Requested convergence on RMS density matrix=1.00D-08 within 128 cycles.
 Requested convergence on MAX density matrix=1.00D-06.
 Requested convergence on             energy=1.00D-06.
 No special actions if energy rises.
 Fock matrices will be formed incrementally for  20 cycles.
 Integral accuracy reduced to 1.0D-05 until final iterations.

 Cycle   1  Pass 0  IDiag  1:
 FoFJK:  IHMeth= 1 ICntrl=       0 DoSepK=F KAlg= 0 I1Cent=           0 FoldK=F
 IRaf= 910000000 NMat=       1 IRICut=       1 DoRegI=T DoRafI=F ISym2E= 0 IDoP0=0 IntGTp=1.
 FoFCou: FMM=F IPFlag=           0 FMFlag=      100000 FMFlg1=           0
         NFxFlg=           0 DoJE=F BraDBF=F KetDBF=F FulRan=T
         wScrn=  0.000000 ICntrl=         0 IOpCl=  0 I1Cent=           0 NGrid=           0
         NMat0=    1 NMatS0=      1 NMatT0=    0 NMatD0=    1 NMtDS0=    0 NMtDT0=    0
 Symmetry not used in FoFCou.
 E= -874.575593424647    
 DIIS: error= 3.27D-03 at cycle   1 NSaved=   1.
 NSaved= 1 IEnMin= 1 EnMin= -874.575593424647     IErMin= 1 ErrMin= 3.27D-03
 ErrMax= 3.27D-03  0.00D+00 EMaxC= 1.00D-01 BMatC= 3.68D-03 BMatP= 3.68D-03
 IDIUse=3 WtCom= 9.67D-01 WtEn= 3.27D-02
 Coeff-Com:  0.100D+01
 Coeff-En:   0.100D+01
 Coeff:      0.100D+01
 Gap=     1.522 Goal=   None    Shift=    0.000
 GapD=    1.522 DampG=2.000 DampE=1.000 DampFc=2.0000 IDamp=-1.
 RMSDP=7.30D-04 MaxDP=1.55D-02              OVMax= 2.05D-02

 Cycle   2  Pass 0  IDiag  1:
 RMSU=  7.30D-04    CP:  1.00D+00
 E= -874.582969393412     Delta-E=       -0.007375968765 Rises=F Damp=F
 DIIS: error= 8.79D-04 at cycle   2 NSaved=   2.
 NSaved= 2 IEnMin= 2 EnMin= -874.582969393412     IErMin= 2 ErrMin= 8.79D-04
 ErrMax= 8.79D-04  0.00D+00 EMaxC= 1.00D-01 BMatC= 1.27D-04 BMatP= 3.68D-03
 IDIUse=3 WtCom= 9.91D-01 WtEn= 8.79D-03
 Coeff-Com: -0.279D-01 0.103D+01
 Coeff-En:   0.000D+00 0.100D+01
 Coeff:     -0.276D-01 0.103D+01
 Gap=     0.224 Goal=   None    Shift=    0.000
 RMSDP=1.48D-04 MaxDP=4.61D-03 DE=-7.38D-03 OVMax= 5.45D-03

 Cycle   3  Pass 0  IDiag  1:
 RMSU=  1.42D-04    CP:  1.00D+00  1.06D+00
 E= -874.582912673556     Delta-E=        0.000056719856 Rises=F Damp=F
 DIIS: error= 9.00D-04 at cycle   3 NSaved=   3.
 NSaved= 3 IEnMin= 2 EnMin= -874.582969393412     IErMin= 2 ErrMin= 8.79D-04
 ErrMax= 9.00D-04  0.00D+00 EMaxC= 1.00D-01 BMatC= 2.81D-04 BMatP= 1.27D-04
 IDIUse=3 WtCom= 2.50D-01 WtEn= 7.50D-01
 Coeff-Com: -0.452D-01 0.646D+00 0.399D+00
 Coeff-En:   0.000D+00 0.592D+00 0.408D+00
 Coeff:     -0.113D-01 0.606D+00 0.406D+00
 Gap=     0.223 Goal=   None    Shift=    0.000
 RMSDP=9.68D-05 MaxDP=3.25D-03 DE= 5.67D-05 OVMax= 4.81D-03

 Cycle   4  Pass 0  IDiag  1:
 RMSU=  4.69D-05    CP:  1.00D+00  1.08D+00  4.12D-01
 E= -874.583109993165     Delta-E=       -0.000197319609 Rises=F Damp=F
 DIIS: error= 2.13D-04 at cycle   4 NSaved=   4.
 NSaved= 4 IEnMin= 4 EnMin= -874.583109993165     IErMin= 4 ErrMin= 2.13D-04
 ErrMax= 2.13D-04  0.00D+00 EMaxC= 1.00D-01 BMatC= 2.07D-05 BMatP= 1.27D-04
 IDIUse=3 WtCom= 9.98D-01 WtEn= 2.13D-03
 Coeff-Com: -0.208D-01 0.217D+00 0.246D+00 0.558D+00
 Coeff-En:   0.000D+00 0.000D+00 0.400D-01 0.960D+00
 Coeff:     -0.207D-01 0.216D+00 0.246D+00 0.559D+00
 Gap=     0.223 Goal=   None    Shift=    0.000
 RMSDP=2.74D-05 MaxDP=7.67D-04 DE=-1.97D-04 OVMax= 1.37D-03

 Cycle   5  Pass 0  IDiag  1:
 RMSU=  1.75D-05    CP:  1.00D+00  1.08D+00  5.20D-01  7.02D-01
 E= -874.583124147194     Delta-E=       -0.000014154029 Rises=F Damp=F
 DIIS: error= 7.21D-05 at cycle   5 NSaved=   5.
 NSaved= 5 IEnMin= 5 EnMin= -874.583124147194     IErMin= 5 ErrMin= 7.21D-05
 ErrMax= 7.21D-05  0.00D+00 EMaxC= 1.00D-01 BMatC= 2.67D-06 BMatP= 2.07D-05
 IDIUse=1 WtCom= 1.00D+00 WtEn= 0.00D+00
 Coeff-Com: -0.788D-02 0.680D-01 0.114D+00 0.358D+00 0.468D+00
 Coeff:     -0.788D-02 0.680D-01 0.114D+00 0.358D+00 0.468D+00
 Gap=     0.223 Goal=   None    Shift=    0.000
 RMSDP=8.75D-06 MaxDP=2.33D-04 DE=-1.42D-05 OVMax= 3.58D-04

 Initial convergence to 1.0D-05 achieved.  Increase integral accuracy.
 Cycle   6  Pass 1  IDiag  1:
 E= -874.583104182341     Delta-E=        0.000019964853 Rises=F Damp=F
 DIIS: error= 1.42D-05 at cycle   1 NSaved=   1.
 NSaved= 1 IEnMin= 1 EnMin= -874.583104182341     IErMin= 1 ErrMin= 1.42D-05
 ErrMax= 1.42D-05  0.00D+00 EMaxC= 1.00D-01 BMatC= 8.74D-08 BMatP= 8.74D-08
 IDIUse=1 WtCom= 1.00D+00 WtEn= 0.00D+00
 Coeff-Com:  0.100D+01
 Coeff:      0.100D+01
 Gap=     0.223 Goal=   None    Shift=    0.000
 RMSDP=8.75D-06 MaxDP=2.33D-04 DE= 2.00D-05 OVMax= 1.69D-04

 Cycle   7  Pass 1  IDiag  1:
 RMSU=  4.70D-06    CP:  1.00D+00
 E= -874.583104117423     Delta-E=        0.000000064919 Rises=F Damp=F
 DIIS: error= 2.41D-05 at cycle   2 NSaved=   2.
 NSaved= 2 IEnMin= 1 EnMin= -874.583104182341     IErMin= 1 ErrMin= 1.42D-05
 ErrMax= 2.41D-05  0.00D+00 EMaxC= 1.00D-01 BMatC= 2.01D-07 BMatP= 8.74D-08
 IDIUse=1 WtCom= 1.00D+00 WtEn= 0.00D+00
 Coeff-Com:  0.612D+00 0.388D+00
 Coeff:      0.612D+00 0.388D+00
 Gap=     0.223 Goal=   None    Shift=    0.000
 RMSDP=2.39D-06 MaxDP=6.88D-05 DE= 6.49D-08 OVMax= 9.84D-05

 Cycle   8  Pass 1  IDiag  1:
 RMSU=  1.88D-06    CP:  1.00D+00  6.92D-01
 E= -874.583104267853     Delta-E=       -0.000000150430 Rises=F Damp=F
 DIIS: error= 4.09D-06 at cycle   3 NSaved=   3.
 NSaved= 3 IEnMin= 3 EnMin= -874.583104267853     IErMin= 3 ErrMin= 4.09D-06
 ErrMax= 4.09D-06  0.00D+00 EMaxC= 1.00D-01 BMatC= 7.77D-09 BMatP= 8.74D-08
 IDIUse=1 WtCom= 1.00D+00 WtEn= 0.00D+00
 Coeff-Com:  0.190D+00 0.193D+00 0.617D+00
 Coeff:      0.190D+00 0.193D+00 0.617D+00
 Gap=     0.223 Goal=   None    Shift=    0.000
 RMSDP=6.68D-07 MaxDP=1.70D-05 DE=-1.50D-07 OVMax= 3.45D-05

 Cycle   9  Pass 1  IDiag  1:
 RMSU=  5.61D-07    CP:  1.00D+00  7.25D-01  8.29D-01
 E= -874.583104272230     Delta-E=       -0.000000004377 Rises=F Damp=F
 DIIS: error= 2.38D-06 at cycle   4 NSaved=   4.
 NSaved= 4 IEnMin= 4 EnMin= -874.583104272230     IErMin= 4 ErrMin= 2.38D-06
 ErrMax= 2.38D-06  0.00D+00 EMaxC= 1.00D-01 BMatC= 2.85D-09 BMatP= 7.77D-09
 IDIUse=1 WtCom= 1.00D+00 WtEn= 0.00D+00
 Coeff-Com:  0.108D-01 0.568D-01 0.417D+00 0.516D+00
 Coeff:      0.108D-01 0.568D-01 0.417D+00 0.516D+00
 Gap=     0.223 Goal=   None    Shift=    0.000
 RMSDP=2.94D-07 MaxDP=1.00D-05 DE=-4.38D-09 OVMax= 1.41D-05

 Cycle  10  Pass 1  IDiag  1:
 RMSU=  1.93D-07    CP:  1.00D+00  7.30D-01  9.06D-01  7.04D-01
 E= -874.583104274434     Delta-E=       -0.000000002204 Rises=F Damp=F
 DIIS: error= 7.51D-07 at cycle   5 NSaved=   5.
 NSaved= 5 IEnMin= 5 EnMin= -874.583104274434     IErMin= 5 ErrMin= 7.51D-07
 ErrMax= 7.51D-07  0.00D+00 EMaxC= 1.00D-01 BMatC= 1.49D-10 BMatP= 2.85D-09
 IDIUse=1 WtCom= 1.00D+00 WtEn= 0.00D+00
 Coeff-Com: -0.155D-01 0.649D-02 0.131D+00 0.254D+00 0.624D+00
 Coeff:     -0.155D-01 0.649D-02 0.131D+00 0.254D+00 0.624D+00
 Gap=     0.223 Goal=   None    Shift=    0.000
 RMSDP=9.44D-08 MaxDP=2.03D-06 DE=-2.20D-09 OVMax= 4.79D-06

 Cycle  11  Pass 1  IDiag  1:
 RMSU=  7.94D-08    CP:  1.00D+00  7.38D-01  9.10D-01  7.14D-01  8.31D-01
 E= -874.583104274574     Delta-E=       -0.000000000140 Rises=F Damp=F
 DIIS: error= 1.45D-07 at cycle   6 NSaved=   6.
 NSaved= 6 IEnMin= 6 EnMin= -874.583104274574     IErMin= 6 ErrMin= 1.45D-07
 ErrMax= 1.45D-07  0.00D+00 EMaxC= 1.00D-01 BMatC= 1.23D-11 BMatP= 1.49D-10
 IDIUse=1 WtCom= 1.00D+00 WtEn= 0.00D+00
 Coeff-Com: -0.779D-02-0.265D-02 0.160D-01 0.623D-01 0.276D+00 0.656D+00
 Coeff:     -0.779D-02-0.265D-02 0.160D-01 0.623D-01 0.276D+00 0.656D+00
 Gap=     0.223 Goal=   None    Shift=    0.000
 RMSDP=3.03D-08 MaxDP=5.39D-07 DE=-1.40D-10 OVMax= 1.66D-06

 Cycle  12  Pass 1  IDiag  1:
 RMSU=  2.11D-08    CP:  1.00D+00  7.38D-01  9.13D-01  7.37D-01  9.11D-01
                    CP:  9.09D-01
 E= -874.583104274581     Delta-E=       -0.000000000007 Rises=F Damp=F
 DIIS: error= 3.07D-08 at cycle   7 NSaved=   7.
 NSaved= 7 IEnMin= 7 EnMin= -874.583104274581     IErMin= 7 ErrMin= 3.07D-08
 ErrMax= 3.07D-08  0.00D+00 EMaxC= 1.00D-01 BMatC= 9.34D-13 BMatP= 1.23D-11
 IDIUse=1 WtCom= 1.00D+00 WtEn= 0.00D+00
 Coeff-Com: -0.466D-03-0.202D-02-0.143D-01-0.161D-01 0.521D-02 0.225D+00
 Coeff-Com:  0.803D+00
 Coeff:     -0.466D-03-0.202D-02-0.143D-01-0.161D-01 0.521D-02 0.225D+00
 Coeff:      0.803D+00
 Gap=     0.223 Goal=   None    Shift=    0.000
 RMSDP=1.02D-08 MaxDP=2.52D-07 DE=-7.05D-12 OVMax= 8.23D-07

 Cycle  13  Pass 1  IDiag  1:
 RMSU=  4.81D-09    CP:  1.00D+00  7.38D-01  9.14D-01  7.41D-01  9.35D-01
                    CP:  9.84D-01  8.46D-01
 E= -874.583104274581     Delta-E=        0.000000000000 Rises=F Damp=F
 DIIS: error= 1.75D-08 at cycle   8 NSaved=   8.
 NSaved= 8 IEnMin= 7 EnMin= -874.583104274581     IErMin= 8 ErrMin= 1.75D-08
 ErrMax= 1.75D-08  0.00D+00 EMaxC= 1.00D-01 BMatC= 1.78D-13 BMatP= 9.34D-13
 IDIUse=1 WtCom= 1.00D+00 WtEn= 0.00D+00
 Coeff-Com:  0.167D-03-0.990D-03-0.883D-02-0.123D-01-0.116D-01 0.883D-01
 Coeff-Com:  0.441D+00 0.504D+00
 Coeff:      0.167D-03-0.990D-03-0.883D-02-0.123D-01-0.116D-01 0.883D-01
 Coeff:      0.441D+00 0.504D+00
 Gap=     0.223 Goal=   None    Shift=    0.000
 RMSDP=2.81D-09 MaxDP=7.84D-08 DE= 0.00D+00 OVMax= 1.11D-07

 SCF Done:  E(RB3LYP) =  -874.583104275     A.U. after   13 cycles
            NFock= 13  Conv=0.28D-08     -V/T= 2.0064
 KE= 8.690067627893D+02 PE=-3.310617331106D+03 EE= 9.412503540029D+02
 Leave Link  502 at Fri Mar 14 14:23:57 2025, MaxMem=  8589934592 cpu:              88.3 elap:              12.4
 (Enter /home/enzo/gaussian_versions/gdv.j21/gdv/l701.exe)
 ... and contract with generalized density number  0.
 Compute integral first derivatives.
 Leave Link  701 at Fri Mar 14 14:23:58 2025, MaxMem=  8589934592 cpu:               2.7 elap:               0.5
 (Enter /home/enzo/gaussian_versions/gdv.j21/gdv/l702.exe)
 L702 exits ... SP integral derivatives will be done elsewhere.
 Leave Link  702 at Fri Mar 14 14:23:58 2025, MaxMem=  8589934592 cpu:               0.1 elap:               0.2
 (Enter /home/enzo/gaussian_versions/gdv.j21/gdv/l703.exe)
 Integral derivatives from FoFJK, PRISM(SPDF).
 Compute integral first derivatives, UseDBF=F ICtDFT=           0.
 Calling FoFJK, ICntrl=      2127 FMM=F ISym2X=0 I1Cent= 0 IOpClX= 0 NMat=1 NMatS=1 NMatT=0.
 FoFJK:  IHMeth= 1 ICntrl=    2127 DoSepK=F KAlg= 0 I1Cent=           0 FoldK=F
 IRaf=         0 NMat=       1 IRICut=       1 DoRegI=T DoRafI=F ISym2E= 0 IDoP0=0 IntGTp=1.
 FoFCou: FMM=F IPFlag=           0 FMFlag=      100000 FMFlg1=         800
         NFxFlg=           0 DoJE=F BraDBF=F KetDBF=F FulRan=T
         wScrn=  0.000000 ICntrl=      2127 IOpCl=  0 I1Cent=           0 NGrid=           0
         NMat0=    1 NMatS0=      1 NMatT0=    0 NMatD0=    1 NMtDS0=    0 NMtDT0=    0
 Symmetry not used in FoFCou.
 Leave Link  703 at Fri Mar 14 14:24:00 2025, MaxMem=  8589934592 cpu:              16.2 elap:               2.4
 (Enter /home/enzo/gaussian_versions/gdv.j21/gdv/l716.exe)
 Dipole        = 1.38165703D+00-9.87740480D-01-8.42690930D-01
 ***** Axes restored to original set *****
 -------------------------------------------------------------------
 Center     Atomic                   Forces (Hartrees/Bohr)
 Number     Number              X              Y              Z
 -------------------------------------------------------------------
      1        6          -0.000844087    0.000880265   -0.000463876
      2        6           0.000972246   -0.000108184    0.001478225
      3       16           0.000590355   -0.001925677    0.000101988
      4        6           0.001092378   -0.001118851    0.002034504
      5        8           0.000146179    0.001790274   -0.000052223
      6        7          -0.004968680    0.000254943   -0.000306175
      7        6           0.002314610   -0.001674885    0.000425636
      8        6           0.004184443   -0.000143149    0.001987425
      9        8          -0.001904959    0.000647183   -0.001858605
     10        8          -0.001128629    0.001089289    0.001073645
     11        1           0.000374560    0.000006913   -0.000288413
     12        1          -0.000320753   -0.000345628   -0.000271607
     13        1           0.000141483    0.000089061    0.000671751
     14        1           0.000198875    0.000042532   -0.000655599
     15        1          -0.000893827    0.001139755   -0.000324700
     16        1           0.000289000   -0.000244065   -0.001521884
     17        1          -0.000488865    0.000632672    0.000079319
     18        1          -0.000831611    0.000135166    0.000718920
     19        1           0.001077281   -0.001147616   -0.002828331
 -------------------------------------------------------------------
 Cartesian Forces:  Max     0.004968680 RMS     0.001344205
 Leave Link  716 at Fri Mar 14 14:24:00 2025, MaxMem=  8589934592 cpu:               0.2 elap:               0.2
 (Enter /home/enzo/gaussian_versions/gdv.j21/gdv/l103.exe)

 GradGradGradGradGradGradGradGradGradGradGradGradGradGradGradGradGradGrad
 Berny optimization.
 Using GEDIIS/GDIIS optimizer.
 FormGI is forming the generalized inverse of G from B-inverse, IUseBI=4.
 Internal  Forces:  Max     0.004011224 RMS     0.001167596
 Search for a local minimum.
 Step number   8 out of a maximum of   93
 All quantities printed in internal units (Hartrees-Bohrs-Radians)
 RMS Force = .11676D-02 SwitMx=.10000D-02 MixMth= 1
 Mixed Optimization -- RFO/linear search
 Update second derivatives using D2CorX and points    6    7    8
 DE= -8.33D-04 DEPred=-1.09D-03 R= 7.63D-01
 TightC=F SS=  1.41D+00  RLast= 2.74D-01 DXNew= 6.0000D-01 8.2327D-01
 Trust test= 7.63D-01 RLast= 2.74D-01 DXMaxT set to 6.00D-01
 ITU=  1  0  1 -1 -1  1  1  0
 Use linear search instead of GDIIS.
     Eigenvalues ---    0.00226   0.00397   0.00474   0.00884   0.00997
     Eigenvalues ---    0.01142   0.01272   0.01605   0.03398   0.05043
     Eigenvalues ---    0.05516   0.05662   0.05675   0.05812   0.06356
     Eigenvalues ---    0.07030   0.07669   0.10244   0.14035   0.15891
     Eigenvalues ---    0.15996   0.16005   0.16033   0.16216   0.17106
     Eigenvalues ---    0.17426   0.19448   0.21900   0.22387   0.24255
     Eigenvalues ---    0.24607   0.25150   0.26142   0.28760   0.30018
     Eigenvalues ---    0.30114   0.31856   0.32582   0.32589   0.32606
     Eigenvalues ---    0.32621   0.32652   0.33208   0.36132   0.40417
     Eigenvalues ---    0.41859   0.45253   0.49926   0.61965   0.80552
     Eigenvalues ---    0.84261
 RFO step:  Lambda=-7.80161571D-04 EMin= 2.25684489D-03
 Quartic linear search produced a step of -0.17595.
 Iteration  1 RMS(Cart)=  0.03630341 RMS(Int)=  0.00059485
 Iteration  2 RMS(Cart)=  0.00088854 RMS(Int)=  0.00005939
 Iteration  3 RMS(Cart)=  0.00000043 RMS(Int)=  0.00005939
 Variable       Old X    -DE/DX   Delta X   Delta X   Delta X     New X
                                 (Linear)    (Quad)   (Total)
    R1        2.88939   0.00081   0.00076  -0.00045   0.00032   2.88971
    R2        2.06820  -0.00046  -0.00022   0.00001  -0.00021   2.06799
    R3        2.07116  -0.00054  -0.00006  -0.00060  -0.00066   2.07050
    R4        2.06662  -0.00064  -0.00004  -0.00084  -0.00087   2.06575
    R5        3.50366   0.00075  -0.00002   0.00196   0.00194   3.50560
    R6        2.88437  -0.00010   0.00140  -0.00278  -0.00137   2.88300
    R7        2.07213  -0.00062  -0.00041   0.00000  -0.00041   2.07172
    R8        2.55915  -0.00145  -0.00044  -0.00136  -0.00180   2.55736
    R9        2.33270   0.00078  -0.00086   0.00346   0.00260   2.33530
   R10        2.57258  -0.00170   0.00051  -0.00237  -0.00186   2.57072
   R11        2.75660   0.00303   0.00053   0.00416   0.00469   2.76129
   R12        1.91248  -0.00143  -0.00021  -0.00086  -0.00107   1.91141
   R13        2.90501   0.00188   0.00174   0.00386   0.00560   2.91061
   R14        2.06167  -0.00066  -0.00014  -0.00087  -0.00100   2.06067
   R15        2.07222  -0.00054  -0.00000  -0.00016  -0.00016   2.07206
   R16        2.28485  -0.00258  -0.00064   0.00089   0.00025   2.28510
   R17        2.53489   0.00071   0.00138  -0.00351  -0.00213   2.53276
   R18        1.86757  -0.00005  -0.00089   0.00311   0.00221   1.86979
    A1        1.92936   0.00013   0.00029   0.00064   0.00093   1.93029
    A2        1.92117  -0.00015  -0.00003  -0.00074  -0.00076   1.92041
    A3        1.92289   0.00030  -0.00019   0.00101   0.00082   1.92371
    A4        1.89164   0.00001   0.00045  -0.00102  -0.00056   1.89108
    A5        1.90935  -0.00015  -0.00008   0.00029   0.00020   1.90955
    A6        1.88868  -0.00015  -0.00045  -0.00023  -0.00068   1.88800
    A7        1.88824  -0.00008  -0.00030   0.00009  -0.00021   1.88803
    A8        1.93399   0.00047  -0.00086   0.00587   0.00501   1.93901
    A9        1.91607   0.00010   0.00061   0.00083   0.00144   1.91750
   A10        1.92118  -0.00034   0.00067  -0.00520  -0.00453   1.91665
   A11        1.88030   0.00006  -0.00068   0.00070   0.00002   1.88031
   A12        1.92297  -0.00022   0.00056  -0.00240  -0.00186   1.92111
   A13        1.68535   0.00076   0.00025   0.00229   0.00254   1.68790
   A14        2.13932  -0.00001  -0.00014  -0.00183  -0.00198   2.13734
   A15        2.02899  -0.00162  -0.00182   0.00098  -0.00085   2.02814
   A16        2.11487   0.00163   0.00181   0.00089   0.00268   2.11754
   A17        2.11800   0.00401   0.00240   0.00595   0.00836   2.12637
   A18        2.09042  -0.00175  -0.00058  -0.00263  -0.00319   2.08722
   A19        2.07205  -0.00228  -0.00225  -0.00313  -0.00536   2.06668
   A20        1.97675   0.00264   0.00229   0.00816   0.01044   1.98719
   A21        1.90548  -0.00193  -0.00098  -0.00749  -0.00847   1.89701
   A22        1.89338  -0.00053  -0.00140   0.00073  -0.00070   1.89267
   A23        1.88160   0.00035  -0.00052  -0.00263  -0.00313   1.87847
   A24        1.90249  -0.00104   0.00085   0.00078   0.00161   1.90410
   A25        1.90314   0.00047  -0.00031   0.00026  -0.00005   1.90309
   A26        2.13298   0.00120   0.00037  -0.00416  -0.00348   2.12950
   A27        2.01224  -0.00124  -0.00031   0.00382   0.00382   2.01606
   A28        2.13795   0.00003  -0.00110   0.00046  -0.00033   2.13761
   A29        1.92123  -0.00006   0.00105   0.00160   0.00265   1.92387
    D1        1.00124   0.00010   0.00214  -0.01136  -0.00921   0.99203
    D2        3.10885  -0.00009   0.00226  -0.01413  -0.01188   3.09697
    D3       -1.04629   0.00001   0.00280  -0.01271  -0.00991  -1.05621
    D4        3.09049   0.00009   0.00287  -0.01269  -0.00982   3.08067
    D5       -1.08509  -0.00009   0.00299  -0.01547  -0.01248  -1.09757
    D6        1.04295   0.00001   0.00353  -0.01404  -0.01051   1.03244
    D7       -1.11120  -0.00000   0.00218  -0.01280  -0.01062  -1.12182
    D8        0.99641  -0.00019   0.00230  -0.01558  -0.01328   0.98313
    D9        3.12445  -0.00009   0.00284  -0.01415  -0.01131   3.11314
   D10       -3.11763   0.00014   0.00481  -0.01593  -0.01112  -3.12875
   D11        1.05000  -0.00018   0.00564  -0.02003  -0.01438   1.03561
   D12       -1.04722   0.00025   0.00499  -0.01451  -0.00952  -1.05674
   D13       -0.70847   0.00045  -0.00761   0.07812   0.07051  -0.63796
   D14        2.43672   0.00021  -0.01596   0.06391   0.04795   2.48466
   D15        1.37950   0.00043  -0.00810   0.07861   0.07051   1.45001
   D16       -1.75850   0.00020  -0.01645   0.06440   0.04794  -1.71056
   D17       -2.83247   0.00016  -0.00817   0.07477   0.06660  -2.76586
   D18        0.31272  -0.00008  -0.01653   0.06056   0.04404   0.35676
   D19        3.05033  -0.00057   0.00828   0.00237   0.01065   3.06098
   D20       -0.17147  -0.00082   0.00273   0.00485   0.00759  -0.16388
   D21       -0.08772  -0.00080  -0.00000  -0.01162  -0.01163  -0.09935
   D22        2.97366  -0.00105  -0.00555  -0.00915  -0.01469   2.95897
   D23        1.38781  -0.00147   0.00238  -0.05587  -0.05348   1.33433
   D24       -2.79877  -0.00065   0.00252  -0.05913  -0.05663  -2.85540
   D25       -0.72680  -0.00149   0.00080  -0.06268  -0.06189  -0.78869
   D26       -1.67439  -0.00123   0.00777  -0.05834  -0.05055  -1.72493
   D27        0.42221  -0.00042   0.00791  -0.06159  -0.05369   0.36853
   D28        2.49418  -0.00126   0.00619  -0.06515  -0.05895   2.43523
   D29        2.11609  -0.00089   0.00506  -0.03067  -0.02564   2.09045
   D30       -1.03215  -0.00179  -0.01389  -0.01096  -0.02484  -1.05700
   D31        0.00593  -0.00037   0.00521  -0.02457  -0.01937  -0.01344
   D32        3.14088  -0.00127  -0.01374  -0.00485  -0.01858   3.12230
   D33       -2.05763  -0.00056   0.00540  -0.02383  -0.01843  -2.07606
   D34        1.07732  -0.00146  -0.01355  -0.00411  -0.01764   1.05968
   D35        0.03080  -0.00239   0.00457  -0.02551  -0.02090   0.00990
   D36       -3.11746  -0.00329  -0.01433  -0.00575  -0.02012  -3.13758
         Item               Value     Threshold  Converged?
 Maximum Force            0.004011     0.000450     NO 
 RMS     Force            0.001168     0.000300     NO 
 Maximum Displacement     0.150087     0.001800     NO 
 RMS     Displacement     0.036494     0.001200     NO 
 Predicted change in Energy=-4.402877D-04
 Lowest energy point so far.  Saving SCF results.
 GradGradGradGradGradGradGradGradGradGradGradGradGradGradGradGradGradGrad

 Leave Link  103 at Fri Mar 14 14:24:01 2025, MaxMem=  8589934592 cpu:               1.6 elap:               0.4
 (Enter /home/enzo/gaussian_versions/gdv.j21/gdv/l202.exe)
                          Input orientation:                          
 ---------------------------------------------------------------------
 Center     Atomic      Atomic             Coordinates (Angstroms)
 Number     Number       Type             X           Y           Z
 ---------------------------------------------------------------------
      1          6           0       -2.137108    1.873808    0.549112
      2          6           0       -1.703678    0.414135    0.689992
      3         16           0       -3.050699   -0.658660    0.000084
      4          6           0       -0.400329    0.153578   -0.058940
      5          8           0       -0.134453    0.697104   -1.136466
      6          7           0        0.474865   -0.700166    0.537515
      7          6           0        1.714447   -1.114108   -0.116110
      8          6           0        2.819524   -0.041472   -0.092339
      9          8           0        3.889053   -0.234673    0.437754
     10          8           0        2.517086    1.112537   -0.703195
     11          1           0       -3.095118    2.041087    1.050913
     12          1           0       -1.389540    2.532892    1.004335
     13          1           0       -2.228799    2.140463   -0.507039
     14          1           0       -1.585431    0.161305    1.750176
     15          1           0       -2.451599   -1.845838    0.251268
     16          1           0        0.305917   -1.006027    1.486721
     17          1           0        2.100421   -1.997258    0.393962
     18          1           0        1.487941   -1.372800   -1.157292
     19          1           0        1.598502    1.075509   -1.069038
 ---------------------------------------------------------------------
                    Distance matrix (angstroms):
                    1          2          3          4          5
     1  C    0.000000
     2  C    1.529168   0.000000
     3  S    2.747631   1.855082   0.000000
     4  C    2.518992   1.525617   2.772666   0.000000
     5  O    2.869919   2.424560   3.410914   1.235788   0.000000
     6  N    3.667135   2.451727   3.566533   1.360368   2.264033
     7  C    4.919821   3.830001   4.788272   2.466287   2.782094
     8  C    5.352378   4.612913   5.903302   3.225927   3.218955
     9  O    6.385352   5.635886   6.966454   4.335463   4.419839
    10  O    4.879480   4.499287   5.884893   3.137830   2.718633
    11  H    1.094336   2.171024   2.897387   3.472226   3.918732
    12  H    1.095663   2.164861   3.735502   2.787513   3.086809
    13  H    1.093145   2.165374   2.961044   2.737116   2.620257
    14  H    2.163231   1.096309   2.425319   2.162736   3.274923
    15  H    3.744781   2.420608   1.353295   2.881251   3.709653
    16  H    3.891135   2.586524   3.687496   2.057312   3.158432
    17  H    5.741592   4.513714   5.336761   3.329409   3.820531
    18  H    5.156865   4.097807   4.738013   2.664914   2.630037
    19  H    4.148550   3.799473   5.075966   2.421895   1.775069
                    6          7          8          9         10
     6  N    0.000000
     7  C    1.461211   0.000000
     8  C    2.515555   1.540230   0.000000
     9  O    3.447219   2.410204   1.209223   0.000000
    10  O    2.999320   2.438616   1.340280   2.235852   0.000000
    11  H    4.530213   5.869337   6.373936   7.371140   5.952809
    12  H    3.761195   4.918409   5.054331   5.986984   4.493862
    13  H    4.058333   5.127791   5.515286   6.630386   4.859890
    14  H    2.541161   3.999862   4.779080   5.643512   4.873861
    15  H    3.155740   4.245743   5.581983   6.544807   5.860957
    16  H    1.011477   2.136517   3.121220   3.812372   3.764746
    17  H    2.084583   1.090460   2.139789   2.511539   3.323882
    18  H    2.085936   1.096488   2.163255   3.099169   2.728048
    19  H    2.645108   2.390803   1.921583   3.038688   0.989448
                   11         12         13         14         15
    11  H    0.000000
    12  H    1.775680   0.000000
    13  H    1.785385   1.772740   0.000000
    14  H    2.510320   2.493808   3.070180   0.000000
    15  H    4.020167   4.568190   4.063898   2.650584   0.000000
    16  H    4.587142   3.953633   4.505581   2.238140   3.136164
    17  H    6.613127   5.751056   6.055962   4.481542   4.556772
    18  H    6.126600   5.311022   5.155579   4.500274   4.210437
    19  H    5.239905   3.918065   4.012256   4.349847   5.165346
                   16         17         18         19
    16  H    0.000000
    17  H    2.323124   0.000000
    18  H    2.919333   1.780862   0.000000
    19  H    3.540546   3.440086   2.452393   0.000000
 Stoichiometry    C5H9NO3S
 Framework group  C1[X(C5H9NO3S)]
 Deg. of freedom    51
 Full point group                 C1      NOp   1
 RotChk:  IX=2 Diff= 1.93D-02
 Largest Abelian subgroup         C1      NOp   1
 Largest concise Abelian subgroup C1      NOp   1
                         Standard orientation:                         
 ---------------------------------------------------------------------
 Center     Atomic      Atomic             Coordinates (Angstroms)
 Number     Number       Type             X           Y           Z
 ---------------------------------------------------------------------
      1          6           0        2.228340    1.661211   -0.641959
      2          6           0        1.759869    0.205871   -0.612362
      3         16           0        3.036050   -0.794641    0.288564
      4          6           0        0.411535    0.077177    0.089736
      5          8           0        0.105213    0.765964    1.068976
      6          7           0       -0.455786   -0.829016   -0.436734
      7          6           0       -1.739973   -1.123867    0.194980
      8          6           0       -2.809935   -0.039672   -0.033082
      9          8           0       -3.855154   -0.278213   -0.592399
     10          8           0       -2.506170    1.178726    0.435515
     11          1           0        3.216119    1.738314   -1.106630
     12          1           0        1.525807    2.269897   -1.221982
     13          1           0        2.271845    2.064842    0.373007
     14          1           0        1.690482   -0.184011   -1.634650
     15          1           0        2.416139   -1.991088    0.163541
     16          1           0       -0.245958   -1.262984   -1.325963
     17          1           0       -2.124423   -2.058548   -0.214499
     18          1           0       -1.576693   -1.245730    1.272373
     19          1           0       -1.609751    1.170537    0.854292
 ---------------------------------------------------------------------
 Rotational constants (GHZ):           2.6798160           0.5296008           0.4863115
 Leave Link  202 at Fri Mar 14 14:24:01 2025, MaxMem=  8589934592 cpu:               0.6 elap:               0.3
 (Enter /home/enzo/gaussian_versions/gdv.j21/gdv/l301.exe)
 Standard basis: 6-31G(d) (6D, 7F)
 Ernie: Thresh=  0.10000D-02 Tol=  0.10000D-05 Strict=F.
 There are   172 symmetry adapted cartesian basis functions of A   symmetry.
 There are   172 symmetry adapted basis functions of A   symmetry.
   172 basis functions,   340 primitive gaussians,   172 cartesian basis functions
    43 alpha electrons       43 beta electrons
       nuclear repulsion energy       625.7645875674 Hartrees.
 IExCor=      4002 DFT=T Ex+Corr=B3LYP ScaHFX=  0.200000
 ScaDFX=  0.800000  0.720000  1.000000  0.810000  1.000000  0.000000
 ScaDFX=  0.000000  0.000000  0.000000  0.000000  0.000000  0.000000
 IRadAn=      5 IRanWt=     -1 IRanGd=            0 ICorTp=0 IEmpDi=  4
 NAtoms=   19 NActive=   19 NUniq=   19 SFac= 1.00D+00 NAtFMM=   60 NAOKFM=F Big=F
 Integral buffers will be    131072 words long.
 Raffenetti 2 integral format.
 Two-electron integral symmetry is turned on.
 Leave Link  301 at Fri Mar 14 14:24:01 2025, MaxMem=  8589934592 cpu:               0.4 elap:               0.3
 (Enter /home/enzo/gaussian_versions/gdv.j21/gdv/l302.exe)
 NPDir=0 NMtPBC=     1 NCelOv=     1 NCel=       1 NClECP=     1 NCelD=      1
         NCelK=      1 NCelE2=     1 NClLst=     1 CellRange=     0.0.
 One-electron integrals computed using PRISM.
 One-electron integral symmetry used in STVInt
 NBasis=   172 RedAO= T EigKep=  2.76D-03  NBF=   172
 NBsUse=   172 1.00D-06 EigRej= -1.00D+00 NBFU=   172
 Precomputing XC quadrature grid using
 IXCGrd= 4 IRadAn=           5 IRanWt=          -1 IRanGd=           0 AccXCQ= 0.00D+00.
 Generated NRdTot=       0 NPtTot=      406810 NUsed=           0 NTot=          64
 NSgBfM=   171   171   171   171   171 MxSgAt=    19 MxSgA2=    19 SizInc=   0.000
 NMBTot=     3462 MaxBatPerAtom=       85 MaxMicBPerAtom=      207 NBfPt=            52229933.
 Leave Link  302 at Fri Mar 14 14:24:02 2025, MaxMem=  8589934592 cpu:               4.6 elap:               0.8
 (Enter /home/enzo/gaussian_versions/gdv.j21/gdv/l303.exe)
 DipDrv:  MaxL=1.
 Leave Link  303 at Fri Mar 14 14:24:03 2025, MaxMem=  8589934592 cpu:               0.3 elap:               0.2
 (Enter /home/enzo/gaussian_versions/gdv.j21/gdv/l401.exe)
 Initial guess from the checkpoint file:  "/local/home/enzo/scratch/Gau-2271009.chk"
 B after Tr=     0.000000   -0.000000    0.000000
         Rot=    0.999966    0.008079    0.001579    0.000244 Ang=   0.94 deg.
 AO Guess basis will be translated and rotated to current coordinates.
 JPrj=2 DoOrth=T DoCkMO=T.
 Generating alternative initial guess.
 ExpMin= 1.17D-01 ExpMax= 2.19D+04 ExpMxC= 3.30D+03 IAcc=3 IRadAn=         5 AccDes= 0.00D+00
 Harris functional with IExCor= 4002 and IRadAn=       5 diagonalized for initial guess.
 HarFok:  IExCor=    4002 AccDes= 0.00D+00 IRadAn=         5 IDoV= 1 UseB2=F ITyADJ=14 ICtDFT=  3500011
 FoFCou: FMM=F IPFlag=           0 FMFlag=      100000 FMFlg1=           0
         NFxFlg=           0 DoJE=T BraDBF=F KetDBF=T FulRan=T
         wScrn=  0.000000 ICntrl=       500 IOpCl=  0 I1Cent=   200000004 NGrid=           0
         NMat0=    1 NMatS0=      1 NMatT0=    0 NMatD0=    1 NMtDS0=    0 NMtDT0=    0
 Petite list used in FoFCou.
 Harris En= -874.547068272156    
 Leave Link  401 at Fri Mar 14 14:24:04 2025, MaxMem=  8589934592 cpu:               6.8 elap:               1.2
 (Enter /home/enzo/gaussian_versions/gdv.j21/gdv/l502.exe)
 Integral symmetry usage will be decided dynamically.
 Closed shell SCF:
 Using DIIS extrapolation, IDIIS=  1040.
 NGot=  8589934592 LenX=  8589843591 LenY=  8589813566
 Requested convergence on RMS density matrix=1.00D-08 within 128 cycles.
 Requested convergence on MAX density matrix=1.00D-06.
 Requested convergence on             energy=1.00D-06.
 No special actions if energy rises.
 Fock matrices will be formed incrementally for  20 cycles.
 Integral accuracy reduced to 1.0D-05 until final iterations.

 Cycle   1  Pass 0  IDiag  1:
 FoFJK:  IHMeth= 1 ICntrl=       0 DoSepK=F KAlg= 0 I1Cent=           0 FoldK=F
 IRaf= 910000000 NMat=       1 IRICut=       1 DoRegI=T DoRafI=F ISym2E= 0 IDoP0=0 IntGTp=1.
 FoFCou: FMM=F IPFlag=           0 FMFlag=      100000 FMFlg1=           0
         NFxFlg=           0 DoJE=F BraDBF=F KetDBF=F FulRan=T
         wScrn=  0.000000 ICntrl=         0 IOpCl=  0 I1Cent=           0 NGrid=           0
         NMat0=    1 NMatS0=      1 NMatT0=    0 NMatD0=    1 NMtDS0=    0 NMtDT0=    0
 Symmetry not used in FoFCou.
 E= -874.579021997790    
 DIIS: error= 1.99D-03 at cycle   1 NSaved=   1.
 NSaved= 1 IEnMin= 1 EnMin= -874.579021997790     IErMin= 1 ErrMin= 1.99D-03
 ErrMax= 1.99D-03  0.00D+00 EMaxC= 1.00D-01 BMatC= 2.31D-03 BMatP= 2.31D-03
 IDIUse=3 WtCom= 9.80D-01 WtEn= 1.99D-02
 Coeff-Com:  0.100D+01
 Coeff-En:   0.100D+01
 Coeff:      0.100D+01
 Gap=     1.537 Goal=   None    Shift=    0.000
 GapD=    1.537 DampG=2.000 DampE=1.000 DampFc=2.0000 IDamp=-1.
 RMSDP=5.37D-04 MaxDP=1.48D-02              OVMax= 1.96D-02

 Cycle   2  Pass 0  IDiag  1:
 RMSU=  5.36D-04    CP:  9.99D-01
 E= -874.583487087779     Delta-E=       -0.004465089989 Rises=F Damp=F
 DIIS: error= 3.42D-04 at cycle   2 NSaved=   2.
 NSaved= 2 IEnMin= 2 EnMin= -874.583487087779     IErMin= 2 ErrMin= 3.42D-04
 ErrMax= 3.42D-04  0.00D+00 EMaxC= 1.00D-01 BMatC= 5.48D-05 BMatP= 2.31D-03
 IDIUse=3 WtCom= 9.97D-01 WtEn= 3.42D-03
 Coeff-Com: -0.486D-01 0.105D+01
 Coeff-En:   0.000D+00 0.100D+01
 Coeff:     -0.484D-01 0.105D+01
 Gap=     0.223 Goal=   None    Shift=    0.000
 RMSDP=9.83D-05 MaxDP=1.58D-03 DE=-4.47D-03 OVMax= 3.03D-03

 Cycle   3  Pass 0  IDiag  1:
 RMSU=  9.55D-05    CP:  9.99D-01  1.04D+00
 E= -874.583530471779     Delta-E=       -0.000043384000 Rises=F Damp=F
 DIIS: error= 3.68D-04 at cycle   3 NSaved=   3.
 NSaved= 3 IEnMin= 3 EnMin= -874.583530471779     IErMin= 2 ErrMin= 3.42D-04
 ErrMax= 3.68D-04  0.00D+00 EMaxC= 1.00D-01 BMatC= 4.50D-05 BMatP= 5.48D-05
 IDIUse=3 WtCom= 9.96D-01 WtEn= 3.68D-03
 Coeff-Com: -0.387D-01 0.517D+00 0.521D+00
 Coeff-En:   0.000D+00 0.121D+00 0.879D+00
 Coeff:     -0.385D-01 0.516D+00 0.523D+00
 Gap=     0.224 Goal=   None    Shift=    0.000
 RMSDP=5.21D-05 MaxDP=1.16D-03 DE=-4.34D-05 OVMax= 2.68D-03

 Cycle   4  Pass 0  IDiag  1:
 RMSU=  3.32D-05    CP:  9.99D-01  1.06D+00  5.99D-01
 E= -874.583559889810     Delta-E=       -0.000029418031 Rises=F Damp=F
 DIIS: error= 1.90D-04 at cycle   4 NSaved=   4.
 NSaved= 4 IEnMin= 4 EnMin= -874.583559889810     IErMin= 4 ErrMin= 1.90D-04
 ErrMax= 1.90D-04  0.00D+00 EMaxC= 1.00D-01 BMatC= 1.31D-05 BMatP= 4.50D-05
 IDIUse=3 WtCom= 9.98D-01 WtEn= 1.90D-03
 Coeff-Com: -0.189D-01 0.209D+00 0.352D+00 0.458D+00
 Coeff-En:   0.000D+00 0.000D+00 0.209D+00 0.791D+00
 Coeff:     -0.189D-01 0.208D+00 0.352D+00 0.459D+00
 Gap=     0.224 Goal=   None    Shift=    0.000
 RMSDP=1.98D-05 MaxDP=6.29D-04 DE=-2.94D-05 OVMax= 1.18D-03

 Cycle   5  Pass 0  IDiag  1:
 RMSU=  1.19D-05    CP:  9.99D-01  1.07D+00  6.44D-01  5.44D-01
 E= -874.583569626759     Delta-E=       -0.000009736949 Rises=F Damp=F
 DIIS: error= 3.10D-05 at cycle   5 NSaved=   5.
 NSaved= 5 IEnMin= 5 EnMin= -874.583569626759     IErMin= 5 ErrMin= 3.10D-05
 ErrMax= 3.10D-05  0.00D+00 EMaxC= 1.00D-01 BMatC= 6.57D-07 BMatP= 1.31D-05
 IDIUse=1 WtCom= 1.00D+00 WtEn= 0.00D+00
 Coeff-Com: -0.552D-02 0.540D-01 0.126D+00 0.240D+00 0.586D+00
 Coeff:     -0.552D-02 0.540D-01 0.126D+00 0.240D+00 0.586D+00
 Gap=     0.223 Goal=   None    Shift=    0.000
 RMSDP=6.08D-06 MaxDP=1.75D-04 DE=-9.74D-06 OVMax= 2.18D-04

 Initial convergence to 1.0D-05 achieved.  Increase integral accuracy.
 Cycle   6  Pass 1  IDiag  1:
 E= -874.583538988713     Delta-E=        0.000030638046 Rises=F Damp=F
 DIIS: error= 1.28D-05 at cycle   1 NSaved=   1.
 NSaved= 1 IEnMin= 1 EnMin= -874.583538988713     IErMin= 1 ErrMin= 1.28D-05
 ErrMax= 1.28D-05  0.00D+00 EMaxC= 1.00D-01 BMatC= 1.09D-07 BMatP= 1.09D-07
 IDIUse=1 WtCom= 1.00D+00 WtEn= 0.00D+00
 Coeff-Com:  0.100D+01
 Coeff:      0.100D+01
 Gap=     0.223 Goal=   None    Shift=    0.000
 RMSDP=6.08D-06 MaxDP=1.75D-04 DE= 3.06D-05 OVMax= 1.61D-04

 Cycle   7  Pass 1  IDiag  1:
 RMSU=  5.40D-06    CP:  1.00D+00
 E= -874.583538848753     Delta-E=        0.000000139959 Rises=F Damp=F
 DIIS: error= 2.24D-05 at cycle   2 NSaved=   2.
 NSaved= 2 IEnMin= 1 EnMin= -874.583538988713     IErMin= 1 ErrMin= 1.28D-05
 ErrMax= 2.24D-05  0.00D+00 EMaxC= 1.00D-01 BMatC= 2.78D-07 BMatP= 1.09D-07
 IDIUse=1 WtCom= 1.00D+00 WtEn= 0.00D+00
 Coeff-Com:  0.621D+00 0.379D+00
 Coeff:      0.621D+00 0.379D+00
 Gap=     0.223 Goal=   None    Shift=    0.000
 RMSDP=2.99D-06 MaxDP=6.97D-05 DE= 1.40D-07 OVMax= 1.05D-04

 Cycle   8  Pass 1  IDiag  1:
 RMSU=  1.84D-06    CP:  1.00D+00  5.64D-01
 E= -874.583539088207     Delta-E=       -0.000000239453 Rises=F Damp=F
 DIIS: error= 2.82D-06 at cycle   3 NSaved=   3.
 NSaved= 3 IEnMin= 3 EnMin= -874.583539088207     IErMin= 3 ErrMin= 2.82D-06
 ErrMax= 2.82D-06  0.00D+00 EMaxC= 1.00D-01 BMatC= 5.30D-09 BMatP= 1.09D-07
 IDIUse=1 WtCom= 1.00D+00 WtEn= 0.00D+00
 Coeff-Com:  0.211D+00 0.169D+00 0.620D+00
 Coeff:      0.211D+00 0.169D+00 0.620D+00
 Gap=     0.223 Goal=   None    Shift=    0.000
 RMSDP=6.28D-07 MaxDP=1.76D-05 DE=-2.39D-07 OVMax= 3.25D-05

 Cycle   9  Pass 1  IDiag  1:
 RMSU=  5.91D-07    CP:  1.00D+00  5.74D-01  8.90D-01
 E= -874.583539090096     Delta-E=       -0.000000001889 Rises=F Damp=F
 DIIS: error= 3.07D-06 at cycle   4 NSaved=   4.
 NSaved= 4 IEnMin= 4 EnMin= -874.583539090096     IErMin= 3 ErrMin= 2.82D-06
 ErrMax= 3.07D-06  0.00D+00 EMaxC= 1.00D-01 BMatC= 3.06D-09 BMatP= 5.30D-09
 IDIUse=1 WtCom= 1.00D+00 WtEn= 0.00D+00
 Coeff-Com:  0.115D-01 0.352D-01 0.452D+00 0.502D+00
 Coeff:      0.115D-01 0.352D-01 0.452D+00 0.502D+00
 Gap=     0.223 Goal=   None    Shift=    0.000
 RMSDP=3.04D-07 MaxDP=8.26D-06 DE=-1.89D-09 OVMax= 1.70D-05

 Cycle  10  Pass 1  IDiag  1:
 RMSU=  1.48D-07    CP:  1.00D+00  5.84D-01  9.35D-01  5.86D-01
 E= -874.583539092564     Delta-E=       -0.000000002468 Rises=F Damp=F
 DIIS: error= 4.00D-07 at cycle   5 NSaved=   5.
 NSaved= 5 IEnMin= 5 EnMin= -874.583539092564     IErMin= 5 ErrMin= 4.00D-07
 ErrMax= 4.00D-07  0.00D+00 EMaxC= 1.00D-01 BMatC= 1.04D-10 BMatP= 3.06D-09
 IDIUse=1 WtCom= 1.00D+00 WtEn= 0.00D+00
 Coeff-Com: -0.738D-02 0.762D-02 0.200D+00 0.263D+00 0.536D+00
 Coeff:     -0.738D-02 0.762D-02 0.200D+00 0.263D+00 0.536D+00
 Gap=     0.223 Goal=   None    Shift=    0.000
 RMSDP=7.07D-08 MaxDP=2.31D-06 DE=-2.47D-09 OVMax= 2.05D-06

 Cycle  11  Pass 1  IDiag  1:
 RMSU=  4.63D-08    CP:  1.00D+00  5.87D-01  9.39D-01  5.76D-01  6.56D-01
 E= -874.583539092654     Delta-E=       -0.000000000090 Rises=F Damp=F
 DIIS: error= 1.00D-07 at cycle   6 NSaved=   6.
 NSaved= 6 IEnMin= 6 EnMin= -874.583539092654     IErMin= 6 ErrMin= 1.00D-07
 ErrMax= 1.00D-07  0.00D+00 EMaxC= 1.00D-01 BMatC= 6.35D-12 BMatP= 1.04D-10
 IDIUse=1 WtCom= 1.00D+00 WtEn= 0.00D+00
 Coeff-Com: -0.428D-02 0.421D-03 0.530D-01 0.775D-01 0.247D+00 0.626D+00
 Coeff:     -0.428D-02 0.421D-03 0.530D-01 0.775D-01 0.247D+00 0.626D+00
 Gap=     0.223 Goal=   None    Shift=    0.000
 RMSDP=1.99D-08 MaxDP=4.53D-07 DE=-9.00D-11 OVMax= 7.81D-07

 Cycle  12  Pass 1  IDiag  1:
 RMSU=  1.67D-08    CP:  1.00D+00  5.86D-01  9.41D-01  5.88D-01  6.89D-01
                    CP:  9.05D-01
 E= -874.583539092648     Delta-E=        0.000000000006 Rises=F Damp=F
 DIIS: error= 2.38D-08 at cycle   7 NSaved=   7.
 NSaved= 7 IEnMin= 6 EnMin= -874.583539092654     IErMin= 7 ErrMin= 2.38D-08
 ErrMax= 2.38D-08  0.00D+00 EMaxC= 1.00D-01 BMatC= 5.24D-13 BMatP= 6.35D-12
 IDIUse=1 WtCom= 1.00D+00 WtEn= 0.00D+00
 Coeff-Com: -0.665D-03-0.980D-03-0.808D-02-0.814D-02 0.204D-01 0.232D+00
 Coeff-Com:  0.765D+00
 Coeff:     -0.665D-03-0.980D-03-0.808D-02-0.814D-02 0.204D-01 0.232D+00
 Coeff:      0.765D+00
 Gap=     0.223 Goal=   None    Shift=    0.000
 RMSDP=6.68D-09 MaxDP=1.34D-07 DE= 6.37D-12 OVMax= 3.13D-07

 SCF Done:  E(RB3LYP) =  -874.583539093     A.U. after   12 cycles
            NFock= 12  Conv=0.67D-08     -V/T= 2.0064
 KE= 8.689983164012D+02 PE=-3.310605575854D+03 EE= 9.412591327929D+02
 Leave Link  502 at Fri Mar 14 14:24:13 2025, MaxMem=  8589934592 cpu:              74.1 elap:               9.5
 (Enter /home/enzo/gaussian_versions/gdv.j21/gdv/l701.exe)
 ... and contract with generalized density number  0.
 Compute integral first derivatives.
 Leave Link  701 at Fri Mar 14 14:24:14 2025, MaxMem=  8589934592 cpu:               4.3 elap:               0.8
 (Enter /home/enzo/gaussian_versions/gdv.j21/gdv/l702.exe)
 L702 exits ... SP integral derivatives will be done elsewhere.
 Leave Link  702 at Fri Mar 14 14:24:14 2025, MaxMem=  8589934592 cpu:               0.2 elap:               0.2
 (Enter /home/enzo/gaussian_versions/gdv.j21/gdv/l703.exe)
 Integral derivatives from FoFJK, PRISM(SPDF).
 Compute integral first derivatives, UseDBF=F ICtDFT=           0.
 Calling FoFJK, ICntrl=      2127 FMM=F ISym2X=0 I1Cent= 0 IOpClX= 0 NMat=1 NMatS=1 NMatT=0.
 FoFJK:  IHMeth= 1 ICntrl=    2127 DoSepK=F KAlg= 0 I1Cent=           0 FoldK=F
 IRaf=         0 NMat=       1 IRICut=       1 DoRegI=T DoRafI=F ISym2E= 0 IDoP0=0 IntGTp=1.
 FoFCou: FMM=F IPFlag=           0 FMFlag=      100000 FMFlg1=         800
         NFxFlg=           0 DoJE=F BraDBF=F KetDBF=F FulRan=T
         wScrn=  0.000000 ICntrl=      2127 IOpCl=  0 I1Cent=           0 NGrid=           0
         NMat0=    1 NMatS0=      1 NMatT0=    0 NMatD0=    1 NMtDS0=    0 NMtDT0=    0
 Symmetry not used in FoFCou.
 Leave Link  703 at Fri Mar 14 14:24:17 2025, MaxMem=  8589934592 cpu:              17.8 elap:               2.7
 (Enter /home/enzo/gaussian_versions/gdv.j21/gdv/l716.exe)
 Dipole        = 1.39709969D+00-1.04743499D+00-7.54087537D-01
 ***** Axes restored to original set *****
 -------------------------------------------------------------------
 Center     Atomic                   Forces (Hartrees/Bohr)
 Number     Number              X              Y              Z
 -------------------------------------------------------------------
      1        6          -0.000437876    0.000517719   -0.000292104
      2        6           0.000164967   -0.000793736    0.000753147
      3       16          -0.000133038   -0.001463369   -0.000150198
      4        6           0.004107468    0.003030280    0.001817267
      5        8          -0.002053355   -0.001188839   -0.000480271
      6        7          -0.003436128    0.000306650   -0.000677826
      7        6           0.001117274   -0.001055914    0.000179925
      8        6           0.002966339    0.000477892    0.002164265
      9        8          -0.001814628    0.000191007   -0.001474148
     10        8           0.000397466    0.000245546   -0.000233947
     11        1           0.000308334   -0.000170177   -0.000186136
     12        1          -0.000124184   -0.000303963   -0.000280776
     13        1           0.000086195    0.000052916    0.000473401
     14        1           0.000139205    0.000053378   -0.000508893
     15        1          -0.000592913    0.000805864   -0.000146301
     16        1           0.000116010   -0.000280829   -0.001087201
     17        1          -0.000192274    0.000331867   -0.000222940
     18        1          -0.000501823    0.000011150    0.000308690
     19        1          -0.000117037   -0.000767443    0.000044046
 -------------------------------------------------------------------
 Cartesian Forces:  Max     0.004107468 RMS     0.001167673
 Leave Link  716 at Fri Mar 14 14:24:17 2025, MaxMem=  8589934592 cpu:               0.1 elap:               0.2
 (Enter /home/enzo/gaussian_versions/gdv.j21/gdv/l103.exe)

 GradGradGradGradGradGradGradGradGradGradGradGradGradGradGradGradGradGrad
 Berny optimization.
 Using GEDIIS/GDIIS optimizer.
 FormGI is forming the generalized inverse of G from B-inverse, IUseBI=4.
 Internal  Forces:  Max     0.002481091 RMS     0.000748188
 Search for a local minimum.
 Step number   9 out of a maximum of   93
 All quantities printed in internal units (Hartrees-Bohrs-Radians)
 RMS Force = .74819D-03 SwitMx=.10000D-02 MixMth= 2
 Mixed Optimization -- En-DIIS/RFO-DIIS
 Update second derivatives using D2CorX and points    6    7    8    9
 DE= -4.35D-04 DEPred=-4.40D-04 R= 9.88D-01
 TightC=F SS=  1.41D+00  RLast= 2.14D-01 DXNew= 1.0091D+00 6.4171D-01
 Trust test= 9.88D-01 RLast= 2.14D-01 DXMaxT set to 6.42D-01
 ITU=  1  1  0  1 -1 -1  1  1  0
 Use linear search instead of GDIIS.
     Eigenvalues ---    0.00226   0.00295   0.00460   0.00927   0.01095
     Eigenvalues ---    0.01130   0.01450   0.01828   0.03364   0.05007
     Eigenvalues ---    0.05520   0.05657   0.05749   0.06127   0.06462
     Eigenvalues ---    0.07000   0.07702   0.10287   0.14169   0.15895
     Eigenvalues ---    0.15997   0.16015   0.16034   0.16213   0.17103
     Eigenvalues ---    0.17718   0.19475   0.21856   0.22375   0.24030
     Eigenvalues ---    0.24600   0.25056   0.25899   0.29178   0.29933
     Eigenvalues ---    0.30109   0.31951   0.32582   0.32597   0.32606
     Eigenvalues ---    0.32626   0.32654   0.33101   0.36108   0.40319
     Eigenvalues ---    0.41260   0.45419   0.49854   0.66545   0.80301
     Eigenvalues ---    0.84441
 RFO step:  Lambda=-4.74543152D-04 EMin= 2.26313636D-03
 Quartic linear search produced a step of  0.00417.
 Iteration  1 RMS(Cart)=  0.04978238 RMS(Int)=  0.00091478
 Iteration  2 RMS(Cart)=  0.00189477 RMS(Int)=  0.00022163
 Iteration  3 RMS(Cart)=  0.00000180 RMS(Int)=  0.00022163
 Iteration  4 RMS(Cart)=  0.00000000 RMS(Int)=  0.00022163
 Variable       Old X    -DE/DX   Delta X   Delta X   Delta X     New X
                                 (Linear)    (Quad)   (Total)
    R1        2.88971   0.00016   0.00000  -0.00040  -0.00040   2.88931
    R2        2.06799  -0.00038  -0.00000  -0.00081  -0.00081   2.06719
    R3        2.07050  -0.00038  -0.00000  -0.00119  -0.00119   2.06931
    R4        2.06575  -0.00045  -0.00000  -0.00150  -0.00150   2.06424
    R5        3.50560   0.00102   0.00001   0.00455   0.00456   3.51016
    R6        2.88300   0.00012  -0.00001  -0.00092  -0.00093   2.88207
    R7        2.07172  -0.00049  -0.00000  -0.00103  -0.00104   2.07069
    R8        2.55736  -0.00100  -0.00001  -0.00373  -0.00373   2.55362
    R9        2.33530  -0.00055   0.00001   0.00154   0.00155   2.33685
   R10        2.57072  -0.00104  -0.00001  -0.00510  -0.00510   2.56562
   R11        2.76129   0.00139   0.00002   0.00272   0.00274   2.76403
   R12        1.91141  -0.00096  -0.00000  -0.00214  -0.00214   1.90927
   R13        2.91061   0.00114   0.00002   0.00307   0.00310   2.91371
   R14        2.06067  -0.00044  -0.00000  -0.00151  -0.00151   2.05916
   R15        2.07206  -0.00019  -0.00000  -0.00031  -0.00031   2.07175
   R16        2.28510  -0.00228   0.00000  -0.00186  -0.00185   2.28325
   R17        2.53276  -0.00043  -0.00001  -0.00292  -0.00293   2.52984
   R18        1.86979   0.00012   0.00001   0.00236   0.00237   1.87216
    A1        1.93029  -0.00014   0.00000  -0.00015  -0.00014   1.93015
    A2        1.92041  -0.00018  -0.00000  -0.00145  -0.00145   1.91896
    A3        1.92371   0.00025   0.00000   0.00148   0.00149   1.92520
    A4        1.89108   0.00017  -0.00000   0.00023   0.00023   1.89131
    A5        1.90955  -0.00001   0.00000   0.00056   0.00056   1.91010
    A6        1.88800  -0.00010  -0.00000  -0.00070  -0.00070   1.88730
    A7        1.88803  -0.00014  -0.00000  -0.00071  -0.00071   1.88733
    A8        1.93901  -0.00002   0.00002   0.00388   0.00391   1.94291
    A9        1.91750   0.00016   0.00001   0.00118   0.00119   1.91870
   A10        1.91665   0.00016  -0.00002  -0.00276  -0.00278   1.91387
   A11        1.88031  -0.00000   0.00000   0.00079   0.00078   1.88110
   A12        1.92111  -0.00014  -0.00001  -0.00246  -0.00247   1.91865
   A13        1.68790   0.00035   0.00001   0.00238   0.00239   1.69028
   A14        2.13734  -0.00052  -0.00001  -0.00006  -0.00118   2.13616
   A15        2.02814  -0.00181  -0.00000  -0.00206  -0.00319   2.02495
   A16        2.11754   0.00236   0.00001   0.00359   0.00247   2.12001
   A17        2.12637   0.00248   0.00003   0.00305   0.00308   2.12945
   A18        2.08722  -0.00097  -0.00001  -0.00050  -0.00052   2.08670
   A19        2.06668  -0.00149  -0.00002  -0.00212  -0.00215   2.06454
   A20        1.98719   0.00144   0.00004   0.00092   0.00096   1.98815
   A21        1.89701  -0.00036  -0.00004  -0.00031  -0.00035   1.89667
   A22        1.89267  -0.00087  -0.00000  -0.00379  -0.00379   1.88888
   A23        1.87847  -0.00048  -0.00001   0.00283   0.00281   1.88128
   A24        1.90410   0.00008   0.00001  -0.00029  -0.00028   1.90382
   A25        1.90309   0.00017  -0.00000   0.00071   0.00071   1.90380
   A26        2.12950   0.00048  -0.00001   0.00055   0.00024   2.12974
   A27        2.01606  -0.00091   0.00002  -0.00593  -0.00621   2.00985
   A28        2.13761   0.00043  -0.00000   0.00515   0.00485   2.14246
   A29        1.92387  -0.00139   0.00001  -0.00656  -0.00655   1.91733
    D1        0.99203  -0.00001  -0.00004  -0.00630  -0.00634   0.98568
    D2        3.09697   0.00008  -0.00005  -0.00780  -0.00785   3.08912
    D3       -1.05621  -0.00001  -0.00004  -0.00750  -0.00754  -1.06374
    D4        3.08067   0.00001  -0.00004  -0.00704  -0.00708   3.07359
    D5       -1.09757   0.00010  -0.00005  -0.00853  -0.00859  -1.10616
    D6        1.03244   0.00001  -0.00004  -0.00824  -0.00828   1.02416
    D7       -1.12182  -0.00007  -0.00004  -0.00789  -0.00793  -1.12975
    D8        0.98313   0.00002  -0.00006  -0.00938  -0.00944   0.97369
    D9        3.11314  -0.00007  -0.00005  -0.00908  -0.00913   3.10401
   D10       -3.12875   0.00005  -0.00005   0.01007   0.01002  -3.11873
   D11        1.03561   0.00006  -0.00006   0.00743   0.00737   1.04298
   D12       -1.05674   0.00015  -0.00004   0.01152   0.01148  -1.04526
   D13       -0.63796  -0.00061   0.00029   0.01365   0.01399  -0.62396
   D14        2.48466   0.00094   0.00020   0.10090   0.10105   2.58572
   D15        1.45001  -0.00070   0.00029   0.01343   0.01378   1.46378
   D16       -1.71056   0.00085   0.00020   0.10069   0.10083  -1.60972
   D17       -2.76586  -0.00070   0.00028   0.01122   0.01155  -2.75431
   D18        0.35676   0.00085   0.00018   0.09848   0.09861   0.45537
   D19        3.06098  -0.00067   0.00004  -0.04237  -0.04237   3.01861
   D20       -0.16388  -0.00037   0.00003  -0.03636  -0.03637  -0.20026
   D21       -0.09935   0.00083  -0.00005   0.04378   0.04377  -0.05558
   D22        2.95897   0.00113  -0.00006   0.04978   0.04977   3.00874
   D23        1.33433   0.00036  -0.00022  -0.04653  -0.04675   1.28758
   D24       -2.85540   0.00042  -0.00024  -0.04256  -0.04280  -2.89820
   D25       -0.78869  -0.00007  -0.00026  -0.04402  -0.04428  -0.83298
   D26       -1.72493   0.00004  -0.00021  -0.05253  -0.05274  -1.77768
   D27        0.36853   0.00010  -0.00022  -0.04857  -0.04879   0.31973
   D28        2.43523  -0.00039  -0.00025  -0.05003  -0.05028   2.38495
   D29        2.09045   0.00028  -0.00011   0.02941   0.02928   2.11973
   D30       -1.05700  -0.00022  -0.00010  -0.01469  -0.01477  -1.07177
   D31       -0.01344   0.00017  -0.00008   0.02724   0.02714   0.01370
   D32        3.12230  -0.00033  -0.00008  -0.01686  -0.01692   3.10538
   D33       -2.07606   0.00019  -0.00008   0.02496   0.02486  -2.05120
   D34        1.05968  -0.00031  -0.00007  -0.01914  -0.01920   1.04048
   D35        0.00990   0.00008  -0.00009   0.02300   0.02296   0.03285
   D36       -3.13758  -0.00042  -0.00008  -0.02135  -0.02147   3.12413
         Item               Value     Threshold  Converged?
 Maximum Force            0.002481     0.000450     NO 
 RMS     Force            0.000748     0.000300     NO 
 Maximum Displacement     0.172027     0.001800     NO 
 RMS     Displacement     0.049532     0.001200     NO 
 Predicted change in Energy=-2.505168D-04
 Lowest energy point so far.  Saving SCF results.
 GradGradGradGradGradGradGradGradGradGradGradGradGradGradGradGradGradGrad

 Leave Link  103 at Fri Mar 14 14:24:18 2025, MaxMem=  8589934592 cpu:               5.7 elap:               1.0
 (Enter /home/enzo/gaussian_versions/gdv.j21/gdv/l202.exe)
                          Input orientation:                          
 ---------------------------------------------------------------------
 Center     Atomic      Atomic             Coordinates (Angstroms)
 Number     Number       Type             X           Y           Z
 ---------------------------------------------------------------------
      1          6           0       -2.177050    1.880707    0.540535
      2          6           0       -1.692379    0.439642    0.702209
      3         16           0       -2.988540   -0.688820   -0.002655
      4          6           0       -0.368567    0.215386   -0.021145
      5          8           0       -0.097742    0.768164   -1.093664
      6          7           0        0.469669   -0.693918    0.539022
      7          6           0        1.702227   -1.122317   -0.121774
      8          6           0        2.825365   -0.066288   -0.094847
      9          8           0        3.903041   -0.289672    0.403713
     10          8           0        2.538445    1.085527   -0.713880
     11          1           0       -3.151996    2.014551    1.018241
     12          1           0       -1.465831    2.568871    1.009247
     13          1           0       -2.252458    2.138758   -0.518215
     14          1           0       -1.582260    0.199634    1.765677
     15          1           0       -2.360566   -1.851586    0.279630
     16          1           0        0.278678   -1.041780    1.468165
     17          1           0        2.073700   -2.016233    0.378509
     18          1           0        1.465362   -1.367105   -1.163838
     19          1           0        1.611902    1.057895   -1.063517
 ---------------------------------------------------------------------
                    Distance matrix (angstroms):
                    1          2          3          4          5
     1  C    0.000000
     2  C    1.528958   0.000000
     3  S    2.748825   1.857496   0.000000
     4  C    2.521783   1.525127   2.771677   0.000000
     5  O    2.869125   2.424037   3.416112   1.236610   0.000000
     6  N    3.692400   2.446639   3.500379   1.357667   2.263913
     7  C    4.950312   3.826489   4.712261   2.467339   2.785386
     8  C    5.405429   4.615331   5.847866   3.207175   3.199766
     9  O    6.457303   5.650640   6.915081   4.322293   4.400843
    10  O    4.943861   4.508032   5.848223   3.112514   2.682245
    11  H    1.093909   2.170414   2.894333   3.473442   3.916898
    12  H    1.095031   2.163148   3.735658   2.793669   3.088113
    13  H    1.092349   2.165667   2.966954   2.737788   2.617722
    14  H    2.163505   1.095762   2.427750   2.160100   3.271521
    15  H    3.745899   2.423794   1.351318   2.886330   3.724164
    16  H    3.928361   2.581930   3.600361   2.053640   3.159201
    17  H    5.768991   4.507710   5.247245   3.332343   3.825613
    18  H    5.169171   4.088740   4.652489   2.678305   2.647185
    19  H    4.195969   3.797144   5.033936   2.391363   1.734282
                    6          7          8          9         10
     6  N    0.000000
     7  C    1.462661   0.000000
     8  C    2.518931   1.541869   0.000000
     9  O    3.459735   2.411020   1.208241   0.000000
    10  O    3.002669   2.434014   1.338732   2.236583   0.000000
    11  H    4.547737   5.890930   6.426329   7.447190   6.020336
    12  H    3.822703   4.994063   5.155332   6.112505   4.604747
    13  H    4.068387   5.141138   5.552095   6.681122   4.909209
    14  H    2.552162   4.012216   4.791600   5.672997   4.890115
    15  H    3.068829   4.147197   5.497400   6.456605   5.797759
    16  H    1.010342   2.135622   3.143280   3.851588   3.793850
    17  H    2.084993   1.089661   2.142744   2.515579   3.321177
    18  H    2.084303   1.096323   2.164365   3.091983   2.714659
    19  H    2.634707   2.376629   1.916926   3.036119   0.990703
                   11         12         13         14         15
    11  H    0.000000
    12  H    1.774966   0.000000
    13  H    1.784739   1.771135   0.000000
    14  H    2.513295   2.489784   3.070102   0.000000
    15  H    4.014839   4.568734   4.070760   2.649830   0.000000
    16  H    4.616613   4.036175   4.524176   2.256704   3.005663
    17  H    6.630563   5.826601   6.064956   4.494479   4.438423
    18  H    6.125117   5.367131   5.150736   4.508295   4.117772
    19  H    5.286173   4.006474   4.049555   4.352427   5.103884
                   16         17         18         19
    16  H    0.000000
    17  H    2.314954   0.000000
    18  H    2.905425   1.780527   0.000000
    19  H    3.549019   3.426800   2.431494   0.000000
 Stoichiometry    C5H9NO3S
 Framework group  C1[X(C5H9NO3S)]
 Deg. of freedom    51
 Full point group                 C1      NOp   1
 RotChk:  IX=2 Diff= 1.38D-02
 Largest Abelian subgroup         C1      NOp   1
 Largest concise Abelian subgroup C1      NOp   1
                         Standard orientation:                         
 ---------------------------------------------------------------------
 Center     Atomic      Atomic             Coordinates (Angstroms)
 Number     Number       Type             X           Y           Z
 ---------------------------------------------------------------------
      1          6           0        2.300019    1.651858   -0.620573
      2          6           0        1.771451    0.217176   -0.616507
      3         16           0        2.981155   -0.842046    0.313524
      4          6           0        0.400503    0.133187    0.046412
      5          8           0        0.089174    0.835244    1.015636
      6          7           0       -0.437667   -0.819035   -0.437327
      7          6           0       -1.721667   -1.116411    0.196934
      8          6           0       -2.800699   -0.041281   -0.042116
      9          8           0       -3.855405   -0.298832   -0.572314
     10          8           0       -2.506777    1.175405    0.432739
     11          1           0        3.305314    1.690235   -1.050161
     12          1           0        1.643582    2.290140   -1.221222
     13          1           0        2.323765    2.049976    0.396366
     14          1           0        1.714031   -0.162697   -1.642710
     15          1           0        2.327106   -2.013434    0.151868
     16          1           0       -0.206535   -1.296220   -1.297364
     17          1           0       -2.097071   -2.058994   -0.200522
     18          1           0       -1.554868   -1.223235    1.275215
     19          1           0       -1.603707    1.168504    0.840059
 ---------------------------------------------------------------------
 Rotational constants (GHZ):           2.6590256           0.5348788           0.4879841
 Leave Link  202 at Fri Mar 14 14:24:19 2025, MaxMem=  8589934592 cpu:               0.2 elap:               0.3
 (Enter /home/enzo/gaussian_versions/gdv.j21/gdv/l301.exe)
 Standard basis: 6-31G(d) (6D, 7F)
 Ernie: Thresh=  0.10000D-02 Tol=  0.10000D-05 Strict=F.
 There are   172 symmetry adapted cartesian basis functions of A   symmetry.
 There are   172 symmetry adapted basis functions of A   symmetry.
   172 basis functions,   340 primitive gaussians,   172 cartesian basis functions
    43 alpha electrons       43 beta electrons
       nuclear repulsion energy       626.6577329553 Hartrees.
 IExCor=      4002 DFT=T Ex+Corr=B3LYP ScaHFX=  0.200000
 ScaDFX=  0.800000  0.720000  1.000000  0.810000  1.000000  0.000000
 ScaDFX=  0.000000  0.000000  0.000000  0.000000  0.000000  0.000000
 IRadAn=      5 IRanWt=     -1 IRanGd=            0 ICorTp=0 IEmpDi=  4
 NAtoms=   19 NActive=   19 NUniq=   19 SFac= 1.00D+00 NAtFMM=   60 NAOKFM=F Big=F
 Integral buffers will be    131072 words long.
 Raffenetti 2 integral format.
 Two-electron integral symmetry is turned on.
 Leave Link  301 at Fri Mar 14 14:24:19 2025, MaxMem=  8589934592 cpu:               0.5 elap:               0.3
 (Enter /home/enzo/gaussian_versions/gdv.j21/gdv/l302.exe)
 NPDir=0 NMtPBC=     1 NCelOv=     1 NCel=       1 NClECP=     1 NCelD=      1
         NCelK=      1 NCelE2=     1 NClLst=     1 CellRange=     0.0.
 One-electron integrals computed using PRISM.
 One-electron integral symmetry used in STVInt
 NBasis=   172 RedAO= T EigKep=  2.77D-03  NBF=   172
 NBsUse=   172 1.00D-06 EigRej= -1.00D+00 NBFU=   172
 Precomputing XC quadrature grid using
 IXCGrd= 4 IRadAn=           5 IRanWt=          -1 IRanGd=           0 AccXCQ= 0.00D+00.
 Generated NRdTot=       0 NPtTot=      406839 NUsed=           0 NTot=          64
 NSgBfM=   171   171   171   171   171 MxSgAt=    19 MxSgA2=    19 SizInc=   0.000
 NMBTot=     3473 MaxBatPerAtom=       85 MaxMicBPerAtom=      207 NBfPt=            52198290.
 Leave Link  302 at Fri Mar 14 14:24:20 2025, MaxMem=  8589934592 cpu:               5.5 elap:               1.1
 (Enter /home/enzo/gaussian_versions/gdv.j21/gdv/l303.exe)
 DipDrv:  MaxL=1.
 Leave Link  303 at Fri Mar 14 14:24:20 2025, MaxMem=  8589934592 cpu:               0.8 elap:               0.3
 (Enter /home/enzo/gaussian_versions/gdv.j21/gdv/l401.exe)
 Initial guess from the checkpoint file:  "/local/home/enzo/scratch/Gau-2271009.chk"
 B after Tr=     0.000000    0.000000   -0.000000
         Rot=    0.999984    0.004306    0.002111    0.003053 Ang=   0.65 deg.
 AO Guess basis will be translated and rotated to current coordinates.
 JPrj=2 DoOrth=T DoCkMO=T.
 Generating alternative initial guess.
 ExpMin= 1.17D-01 ExpMax= 2.19D+04 ExpMxC= 3.30D+03 IAcc=3 IRadAn=         5 AccDes= 0.00D+00
 Harris functional with IExCor= 4002 and IRadAn=       5 diagonalized for initial guess.
 HarFok:  IExCor=    4002 AccDes= 0.00D+00 IRadAn=         5 IDoV= 1 UseB2=F ITyADJ=14 ICtDFT=  3500011
 FoFCou: FMM=F IPFlag=           0 FMFlag=      100000 FMFlg1=           0
         NFxFlg=           0 DoJE=T BraDBF=F KetDBF=T FulRan=T
         wScrn=  0.000000 ICntrl=       500 IOpCl=  0 I1Cent=   200000004 NGrid=           0
         NMat0=    1 NMatS0=      1 NMatT0=    0 NMatD0=    1 NMtDS0=    0 NMtDT0=    0
 Petite list used in FoFCou.
 Harris En= -874.547048263396    
 Leave Link  401 at Fri Mar 14 14:24:22 2025, MaxMem=  8589934592 cpu:               8.8 elap:               1.4
 (Enter /home/enzo/gaussian_versions/gdv.j21/gdv/l502.exe)
 Integral symmetry usage will be decided dynamically.
 Closed shell SCF:
 Using DIIS extrapolation, IDIIS=  1040.
 NGot=  8589934592 LenX=  8589843591 LenY=  8589813566
 Requested convergence on RMS density matrix=1.00D-08 within 128 cycles.
 Requested convergence on MAX density matrix=1.00D-06.
 Requested convergence on             energy=1.00D-06.
 No special actions if energy rises.
 Fock matrices will be formed incrementally for  20 cycles.
 Integral accuracy reduced to 1.0D-05 until final iterations.

 Cycle   1  Pass 0  IDiag  1:
 FoFJK:  IHMeth= 1 ICntrl=       0 DoSepK=F KAlg= 0 I1Cent=           0 FoldK=F
 IRaf= 910000000 NMat=       1 IRICut=       1 DoRegI=T DoRafI=F ISym2E= 0 IDoP0=0 IntGTp=1.
 FoFCou: FMM=F IPFlag=           0 FMFlag=      100000 FMFlg1=           0
         NFxFlg=           0 DoJE=F BraDBF=F KetDBF=F FulRan=T
         wScrn=  0.000000 ICntrl=         0 IOpCl=  0 I1Cent=           0 NGrid=           0
         NMat0=    1 NMatS0=      1 NMatT0=    0 NMatD0=    1 NMtDS0=    0 NMtDT0=    0
 Symmetry not used in FoFCou.
 E= -874.579244968820    
 DIIS: error= 2.10D-03 at cycle   1 NSaved=   1.
 NSaved= 1 IEnMin= 1 EnMin= -874.579244968820     IErMin= 1 ErrMin= 2.10D-03
 ErrMax= 2.10D-03  0.00D+00 EMaxC= 1.00D-01 BMatC= 2.08D-03 BMatP= 2.08D-03
 IDIUse=3 WtCom= 9.79D-01 WtEn= 2.10D-02
 Coeff-Com:  0.100D+01
 Coeff-En:   0.100D+01
 Coeff:      0.100D+01
 Gap=     1.529 Goal=   None    Shift=    0.000
 GapD=    1.529 DampG=2.000 DampE=1.000 DampFc=2.0000 IDamp=-1.
 RMSDP=5.85D-04 MaxDP=1.12D-02              OVMax= 1.39D-02

 Cycle   2  Pass 0  IDiag  1:
 RMSU=  5.85D-04    CP:  1.00D+00
 E= -874.583386053497     Delta-E=       -0.004141084677 Rises=F Damp=F
 DIIS: error= 3.21D-04 at cycle   2 NSaved=   2.
 NSaved= 2 IEnMin= 2 EnMin= -874.583386053497     IErMin= 2 ErrMin= 3.21D-04
 ErrMax= 3.21D-04  0.00D+00 EMaxC= 1.00D-01 BMatC= 4.61D-05 BMatP= 2.08D-03
 IDIUse=3 WtCom= 9.97D-01 WtEn= 3.21D-03
 Coeff-Com: -0.525D-01 0.105D+01
 Coeff-En:   0.000D+00 0.100D+01
 Coeff:     -0.524D-01 0.105D+01
 Gap=     0.222 Goal=   None    Shift=    0.000
 RMSDP=1.01D-04 MaxDP=1.77D-03 DE=-4.14D-03 OVMax= 3.32D-03

 Cycle   3  Pass 0  IDiag  1:
 RMSU=  9.24D-05    CP:  1.00D+00  1.07D+00
 E= -874.583401732944     Delta-E=       -0.000015679447 Rises=F Damp=F
 DIIS: error= 4.41D-04 at cycle   3 NSaved=   3.
 NSaved= 3 IEnMin= 3 EnMin= -874.583401732944     IErMin= 2 ErrMin= 3.21D-04
 ErrMax= 4.41D-04  0.00D+00 EMaxC= 1.00D-01 BMatC= 6.71D-05 BMatP= 4.61D-05
 IDIUse=3 WtCom= 3.23D-01 WtEn= 6.77D-01
 Coeff-Com: -0.451D-01 0.609D+00 0.437D+00
 Coeff-En:   0.000D+00 0.397D+00 0.603D+00
 Coeff:     -0.146D-01 0.465D+00 0.549D+00
 Gap=     0.222 Goal=   None    Shift=    0.000
 RMSDP=6.82D-05 MaxDP=1.63D-03 DE=-1.57D-05 OVMax= 3.50D-03

 Cycle   4  Pass 0  IDiag  1:
 RMSU=  4.02D-05    CP:  1.00D+00  1.08D+00  4.10D-01
 E= -874.583431959109     Delta-E=       -0.000030226165 Rises=F Damp=F
 DIIS: error= 3.01D-04 at cycle   4 NSaved=   4.
 NSaved= 4 IEnMin= 4 EnMin= -874.583431959109     IErMin= 4 ErrMin= 3.01D-04
 ErrMax= 3.01D-04  0.00D+00 EMaxC= 1.00D-01 BMatC= 3.11D-05 BMatP= 4.61D-05
 IDIUse=3 WtCom= 9.97D-01 WtEn= 3.01D-03
 Coeff-Com: -0.206D-01 0.229D+00 0.391D+00 0.400D+00
 Coeff-En:   0.000D+00 0.000D+00 0.337D+00 0.663D+00
 Coeff:     -0.206D-01 0.228D+00 0.391D+00 0.401D+00
 Gap=     0.222 Goal=   None    Shift=    0.000
 RMSDP=2.76D-05 MaxDP=8.49D-04 DE=-3.02D-05 OVMax= 1.64D-03

 Cycle   5  Pass 0  IDiag  1:
 RMSU=  1.25D-05    CP:  1.00D+00  1.09D+00  5.67D-01  5.09D-01
 E= -874.583455215085     Delta-E=       -0.000023255976 Rises=F Damp=F
 DIIS: error= 3.03D-05 at cycle   5 NSaved=   5.
 NSaved= 5 IEnMin= 5 EnMin= -874.583455215085     IErMin= 5 ErrMin= 3.03D-05
 ErrMax= 3.03D-05  0.00D+00 EMaxC= 1.00D-01 BMatC= 5.30D-07 BMatP= 3.11D-05
 IDIUse=1 WtCom= 1.00D+00 WtEn= 0.00D+00
 Coeff-Com: -0.617D-02 0.575D-01 0.162D+00 0.214D+00 0.573D+00
 Coeff:     -0.617D-02 0.575D-01 0.162D+00 0.214D+00 0.573D+00
 Gap=     0.222 Goal=   None    Shift=    0.000
 RMSDP=5.07D-06 MaxDP=1.26D-04 DE=-2.33D-05 OVMax= 2.00D-04

 Initial convergence to 1.0D-05 achieved.  Increase integral accuracy.
 Cycle   6  Pass 1  IDiag  1:
 E= -874.583424600373     Delta-E=        0.000030614712 Rises=F Damp=F
 DIIS: error= 1.13D-05 at cycle   1 NSaved=   1.
 NSaved= 1 IEnMin= 1 EnMin= -874.583424600373     IErMin= 1 ErrMin= 1.13D-05
 ErrMax= 1.13D-05  0.00D+00 EMaxC= 1.00D-01 BMatC= 8.99D-08 BMatP= 8.99D-08
 IDIUse=1 WtCom= 1.00D+00 WtEn= 0.00D+00
 Coeff-Com:  0.100D+01
 Coeff:      0.100D+01
 Gap=     0.222 Goal=   None    Shift=    0.000
 RMSDP=5.07D-06 MaxDP=1.26D-04 DE= 3.06D-05 OVMax= 1.35D-04

 Cycle   7  Pass 1  IDiag  1:
 RMSU=  4.76D-06    CP:  1.00D+00
 E= -874.583424502799     Delta-E=        0.000000097574 Rises=F Damp=F
 DIIS: error= 2.17D-05 at cycle   2 NSaved=   2.
 NSaved= 2 IEnMin= 1 EnMin= -874.583424600373     IErMin= 1 ErrMin= 1.13D-05
 ErrMax= 2.17D-05  0.00D+00 EMaxC= 1.00D-01 BMatC= 2.20D-07 BMatP= 8.99D-08
 IDIUse=1 WtCom= 1.00D+00 WtEn= 0.00D+00
 Coeff-Com:  0.617D+00 0.383D+00
 Coeff:      0.617D+00 0.383D+00
 Gap=     0.222 Goal=   None    Shift=    0.000
 RMSDP=2.48D-06 MaxDP=6.93D-05 DE= 9.76D-08 OVMax= 9.63D-05

 Cycle   8  Pass 1  IDiag  1:
 RMSU=  1.77D-06    CP:  1.00D+00  6.36D-01
 E= -874.583424677927     Delta-E=       -0.000000175129 Rises=F Damp=F
 DIIS: error= 2.92D-06 at cycle   3 NSaved=   3.
 NSaved= 3 IEnMin= 3 EnMin= -874.583424677927     IErMin= 3 ErrMin= 2.92D-06
 ErrMax= 2.92D-06  0.00D+00 EMaxC= 1.00D-01 BMatC= 5.00D-09 BMatP= 8.99D-08
 IDIUse=1 WtCom= 1.00D+00 WtEn= 0.00D+00
 Coeff-Com:  0.191D+00 0.169D+00 0.641D+00
 Coeff:      0.191D+00 0.169D+00 0.641D+00
 Gap=     0.222 Goal=   None    Shift=    0.000
 RMSDP=5.94D-07 MaxDP=1.75D-05 DE=-1.75D-07 OVMax= 2.93D-05

 Cycle   9  Pass 1  IDiag  1:
 RMSU=  5.14D-07    CP:  1.00D+00  6.63D-01  8.52D-01
 E= -874.583424679940     Delta-E=       -0.000000002012 Rises=F Damp=F
 DIIS: error= 2.85D-06 at cycle   4 NSaved=   4.
 NSaved= 4 IEnMin= 4 EnMin= -874.583424679940     IErMin= 4 ErrMin= 2.85D-06
 ErrMax= 2.85D-06  0.00D+00 EMaxC= 1.00D-01 BMatC= 2.80D-09 BMatP= 5.00D-09
 IDIUse=1 WtCom= 1.00D+00 WtEn= 0.00D+00
 Coeff-Com:  0.171D-01 0.454D-01 0.454D+00 0.483D+00
 Coeff:      0.171D-01 0.454D-01 0.454D+00 0.483D+00
 Gap=     0.222 Goal=   None    Shift=    0.000
 RMSDP=2.85D-07 MaxDP=7.76D-06 DE=-2.01D-09 OVMax= 1.60D-05

 Cycle  10  Pass 1  IDiag  1:
 RMSU=  1.69D-07    CP:  1.00D+00  6.68D-01  9.04D-01  5.95D-01
 E= -874.583424681990     Delta-E=       -0.000000002050 Rises=F Damp=F
 DIIS: error= 5.22D-07 at cycle   5 NSaved=   5.
 NSaved= 5 IEnMin= 5 EnMin= -874.583424681990     IErMin= 5 ErrMin= 5.22D-07
 ErrMax= 5.22D-07  0.00D+00 EMaxC= 1.00D-01 BMatC= 1.15D-10 BMatP= 2.80D-09
 IDIUse=1 WtCom= 1.00D+00 WtEn= 0.00D+00
 Coeff-Com: -0.832D-02 0.705D-02 0.174D+00 0.251D+00 0.576D+00
 Coeff:     -0.832D-02 0.705D-02 0.174D+00 0.251D+00 0.576D+00
 Gap=     0.222 Goal=   None    Shift=    0.000
 RMSDP=7.28D-08 MaxDP=1.43D-06 DE=-2.05D-09 OVMax= 2.10D-06

 Cycle  11  Pass 1  IDiag  1:
 RMSU=  4.65D-08    CP:  1.00D+00  6.70D-01  9.11D-01  6.00D-01  6.85D-01
 E= -874.583424682101     Delta-E=       -0.000000000111 Rises=F Damp=F
 DIIS: error= 8.98D-08 at cycle   6 NSaved=   6.
 NSaved= 6 IEnMin= 6 EnMin= -874.583424682101     IErMin= 6 ErrMin= 8.98D-08
 ErrMax= 8.98D-08  0.00D+00 EMaxC= 1.00D-01 BMatC= 2.88D-12 BMatP= 1.15D-10
 IDIUse=1 WtCom= 1.00D+00 WtEn= 0.00D+00
 Coeff-Com: -0.366D-02 0.146D-03 0.394D-01 0.664D-01 0.207D+00 0.691D+00
 Coeff:     -0.366D-02 0.146D-03 0.394D-01 0.664D-01 0.207D+00 0.691D+00
 Gap=     0.222 Goal=   None    Shift=    0.000
 RMSDP=1.57D-08 MaxDP=3.76D-07 DE=-1.11D-10 OVMax= 6.46D-07

 Cycle  12  Pass 1  IDiag  1:
 RMSU=  1.50D-08    CP:  1.00D+00  6.70D-01  9.12D-01  6.05D-01  6.98D-01
                    CP:  1.03D+00
 E= -874.583424682106     Delta-E=       -0.000000000005 Rises=F Damp=F
 DIIS: error= 3.24D-08 at cycle   7 NSaved=   7.
 NSaved= 7 IEnMin= 7 EnMin= -874.583424682106     IErMin= 7 ErrMin= 3.24D-08
 ErrMax= 3.24D-08  0.00D+00 EMaxC= 1.00D-01 BMatC= 5.48D-13 BMatP= 2.88D-12
 IDIUse=1 WtCom= 1.00D+00 WtEn= 0.00D+00
 Coeff-Com:  0.126D-03-0.151D-02-0.193D-01-0.227D-01-0.242D-01 0.308D+00
 Coeff-Com:  0.759D+00
 Coeff:      0.126D-03-0.151D-02-0.193D-01-0.227D-01-0.242D-01 0.308D+00
 Coeff:      0.759D+00
 Gap=     0.222 Goal=   None    Shift=    0.000
 RMSDP=7.33D-09 MaxDP=1.19D-07 DE=-5.00D-12 OVMax= 4.04D-07

 SCF Done:  E(RB3LYP) =  -874.583424682     A.U. after   12 cycles
            NFock= 12  Conv=0.73D-08     -V/T= 2.0064
 KE= 8.690202494424D+02 PE=-3.312395384980D+03 EE= 9.421339779004D+02
 Leave Link  502 at Fri Mar 14 14:24:30 2025, MaxMem=  8589934592 cpu:              66.9 elap:               8.5
 (Enter /home/enzo/gaussian_versions/gdv.j21/gdv/l701.exe)
 ... and contract with generalized density number  0.
 Compute integral first derivatives.
 Leave Link  701 at Fri Mar 14 14:24:31 2025, MaxMem=  8589934592 cpu:               3.6 elap:               0.8
 (Enter /home/enzo/gaussian_versions/gdv.j21/gdv/l702.exe)
 L702 exits ... SP integral derivatives will be done elsewhere.
 Leave Link  702 at Fri Mar 14 14:24:31 2025, MaxMem=  8589934592 cpu:               0.2 elap:               0.3
 (Enter /home/enzo/gaussian_versions/gdv.j21/gdv/l703.exe)
 Integral derivatives from FoFJK, PRISM(SPDF).
 Compute integral first derivatives, UseDBF=F ICtDFT=           0.
 Calling FoFJK, ICntrl=      2127 FMM=F ISym2X=0 I1Cent= 0 IOpClX= 0 NMat=1 NMatS=1 NMatT=0.
 FoFJK:  IHMeth= 1 ICntrl=    2127 DoSepK=F KAlg= 0 I1Cent=           0 FoldK=F
 IRaf=         0 NMat=       1 IRICut=       1 DoRegI=T DoRafI=F ISym2E= 0 IDoP0=0 IntGTp=1.
 FoFCou: FMM=F IPFlag=           0 FMFlag=      100000 FMFlg1=         800
         NFxFlg=           0 DoJE=F BraDBF=F KetDBF=F FulRan=T
         wScrn=  0.000000 ICntrl=      2127 IOpCl=  0 I1Cent=           0 NGrid=           0
         NMat0=    1 NMatS0=      1 NMatT0=    0 NMatD0=    1 NMtDS0=    0 NMtDT0=    0
 Symmetry not used in FoFCou.
 Leave Link  703 at Fri Mar 14 14:24:34 2025, MaxMem=  8589934592 cpu:              15.4 elap:               2.2
 (Enter /home/enzo/gaussian_versions/gdv.j21/gdv/l716.exe)
 Dipole        = 1.45614297D+00-1.05991912D+00-7.61288001D-01
 ***** Axes restored to original set *****
 -------------------------------------------------------------------
 Center     Atomic                   Forces (Hartrees/Bohr)
 Number     Number              X              Y              Z
 -------------------------------------------------------------------
      1        6          -0.000391375    0.000036968    0.000292259
      2        6           0.000518660    0.001286468    0.001449096
      3       16          -0.000122545   -0.000078781   -0.000117677
      4        6          -0.001956897   -0.004802511   -0.004333562
      5        8          -0.001125365    0.001537506    0.001766283
      6        7          -0.000191324    0.001566559    0.000867370
      7        6           0.000044971    0.000273577    0.001491316
      8        6           0.003056534   -0.002065135   -0.003541399
      9        8          -0.001036362    0.000614501    0.001208056
     10        8           0.001212544    0.000685742    0.001139424
     11        1           0.000116226   -0.000035331   -0.000101245
     12        1           0.000112602    0.000007795   -0.000139816
     13        1           0.000000057    0.000056625   -0.000043932
     14        1          -0.000150374    0.000044820   -0.000054843
     15        1          -0.000052386    0.000068366   -0.000010494
     16        1           0.000183300    0.000115278    0.000178414
     17        1          -0.000127495    0.000056790    0.000117511
     18        1           0.000135260   -0.000005804   -0.000154958
     19        1          -0.000226031    0.000636567   -0.000011805
 -------------------------------------------------------------------
 Cartesian Forces:  Max     0.004802511 RMS     0.001292850
 Leave Link  716 at Fri Mar 14 14:24:34 2025, MaxMem=  8589934592 cpu:               0.2 elap:               0.3
 (Enter /home/enzo/gaussian_versions/gdv.j21/gdv/l103.exe)

 GradGradGradGradGradGradGradGradGradGradGradGradGradGradGradGradGradGrad
 Berny optimization.
 Using GEDIIS/GDIIS optimizer.
 FormGI is forming the generalized inverse of G from B-inverse, IUseBI=4.
 Internal  Forces:  Max     0.005301301 RMS     0.001287326
 Search for a local minimum.
 Step number  10 out of a maximum of   93
 All quantities printed in internal units (Hartrees-Bohrs-Radians)
 RMS Force = .12873D-02 SwitMx=.10000D-02 MixMth= 1
 Mixed Optimization -- RFO/linear search
 Update second derivatives using D2CorX and points    6    7    8   10    9
 DE=  1.14D-04 DEPred=-2.51D-04 R=-4.57D-01
 Trust test=-4.57D-01 RLast= 2.39D-01 DXMaxT set to 3.21D-01
 ITU= -1  1  1  0  1 -1 -1  1  1  0
 Use linear search instead of GDIIS.
     Eigenvalues ---    0.00229   0.00396   0.00464   0.00928   0.01095
     Eigenvalues ---    0.01142   0.01512   0.03096   0.04056   0.05001
     Eigenvalues ---    0.05516   0.05651   0.05755   0.06127   0.06441
     Eigenvalues ---    0.07007   0.07750   0.10304   0.14170   0.15913
     Eigenvalues ---    0.15994   0.16003   0.16032   0.16213   0.17215
     Eigenvalues ---    0.17668   0.19450   0.22005   0.22431   0.23710
     Eigenvalues ---    0.24588   0.24887   0.25566   0.28355   0.30013
     Eigenvalues ---    0.30106   0.32150   0.32582   0.32586   0.32606
     Eigenvalues ---    0.32619   0.32656   0.32953   0.36220   0.40202
     Eigenvalues ---    0.41046   0.45567   0.50293   0.68202   0.79865
     Eigenvalues ---    0.84523
 RFO step:  Lambda=-1.18353723D-04 EMin= 2.28597773D-03
 Quartic linear search produced a step of -0.59368.
 Iteration  1 RMS(Cart)=  0.02764830 RMS(Int)=  0.00029228
 Iteration  2 RMS(Cart)=  0.00070762 RMS(Int)=  0.00006951
 Iteration  3 RMS(Cart)=  0.00000019 RMS(Int)=  0.00006951
 Variable       Old X    -DE/DX   Delta X   Delta X   Delta X     New X
                                 (Linear)    (Quad)   (Total)
    R1        2.88931   0.00011   0.00024   0.00061   0.00084   2.89015
    R2        2.06719  -0.00015   0.00048  -0.00084  -0.00036   2.06683
    R3        2.06931   0.00002   0.00071  -0.00051   0.00020   2.06951
    R4        2.06424   0.00006   0.00089  -0.00058   0.00031   2.06456
    R5        3.51016   0.00018  -0.00271   0.00273   0.00002   3.51018
    R6        2.88207   0.00078   0.00055   0.00241   0.00296   2.88503
    R7        2.07069  -0.00008   0.00061  -0.00108  -0.00047   2.07022
    R8        2.55362  -0.00009   0.00222  -0.00205   0.00017   2.55379
    R9        2.33685  -0.00109  -0.00092  -0.00121  -0.00214   2.33472
   R10        2.56562   0.00116   0.00303  -0.00129   0.00174   2.56736
   R11        2.76403   0.00241  -0.00163   0.00292   0.00130   2.76533
   R12        1.90927   0.00009   0.00127  -0.00101   0.00027   1.90953
   R13        2.91371   0.00208  -0.00184   0.00348   0.00164   2.91535
   R14        2.05916  -0.00004   0.00090  -0.00075   0.00014   2.05930
   R15        2.07175   0.00012   0.00019   0.00006   0.00025   2.07200
   R16        2.28325  -0.00054   0.00110  -0.00215  -0.00105   2.28219
   R17        2.52984   0.00041   0.00174   0.00114   0.00288   2.53272
   R18        1.87216   0.00020  -0.00141   0.00049  -0.00092   1.87124
    A1        1.93015   0.00001   0.00009  -0.00019  -0.00010   1.93004
    A2        1.91896  -0.00004   0.00086  -0.00068   0.00018   1.91914
    A3        1.92520   0.00004  -0.00088   0.00044  -0.00044   1.92476
    A4        1.89131   0.00008  -0.00013   0.00140   0.00127   1.89257
    A5        1.91010  -0.00003  -0.00033   0.00017  -0.00016   1.90994
    A6        1.88730  -0.00006   0.00042  -0.00115  -0.00073   1.88657
    A7        1.88733  -0.00016   0.00042  -0.00108  -0.00066   1.88666
    A8        1.94291   0.00006  -0.00232  -0.00058  -0.00290   1.94001
    A9        1.91870  -0.00005  -0.00071   0.00073   0.00003   1.91872
   A10        1.91387   0.00005   0.00165   0.00101   0.00266   1.91653
   A11        1.88110   0.00004  -0.00047  -0.00016  -0.00063   1.88047
   A12        1.91865   0.00005   0.00147   0.00009   0.00156   1.92020
   A13        1.69028   0.00002  -0.00142   0.00140  -0.00002   1.69026
   A14        2.13616  -0.00139   0.00070  -0.00145  -0.00040   2.13576
   A15        2.02495  -0.00123   0.00189  -0.00455  -0.00231   2.02264
   A16        2.12001   0.00271  -0.00147   0.00569   0.00458   2.12459
   A17        2.12945   0.00469  -0.00183   0.00793   0.00610   2.13555
   A18        2.08670  -0.00217   0.00031  -0.00280  -0.00249   2.08421
   A19        2.06454  -0.00247   0.00127  -0.00489  -0.00361   2.06092
   A20        1.98815   0.00530  -0.00057   0.00674   0.00616   1.99431
   A21        1.89667  -0.00177   0.00021  -0.00185  -0.00164   1.89502
   A22        1.88888  -0.00120   0.00225  -0.00336  -0.00111   1.88777
   A23        1.88128  -0.00230  -0.00167  -0.00086  -0.00253   1.87876
   A24        1.90382  -0.00070   0.00017  -0.00025  -0.00009   1.90374
   A25        1.90380   0.00056  -0.00042  -0.00062  -0.00104   1.90276
   A26        2.12974  -0.00178  -0.00014   0.00126   0.00115   2.13089
   A27        2.00985   0.00350   0.00369  -0.00168   0.00204   2.01188
   A28        2.14246  -0.00165  -0.00288   0.00064  -0.00221   2.14025
   A29        1.91733   0.00106   0.00389  -0.00231   0.00158   1.91891
    D1        0.98568  -0.00002   0.00377   0.00332   0.00709   0.99277
    D2        3.08912  -0.00002   0.00466   0.00351   0.00817   3.09729
    D3       -1.06374   0.00004   0.00448   0.00374   0.00821  -1.05553
    D4        3.07359   0.00006   0.00420   0.00451   0.00871   3.08230
    D5       -1.10616   0.00005   0.00510   0.00469   0.00979  -1.09636
    D6        1.02416   0.00012   0.00491   0.00492   0.00984   1.03400
    D7       -1.12975  -0.00002   0.00471   0.00294   0.00765  -1.12210
    D8        0.97369  -0.00003   0.00560   0.00313   0.00873   0.98242
    D9        3.10401   0.00004   0.00542   0.00336   0.00877   3.11278
   D10       -3.11873   0.00005  -0.00595   0.02064   0.01469  -3.10404
   D11        1.04298   0.00005  -0.00437   0.02142   0.01705   1.06003
   D12       -1.04526  -0.00007  -0.00681   0.02083   0.01402  -1.03125
   D13       -0.62396   0.00081  -0.00831  -0.00041  -0.00877  -0.63273
   D14        2.58572  -0.00079  -0.05999   0.00444  -0.05550   2.53022
   D15        1.46378   0.00069  -0.00818  -0.00147  -0.00970   1.45408
   D16       -1.60972  -0.00092  -0.05986   0.00338  -0.05643  -1.66616
   D17       -2.75431   0.00080  -0.00686  -0.00101  -0.00792  -2.76223
   D18        0.45537  -0.00080  -0.05854   0.00384  -0.05465   0.40072
   D19        3.01861   0.00071   0.02515  -0.00375   0.02148   3.04009
   D20       -0.20026   0.00140   0.02159  -0.00040   0.02127  -0.17898
   D21       -0.05558  -0.00071  -0.02599   0.00134  -0.02472  -0.08030
   D22        3.00874  -0.00001  -0.02955   0.00470  -0.02492   2.98382
   D23        1.28758   0.00207   0.02775  -0.00207   0.02569   1.31327
   D24       -2.89820   0.00133   0.02541  -0.00011   0.02530  -2.87289
   D25       -0.83298   0.00035   0.02629  -0.00376   0.02253  -0.81044
   D26       -1.77768   0.00138   0.03131  -0.00546   0.02585  -1.75183
   D27        0.31973   0.00064   0.02897  -0.00350   0.02546   0.34519
   D28        2.38495  -0.00034   0.02985  -0.00715   0.02269   2.40765
   D29        2.11973  -0.00141  -0.01739   0.00029  -0.01710   2.10263
   D30       -1.07177  -0.00001   0.00877   0.00507   0.01384  -1.05793
   D31        0.01370  -0.00092  -0.01611  -0.00104  -0.01715  -0.00345
   D32        3.10538   0.00048   0.01004   0.00374   0.01379   3.11917
   D33       -2.05120   0.00010  -0.01476   0.00031  -0.01444  -2.06564
   D34        1.04048   0.00150   0.01140   0.00510   0.01650   1.05698
   D35        0.03285  -0.00043  -0.01363   0.00040  -0.01323   0.01962
   D36        3.12413   0.00097   0.01275   0.00525   0.01800  -3.14105
         Item               Value     Threshold  Converged?
 Maximum Force            0.005301     0.000450     NO 
 RMS     Force            0.001287     0.000300     NO 
 Maximum Displacement     0.117918     0.001800     NO 
 RMS     Displacement     0.027768     0.001200     NO 
 Predicted change in Energy=-1.597392D-04
 GradGradGradGradGradGradGradGradGradGradGradGradGradGradGradGradGradGrad

 Leave Link  103 at Fri Mar 14 14:24:34 2025, MaxMem=  8589934592 cpu:               1.5 elap:               0.4
 (Enter /home/enzo/gaussian_versions/gdv.j21/gdv/l202.exe)
                          Input orientation:                          
 ---------------------------------------------------------------------
 Center     Atomic      Atomic             Coordinates (Angstroms)
 Number     Number       Type             X           Y           Z
 ---------------------------------------------------------------------
      1          6           0       -2.163085    1.875681    0.548621
      2          6           0       -1.700782    0.425026    0.693371
      3         16           0       -3.025087   -0.674955   -0.004197
      4          6           0       -0.387750    0.188548   -0.048798
      5          8           0       -0.126347    0.740408   -1.122824
      6          7           0        0.471622   -0.689484    0.531119
      7          6           0        1.712189   -1.115581   -0.117588
      8          6           0        2.835252   -0.058112   -0.094676
      9          8           0        3.904284   -0.268715    0.426207
     10          8           0        2.546946    1.096205   -0.711699
     11          1           0       -3.126108    2.023749    1.045495
     12          1           0       -1.430306    2.548938    1.005876
     13          1           0       -2.254440    2.140437   -0.507385
     14          1           0       -1.582825    0.174594    1.753335
     15          1           0       -2.422965   -1.851267    0.278714
     16          1           0        0.289672   -1.015274    1.470177
     17          1           0        2.083965   -2.003385    0.393403
     18          1           0        1.482811   -1.372208   -1.158615
     19          1           0        1.623954    1.066813   -1.069124
 ---------------------------------------------------------------------
                    Distance matrix (angstroms):
                    1          2          3          4          5
     1  C    0.000000
     2  C    1.529404   0.000000
     3  S    2.748526   1.857509   0.000000
     4  C    2.520940   1.526693   2.775459   0.000000
     5  O    2.868949   2.424227   3.414274   1.235480   0.000000
     6  N    3.677235   2.446998   3.537477   1.358589   2.266646
     7  C    4.940570   3.831383   4.759075   2.472899   2.799181
     8  C    5.397847   4.629260   5.893407   3.232752   3.235088
     9  O    6.436333   5.654151   6.954600   4.342382   4.434390
    10  O    4.937649   4.524147   5.889407   3.142566   2.728023
    11  H    1.093719   2.170590   2.897423   3.473333   3.917542
    12  H    1.095137   2.163752   3.735915   2.787598   3.082605
    13  H    1.092516   2.165869   2.962014   2.739471   2.620615
    14  H    2.163731   1.095515   2.427091   2.162425   3.273188
    15  H    3.745734   2.423839   1.351406   2.900036   3.735711
    16  H    3.901653   2.576781   3.643792   2.053138   3.158978
    17  H    5.754014   4.506826   5.293886   3.333091   3.835730
    18  H    5.172620   4.098191   4.705315   2.677061   2.655903
    19  H    4.196788   3.817349   5.077540   2.420613   1.781286
                    6          7          8          9         10
     6  N    0.000000
     7  C    1.463348   0.000000
     8  C    2.525271   1.542736   0.000000
     9  O    3.459946   2.412089   1.207685   0.000000
    10  O    3.006701   2.437577   1.340256   2.236114   0.000000
    11  H    4.535402   5.883644   6.416537   7.420601   6.010957
    12  H    3.785512   4.956425   5.118877   6.060779   4.569358
    13  H    4.064278   5.146624   5.559578   6.678734   4.917873
    14  H    2.541888   4.002752   4.794653   5.662699   4.897016
    15  H    3.129230   4.218743   5.568094   6.523826   5.862467
    16  H    1.010482   2.134154   3.137658   3.835706   3.783412
    17  H    2.084456   1.089736   2.141668   2.514700   3.323110
    18  H    2.084183   1.096453   2.165158   3.097239   2.724918
    19  H    2.640687   2.382447   1.918918   3.036372   0.990217
                   11         12         13         14         15
    11  H    0.000000
    12  H    1.775708   0.000000
    13  H    1.784617   1.770884   0.000000
    14  H    2.510405   2.493886   3.070254   0.000000
    15  H    4.012245   4.569020   4.071860   2.642812   0.000000
    16  H    4.591684   3.984659   4.510185   2.236562   3.078452
    17  H    6.617242   5.783500   6.066666   4.476423   4.510955
    18  H    6.134555   5.342908   5.170089   4.502241   4.189332
    19  H    5.286816   3.978797   4.063270   4.364145   5.168115
                   16         17         18         19
    16  H    0.000000
    17  H    2.314151   0.000000
    18  H    2.908870   1.780036   0.000000
    19  H    3.544495   3.431722   2.444740   0.000000
 Stoichiometry    C5H9NO3S
 Framework group  C1[X(C5H9NO3S)]
 Deg. of freedom    51
 Full point group                 C1      NOp   1
 RotChk:  IX=2 Diff= 7.22D-03
 Largest Abelian subgroup         C1      NOp   1
 Largest concise Abelian subgroup C1      NOp   1
                         Standard orientation:                         
 ---------------------------------------------------------------------
 Center     Atomic      Atomic             Coordinates (Angstroms)
 Number     Number       Type             X           Y           Z
 ---------------------------------------------------------------------
      1          6           0        2.270915    1.652483   -0.641036
      2          6           0        1.768585    0.208170   -0.614554
      3         16           0        3.014804   -0.819457    0.302649
      4          6           0        0.409612    0.110031    0.074179
      5          8           0        0.108480    0.810836    1.046086
      6          7           0       -0.445796   -0.816798   -0.430827
      7          6           0       -1.733725   -1.117416    0.195475
      8          6           0       -2.817540   -0.044385   -0.036870
      9          8           0       -3.862902   -0.296798   -0.586424
     10          8           0       -2.524732    1.175910    0.433690
     11          1           0        3.264175    1.705861   -1.095796
     12          1           0        1.587428    2.275276   -1.227805
     13          1           0        2.313115    2.057389    0.372799
     14          1           0        1.700537   -0.182406   -1.635814
     15          1           0        2.389771   -2.007485    0.147020
     16          1           0       -0.223728   -1.273149   -1.304614
     17          1           0       -2.106656   -2.057084   -0.211307
     18          1           0       -1.570550   -1.234405    1.273389
     19          1           0       -1.624240    1.172009    0.845552
 ---------------------------------------------------------------------
 Rotational constants (GHZ):           2.6671815           0.5291223           0.4847406
 Leave Link  202 at Fri Mar 14 14:24:35 2025, MaxMem=  8589934592 cpu:               0.1 elap:               0.2
 (Enter /home/enzo/gaussian_versions/gdv.j21/gdv/l301.exe)
 Standard basis: 6-31G(d) (6D, 7F)
 Ernie: Thresh=  0.10000D-02 Tol=  0.10000D-05 Strict=F.
 There are   172 symmetry adapted cartesian basis functions of A   symmetry.
 There are   172 symmetry adapted basis functions of A   symmetry.
   172 basis functions,   340 primitive gaussians,   172 cartesian basis functions
    43 alpha electrons       43 beta electrons
       nuclear repulsion energy       625.3074060244 Hartrees.
 IExCor=      4002 DFT=T Ex+Corr=B3LYP ScaHFX=  0.200000
 ScaDFX=  0.800000  0.720000  1.000000  0.810000  1.000000  0.000000
 ScaDFX=  0.000000  0.000000  0.000000  0.000000  0.000000  0.000000
 IRadAn=      5 IRanWt=     -1 IRanGd=            0 ICorTp=0 IEmpDi=  4
 NAtoms=   19 NActive=   19 NUniq=   19 SFac= 1.00D+00 NAtFMM=   60 NAOKFM=F Big=F
 Integral buffers will be    131072 words long.
 Raffenetti 2 integral format.
 Two-electron integral symmetry is turned on.
 Leave Link  301 at Fri Mar 14 14:24:35 2025, MaxMem=  8589934592 cpu:               0.4 elap:               0.2
 (Enter /home/enzo/gaussian_versions/gdv.j21/gdv/l302.exe)
 NPDir=0 NMtPBC=     1 NCelOv=     1 NCel=       1 NClECP=     1 NCelD=      1
         NCelK=      1 NCelE2=     1 NClLst=     1 CellRange=     0.0.
 One-electron integrals computed using PRISM.
 One-electron integral symmetry used in STVInt
 NBasis=   172 RedAO= T EigKep=  2.75D-03  NBF=   172
 NBsUse=   172 1.00D-06 EigRej= -1.00D+00 NBFU=   172
 Precomputing XC quadrature grid using
 IXCGrd= 4 IRadAn=           5 IRanWt=          -1 IRanGd=           0 AccXCQ= 0.00D+00.
 Generated NRdTot=       0 NPtTot=      406965 NUsed=           0 NTot=          64
 NSgBfM=   171   171   171   171   171 MxSgAt=    19 MxSgA2=    19 SizInc=   0.000
 NMBTot=     3445 MaxBatPerAtom=       85 MaxMicBPerAtom=      202 NBfPt=            52186775.
 Leave Link  302 at Fri Mar 14 14:24:36 2025, MaxMem=  8589934592 cpu:               6.9 elap:               1.1
 (Enter /home/enzo/gaussian_versions/gdv.j21/gdv/l303.exe)
 DipDrv:  MaxL=1.
 Leave Link  303 at Fri Mar 14 14:24:36 2025, MaxMem=  8589934592 cpu:               0.8 elap:               0.3
 (Enter /home/enzo/gaussian_versions/gdv.j21/gdv/l401.exe)
 Lowest energy guess from the checkpoint file:  "/local/home/enzo/scratch/Gau-2271009.chk"
 B after Tr=    -0.000000    0.000000   -0.000000
         Rot=    0.999992    0.003596    0.000980    0.001347 Ang=   0.45 deg.
 AO Guess basis will be translated and rotated to current coordinates.
 B after Tr=    -0.000000   -0.000000    0.000000
         Rot=    0.999998   -0.000770   -0.001131   -0.001692 Ang=  -0.25 deg.
 AO Guess basis will be translated and rotated to current coordinates.
 CkInt1:  FT= 4.06D-01
 Max alpha theta=  1.491 degrees.
 JPrj=2 DoOrth=T DoCkMO=T.
 Leave Link  401 at Fri Mar 14 14:24:38 2025, MaxMem=  8589934592 cpu:               6.5 elap:               1.1
 (Enter /home/enzo/gaussian_versions/gdv.j21/gdv/l502.exe)
 Integral symmetry usage will be decided dynamically.
 Closed shell SCF:
 Using DIIS extrapolation, IDIIS=  1040.
 NGot=  8589934592 LenX=  8589843591 LenY=  8589813566
 Requested convergence on RMS density matrix=1.00D-08 within 128 cycles.
 Requested convergence on MAX density matrix=1.00D-06.
 Requested convergence on             energy=1.00D-06.
 No special actions if energy rises.
 Fock matrices will be formed incrementally for  20 cycles.
 Integral accuracy reduced to 1.0D-05 until final iterations.

 Cycle   1  Pass 0  IDiag  1:
 FoFJK:  IHMeth= 1 ICntrl=       0 DoSepK=F KAlg= 0 I1Cent=           0 FoldK=F
 IRaf= 910000000 NMat=       1 IRICut=       1 DoRegI=T DoRafI=F ISym2E= 0 IDoP0=0 IntGTp=1.
 FoFCou: FMM=F IPFlag=           0 FMFlag=      100000 FMFlg1=           0
         NFxFlg=           0 DoJE=F BraDBF=F KetDBF=F FulRan=T
         wScrn=  0.000000 ICntrl=         0 IOpCl=  0 I1Cent=           0 NGrid=           0
         NMat0=    1 NMatS0=      1 NMatT0=    0 NMatD0=    1 NMtDS0=    0 NMtDT0=    0
 Symmetry not used in FoFCou.
 E= -874.583537253688    
 DIIS: error= 3.43D-04 at cycle   1 NSaved=   1.
 NSaved= 1 IEnMin= 1 EnMin= -874.583537253688     IErMin= 1 ErrMin= 3.43D-04
 ErrMax= 3.43D-04  0.00D+00 EMaxC= 1.00D-01 BMatC= 9.54D-05 BMatP= 9.54D-05
 IDIUse=3 WtCom= 9.97D-01 WtEn= 3.43D-03
 Coeff-Com:  0.100D+01
 Coeff-En:   0.100D+01
 Coeff:      0.100D+01
 Gap=    85.528 Goal=   None    Shift=    0.000
 RMSDP=1.21D-04 MaxDP=3.21D-03              OVMax= 4.92D-03

 Cycle   2  Pass 0  IDiag  1:
 RMSU=  1.21D-04    CP:  1.00D+00
 E= -874.583716094018     Delta-E=       -0.000178840330 Rises=F Damp=F
 DIIS: error= 1.07D-04 at cycle   2 NSaved=   2.
 NSaved= 2 IEnMin= 2 EnMin= -874.583716094018     IErMin= 2 ErrMin= 1.07D-04
 ErrMax= 1.07D-04  0.00D+00 EMaxC= 1.00D-01 BMatC= 4.31D-06 BMatP= 9.54D-05
 IDIUse=3 WtCom= 9.99D-01 WtEn= 1.07D-03
 Coeff-Com: -0.434D-02 0.100D+01
 Coeff-En:   0.000D+00 0.100D+01
 Coeff:     -0.434D-02 0.100D+01
 Gap=     0.223 Goal=   None    Shift=    0.000
 RMSDP=3.28D-05 MaxDP=9.22D-04 DE=-1.79D-04 OVMax= 1.31D-03

 Cycle   3  Pass 0  IDiag  1:
 RMSU=  3.25D-05    CP:  1.00D+00  1.04D+00
 E= -874.583709709771     Delta-E=        0.000006384247 Rises=F Damp=F
 DIIS: error= 2.17D-04 at cycle   3 NSaved=   3.
 NSaved= 3 IEnMin= 2 EnMin= -874.583716094018     IErMin= 2 ErrMin= 1.07D-04
 ErrMax= 2.17D-04  0.00D+00 EMaxC= 1.00D-01 BMatC= 1.41D-05 BMatP= 4.31D-06
 IDIUse=3 WtCom= 4.04D-01 WtEn= 5.96D-01
 Coeff-Com: -0.423D-01 0.685D+00 0.357D+00
 Coeff-En:   0.000D+00 0.698D+00 0.302D+00
 Coeff:     -0.171D-01 0.693D+00 0.324D+00
 Gap=     0.223 Goal=   None    Shift=    0.000
 RMSDP=1.97D-05 MaxDP=6.55D-04 DE= 6.38D-06 OVMax= 9.04D-04

 Cycle   4  Pass 0  IDiag  1:
 RMSU=  7.46D-06    CP:  1.00D+00  1.07D+00  4.57D-01
 E= -874.583720777844     Delta-E=       -0.000011068073 Rises=F Damp=F
 DIIS: error= 1.61D-05 at cycle   4 NSaved=   4.
 NSaved= 4 IEnMin= 4 EnMin= -874.583720777844     IErMin= 4 ErrMin= 1.61D-05
 ErrMax= 1.61D-05  0.00D+00 EMaxC= 1.00D-01 BMatC= 1.10D-07 BMatP= 4.31D-06
 IDIUse=1 WtCom= 1.00D+00 WtEn= 0.00D+00
 Coeff-Com: -0.177D-01 0.200D+00 0.115D+00 0.703D+00
 Coeff:     -0.177D-01 0.200D+00 0.115D+00 0.703D+00
 Gap=     0.223 Goal=   None    Shift=    0.000
 RMSDP=3.16D-06 MaxDP=7.62D-05 DE=-1.11D-05 OVMax= 1.21D-04

 Initial convergence to 1.0D-05 achieved.  Increase integral accuracy.
 Cycle   5  Pass 1  IDiag  1:
 E= -874.583689119333     Delta-E=        0.000031658511 Rises=F Damp=F
 DIIS: error= 6.28D-06 at cycle   1 NSaved=   1.
 NSaved= 1 IEnMin= 1 EnMin= -874.583689119333     IErMin= 1 ErrMin= 6.28D-06
 ErrMax= 6.28D-06  0.00D+00 EMaxC= 1.00D-01 BMatC= 3.82D-08 BMatP= 3.82D-08
 IDIUse=1 WtCom= 1.00D+00 WtEn= 0.00D+00
 Coeff-Com:  0.100D+01
 Coeff:      0.100D+01
 Gap=     0.223 Goal=   None    Shift=    0.000
 RMSDP=3.16D-06 MaxDP=7.62D-05 DE= 3.17D-05 OVMax= 9.98D-05

 Cycle   6  Pass 1  IDiag  1:
 RMSU=  3.82D-06    CP:  1.00D+00
 E= -874.583689111973     Delta-E=        0.000000007360 Rises=F Damp=F
 DIIS: error= 9.31D-06 at cycle   2 NSaved=   2.
 NSaved= 2 IEnMin= 1 EnMin= -874.583689119333     IErMin= 1 ErrMin= 6.28D-06
 ErrMax= 9.31D-06  0.00D+00 EMaxC= 1.00D-01 BMatC= 4.71D-08 BMatP= 3.82D-08
 IDIUse=1 WtCom= 1.00D+00 WtEn= 0.00D+00
 Coeff-Com:  0.530D+00 0.470D+00
 Coeff:      0.530D+00 0.470D+00
 Gap=     0.223 Goal=   None    Shift=    0.000
 RMSDP=1.48D-06 MaxDP=4.21D-05 DE= 7.36D-09 OVMax= 6.64D-05

 Cycle   7  Pass 1  IDiag  1:
 RMSU=  1.26D-06    CP:  1.00D+00  7.96D-01
 E= -874.583689154942     Delta-E=       -0.000000042969 Rises=F Damp=F
 DIIS: error= 2.86D-06 at cycle   3 NSaved=   3.
 NSaved= 3 IEnMin= 3 EnMin= -874.583689154942     IErMin= 3 ErrMin= 2.86D-06
 ErrMax= 2.86D-06  0.00D+00 EMaxC= 1.00D-01 BMatC= 2.21D-09 BMatP= 3.82D-08
 IDIUse=1 WtCom= 1.00D+00 WtEn= 0.00D+00
 Coeff-Com:  0.716D-01 0.186D+00 0.742D+00
 Coeff:      0.716D-01 0.186D+00 0.742D+00
 Gap=     0.223 Goal=   None    Shift=    0.000
 RMSDP=4.15D-07 MaxDP=1.20D-05 DE=-4.30D-08 OVMax= 2.20D-05

 Cycle   8  Pass 1  IDiag  1:
 RMSU=  3.58D-07    CP:  1.00D+00  8.21D-01  8.52D-01
 E= -874.583689155691     Delta-E=       -0.000000000749 Rises=F Damp=F
 DIIS: error= 2.45D-06 at cycle   4 NSaved=   4.
 NSaved= 4 IEnMin= 4 EnMin= -874.583689155691     IErMin= 4 ErrMin= 2.45D-06
 ErrMax= 2.45D-06  0.00D+00 EMaxC= 1.00D-01 BMatC= 1.57D-09 BMatP= 2.21D-09
 IDIUse=1 WtCom= 1.00D+00 WtEn= 0.00D+00
 Coeff-Com: -0.293D-02 0.854D-01 0.532D+00 0.385D+00
 Coeff:     -0.293D-02 0.854D-01 0.532D+00 0.385D+00
 Gap=     0.223 Goal=   None    Shift=    0.000
 RMSDP=2.23D-07 MaxDP=7.78D-06 DE=-7.49D-10 OVMax= 1.06D-05

 Cycle   9  Pass 1  IDiag  1:
 RMSU=  8.42D-08    CP:  1.00D+00  8.33D-01  8.82D-01  4.47D-01
 E= -874.583689156929     Delta-E=       -0.000000001239 Rises=F Damp=F
 DIIS: error= 1.97D-07 at cycle   5 NSaved=   5.
 NSaved= 5 IEnMin= 5 EnMin= -874.583689156929     IErMin= 5 ErrMin= 1.97D-07
 ErrMax= 1.97D-07  0.00D+00 EMaxC= 1.00D-01 BMatC= 2.61D-11 BMatP= 1.57D-09
 IDIUse=1 WtCom= 1.00D+00 WtEn= 0.00D+00
 Coeff-Com: -0.540D-02 0.347D-01 0.243D+00 0.197D+00 0.531D+00
 Coeff:     -0.540D-02 0.347D-01 0.243D+00 0.197D+00 0.531D+00
 Gap=     0.223 Goal=   None    Shift=    0.000
 RMSDP=3.08D-08 MaxDP=7.28D-07 DE=-1.24D-09 OVMax= 8.53D-07

 Cycle  10  Pass 1  IDiag  1:
 RMSU=  2.39D-08    CP:  1.00D+00  8.34D-01  8.82D-01  4.46D-01  7.77D-01
 E= -874.583689156954     Delta-E=       -0.000000000024 Rises=F Damp=F
 DIIS: error= 5.20D-08 at cycle   6 NSaved=   6.
 NSaved= 6 IEnMin= 6 EnMin= -874.583689156954     IErMin= 6 ErrMin= 5.20D-08
 ErrMax= 5.20D-08  0.00D+00 EMaxC= 1.00D-01 BMatC= 1.30D-12 BMatP= 2.61D-11
 IDIUse=1 WtCom= 1.00D+00 WtEn= 0.00D+00
 Coeff-Com: -0.198D-02 0.822D-02 0.639D-01 0.524D-01 0.221D+00 0.657D+00
 Coeff:     -0.198D-02 0.822D-02 0.639D-01 0.524D-01 0.221D+00 0.657D+00
 Gap=     0.223 Goal=   None    Shift=    0.000
 RMSDP=8.45D-09 MaxDP=2.51D-07 DE=-2.43D-11 OVMax= 3.87D-07

 SCF Done:  E(RB3LYP) =  -874.583689157     A.U. after   10 cycles
            NFock= 10  Conv=0.85D-08     -V/T= 2.0064
 KE= 8.690015248824D+02 PE=-3.309684973857D+03 EE= 9.407923537937D+02
 Leave Link  502 at Fri Mar 14 14:24:44 2025, MaxMem=  8589934592 cpu:              59.7 elap:               6.8
 (Enter /home/enzo/gaussian_versions/gdv.j21/gdv/l701.exe)
 ... and contract with generalized density number  0.
 Compute integral first derivatives.
 Leave Link  701 at Fri Mar 14 14:24:45 2025, MaxMem=  8589934592 cpu:               3.8 elap:               0.8
 (Enter /home/enzo/gaussian_versions/gdv.j21/gdv/l702.exe)
 L702 exits ... SP integral derivatives will be done elsewhere.
 Leave Link  702 at Fri Mar 14 14:24:45 2025, MaxMem=  8589934592 cpu:               0.2 elap:               0.2
 (Enter /home/enzo/gaussian_versions/gdv.j21/gdv/l703.exe)
 Integral derivatives from FoFJK, PRISM(SPDF).
 Compute integral first derivatives, UseDBF=F ICtDFT=           0.
 Calling FoFJK, ICntrl=      2127 FMM=F ISym2X=0 I1Cent= 0 IOpClX= 0 NMat=1 NMatS=1 NMatT=0.
 FoFJK:  IHMeth= 1 ICntrl=    2127 DoSepK=F KAlg= 0 I1Cent=           0 FoldK=F
 IRaf=         0 NMat=       1 IRICut=       1 DoRegI=T DoRafI=F ISym2E= 0 IDoP0=0 IntGTp=1.
 FoFCou: FMM=F IPFlag=           0 FMFlag=      100000 FMFlg1=         800
         NFxFlg=           0 DoJE=F BraDBF=F KetDBF=F FulRan=T
         wScrn=  0.000000 ICntrl=      2127 IOpCl=  0 I1Cent=           0 NGrid=           0
         NMat0=    1 NMatS0=      1 NMatT0=    0 NMatD0=    1 NMtDS0=    0 NMtDT0=    0
 Symmetry not used in FoFCou.
 Leave Link  703 at Fri Mar 14 14:24:48 2025, MaxMem=  8589934592 cpu:              14.8 elap:               2.1
 (Enter /home/enzo/gaussian_versions/gdv.j21/gdv/l716.exe)
 Dipole        = 1.40432965D+00-1.05389740D+00-7.59093688D-01
 ***** Axes restored to original set *****
 -------------------------------------------------------------------
 Center     Atomic                   Forces (Hartrees/Bohr)
 Number     Number              X              Y              Z
 -------------------------------------------------------------------
      1        6          -0.000168353   -0.000065994    0.000035289
      2        6           0.000167384    0.000273774    0.000269082
      3       16          -0.000035661   -0.000155806   -0.000039912
      4        6           0.000025342   -0.000418115   -0.000689313
      5        8           0.000257474   -0.000094684    0.000498396
      6        7           0.000039246    0.000539531    0.000098529
      7        6          -0.000071402   -0.000070943    0.000090396
      8        6           0.000339158   -0.000171674    0.000169808
      9        8          -0.000247829   -0.000023693   -0.000164277
     10        8          -0.000512343   -0.000022072   -0.000079906
     11        1           0.000039954   -0.000018205   -0.000016321
     12        1           0.000022685   -0.000028615   -0.000077509
     13        1           0.000018735    0.000039440    0.000024330
     14        1          -0.000054262    0.000045076    0.000016374
     15        1          -0.000009702    0.000072847   -0.000014236
     16        1           0.000021459   -0.000115162   -0.000116817
     17        1          -0.000068269   -0.000001702    0.000006276
     18        1           0.000068812    0.000010033   -0.000020560
     19        1           0.000167571    0.000205966    0.000010371
 -------------------------------------------------------------------
 Cartesian Forces:  Max     0.000689313 RMS     0.000196186
 Leave Link  716 at Fri Mar 14 14:24:48 2025, MaxMem=  8589934592 cpu:               0.2 elap:               0.3
 (Enter /home/enzo/gaussian_versions/gdv.j21/gdv/l103.exe)

 GradGradGradGradGradGradGradGradGradGradGradGradGradGradGradGradGradGrad
 Berny optimization.
 Using GEDIIS/GDIIS optimizer.
 FormGI is forming the generalized inverse of G from B-inverse, IUseBI=4.
 Internal  Forces:  Max     0.000445058 RMS     0.000144062
 Search for a local minimum.
 Step number  11 out of a maximum of   93
 All quantities printed in internal units (Hartrees-Bohrs-Radians)
 RMS Force = .14406D-03 SwitMx=.10000D-02 MixMth= 2
 Mixed Optimization -- En-DIIS/RFO-DIIS
 Update second derivatives using D2CorX and points    6    7    8   10    9
                                                     11
 DE= -1.50D-04 DEPred=-1.60D-04 R= 9.39D-01
 TightC=F SS=  1.41D+00  RLast= 1.17D-01 DXNew= 5.3961D-01 3.5175D-01
 Trust test= 9.39D-01 RLast= 1.17D-01 DXMaxT set to 3.52D-01
 ITU=  1 -1  1  1  0  1 -1 -1  1  1  0
 Use linear search instead of GDIIS.
     Eigenvalues ---    0.00230   0.00361   0.00451   0.00922   0.01094
     Eigenvalues ---    0.01149   0.01524   0.03198   0.04074   0.05024
     Eigenvalues ---    0.05523   0.05653   0.05751   0.06149   0.06397
     Eigenvalues ---    0.07003   0.07728   0.10359   0.14224   0.15934
     Eigenvalues ---    0.15953   0.15999   0.16031   0.16221   0.17197
     Eigenvalues ---    0.17897   0.19487   0.22002   0.22418   0.23720
     Eigenvalues ---    0.24692   0.25160   0.25631   0.28679   0.30062
     Eigenvalues ---    0.30140   0.32100   0.32582   0.32588   0.32607
     Eigenvalues ---    0.32613   0.32653   0.32951   0.36285   0.39896
     Eigenvalues ---    0.40893   0.45485   0.50281   0.72117   0.80178
     Eigenvalues ---    0.85457
 RFO step:  Lambda=-1.31330630D-05 EMin= 2.29941058D-03
 Quartic linear search produced a step of -0.03312.
 Iteration  1 RMS(Cart)=  0.00989263 RMS(Int)=  0.00003105
 Iteration  2 RMS(Cart)=  0.00004523 RMS(Int)=  0.00000369
 Iteration  3 RMS(Cart)=  0.00000000 RMS(Int)=  0.00000369
 Variable       Old X    -DE/DX   Delta X   Delta X   Delta X     New X
                                 (Linear)    (Quad)   (Total)
    R1        2.89015  -0.00004  -0.00001  -0.00021  -0.00022   2.88993
    R2        2.06683  -0.00004   0.00004  -0.00020  -0.00016   2.06667
    R3        2.06951  -0.00003   0.00003  -0.00020  -0.00016   2.06934
    R4        2.06456  -0.00002   0.00004  -0.00018  -0.00014   2.06442
    R5        3.51018   0.00010  -0.00015   0.00103   0.00088   3.51106
    R6        2.88503   0.00014  -0.00007   0.00022   0.00015   2.88519
    R7        2.07022   0.00000   0.00005  -0.00009  -0.00004   2.07018
    R8        2.55379  -0.00007   0.00012  -0.00053  -0.00041   2.55338
    R9        2.33472  -0.00042   0.00002  -0.00017  -0.00015   2.33456
   R10        2.56736  -0.00040   0.00011  -0.00127  -0.00116   2.56620
   R11        2.76533  -0.00026  -0.00013   0.00026   0.00013   2.76545
   R12        1.90953  -0.00008   0.00006  -0.00031  -0.00025   1.90929
   R13        2.91535  -0.00019  -0.00016   0.00012  -0.00003   2.91532
   R14        2.05930  -0.00002   0.00005  -0.00020  -0.00016   2.05914
   R15        2.07200   0.00000   0.00000   0.00006   0.00006   2.07206
   R16        2.28219  -0.00029   0.00010  -0.00040  -0.00031   2.28189
   R17        2.53272   0.00027   0.00000   0.00020   0.00020   2.53292
   R18        1.87124  -0.00017  -0.00005   0.00035   0.00030   1.87154
    A1        1.93004  -0.00001   0.00001  -0.00005  -0.00004   1.93000
    A2        1.91914  -0.00003   0.00004  -0.00042  -0.00038   1.91876
    A3        1.92476   0.00005  -0.00003   0.00050   0.00047   1.92522
    A4        1.89257   0.00004  -0.00005   0.00042   0.00038   1.89295
    A5        1.90994  -0.00001  -0.00001   0.00017   0.00015   1.91010
    A6        1.88657  -0.00004   0.00005  -0.00064  -0.00059   1.88598
    A7        1.88666  -0.00001   0.00005  -0.00018  -0.00014   1.88652
    A8        1.94001   0.00012  -0.00003   0.00111   0.00108   1.94109
    A9        1.91872  -0.00004  -0.00004   0.00006   0.00002   1.91874
   A10        1.91653  -0.00010   0.00000  -0.00101  -0.00100   1.91552
   A11        1.88047   0.00002  -0.00001  -0.00009  -0.00009   1.88038
   A12        1.92020   0.00001   0.00003   0.00005   0.00008   1.92029
   A13        1.69026  -0.00006  -0.00008   0.00010   0.00002   1.69029
   A14        2.13576   0.00026   0.00005   0.00042   0.00048   2.13624
   A15        2.02264   0.00009   0.00018  -0.00002   0.00016   2.02280
   A16        2.12459  -0.00034  -0.00023  -0.00037  -0.00060   2.12399
   A17        2.13555  -0.00045  -0.00030   0.00036   0.00004   2.13559
   A18        2.08421   0.00030   0.00010   0.00069   0.00077   2.08498
   A19        2.06092   0.00015   0.00019  -0.00030  -0.00013   2.06079
   A20        1.99431  -0.00031  -0.00024   0.00038   0.00014   1.99445
   A21        1.89502   0.00010   0.00007  -0.00043  -0.00037   1.89466
   A22        1.88777   0.00008   0.00016  -0.00017  -0.00001   1.88776
   A23        1.87876   0.00019  -0.00001   0.00085   0.00084   1.87959
   A24        1.90374  -0.00001   0.00001  -0.00057  -0.00055   1.90318
   A25        1.90276  -0.00003   0.00001  -0.00006  -0.00005   1.90270
   A26        2.13089   0.00001  -0.00005  -0.00039  -0.00043   2.13046
   A27        2.01188  -0.00015   0.00014  -0.00006   0.00008   2.01197
   A28        2.14025   0.00014  -0.00009   0.00044   0.00036   2.14061
   A29        1.91891   0.00038   0.00016   0.00212   0.00229   1.92119
    D1        0.99277   0.00003  -0.00002   0.00204   0.00202   0.99479
    D2        3.09729  -0.00003  -0.00001   0.00136   0.00135   3.09864
    D3       -1.05553   0.00004  -0.00002   0.00222   0.00219  -1.05334
    D4        3.08230   0.00004  -0.00005   0.00227   0.00222   3.08452
    D5       -1.09636  -0.00001  -0.00004   0.00159   0.00155  -1.09482
    D6        1.03400   0.00005  -0.00005   0.00244   0.00239   1.03639
    D7       -1.12210   0.00001   0.00001   0.00153   0.00154  -1.12056
    D8        0.98242  -0.00005   0.00002   0.00085   0.00087   0.98329
    D9        3.11278   0.00002   0.00001   0.00171   0.00172   3.11450
   D10       -3.10404   0.00003  -0.00082  -0.00010  -0.00091  -3.10495
   D11        1.06003  -0.00004  -0.00081  -0.00073  -0.00154   1.05849
   D12       -1.03125  -0.00001  -0.00084  -0.00017  -0.00101  -1.03226
   D13       -0.63273   0.00014  -0.00017   0.01527   0.01509  -0.61764
   D14        2.53022   0.00000  -0.00151   0.01423   0.01272   2.54294
   D15        1.45408   0.00013  -0.00013   0.01509   0.01495   1.46903
   D16       -1.66616   0.00000  -0.00147   0.01405   0.01258  -1.65357
   D17       -2.76223   0.00010  -0.00012   0.01440   0.01428  -2.74795
   D18        0.40072  -0.00003  -0.00146   0.01337   0.01191   0.41263
   D19        3.04009   0.00001   0.00069  -0.00524  -0.00455   3.03554
   D20       -0.17898   0.00007   0.00050   0.00627   0.00678  -0.17221
   D21       -0.08030  -0.00013  -0.00063  -0.00628  -0.00691  -0.08721
   D22        2.98382  -0.00007  -0.00082   0.00524   0.00441   2.98823
   D23        1.31327  -0.00009   0.00070   0.00013   0.00083   1.31409
   D24       -2.87289   0.00002   0.00058   0.00114   0.00172  -2.87117
   D25       -0.81044   0.00008   0.00072   0.00073   0.00145  -0.80899
   D26       -1.75183  -0.00015   0.00089  -0.01128  -0.01039  -1.76222
   D27        0.34519  -0.00005   0.00077  -0.01026  -0.00949   0.33570
   D28        2.40765   0.00001   0.00091  -0.01068  -0.00976   2.39788
   D29        2.10263   0.00012  -0.00040   0.00550   0.00510   2.10773
   D30       -1.05793   0.00016   0.00003   0.00555   0.00558  -1.05234
   D31       -0.00345   0.00005  -0.00033   0.00520   0.00487   0.00142
   D32        3.11917   0.00009   0.00010   0.00526   0.00536   3.12453
   D33       -2.06564  -0.00000  -0.00035   0.00511   0.00477  -2.06087
   D34        1.05698   0.00004   0.00009   0.00517   0.00526   1.06224
   D35        0.01962   0.00001  -0.00032  -0.00127  -0.00160   0.01803
   D36       -3.14105   0.00004   0.00012  -0.00123  -0.00111   3.14102
         Item               Value     Threshold  Converged?
 Maximum Force            0.000445     0.000450     YES
 RMS     Force            0.000144     0.000300     YES
 Maximum Displacement     0.026787     0.001800     NO 
 RMS     Displacement     0.009892     0.001200     NO 
 Predicted change in Energy=-6.752513D-06
 Lowest energy point so far.  Saving SCF results.
 GradGradGradGradGradGradGradGradGradGradGradGradGradGradGradGradGradGrad

 Leave Link  103 at Fri Mar 14 14:24:48 2025, MaxMem=  8589934592 cpu:               0.8 elap:               0.4
 (Enter /home/enzo/gaussian_versions/gdv.j21/gdv/l202.exe)
                          Input orientation:                          
 ---------------------------------------------------------------------
 Center     Atomic      Atomic             Coordinates (Angstroms)
 Number     Number       Type             X           Y           Z
 ---------------------------------------------------------------------
      1          6           0       -2.169256    1.876042    0.543577
      2          6           0       -1.699104    0.428747    0.695259
      3         16           0       -3.017644   -0.681804    0.002294
      4          6           0       -0.385006    0.194144   -0.045786
      5          8           0       -0.119139    0.753014   -1.114985
      6          7           0        0.471578   -0.688062    0.530476
      7          6           0        1.709933   -1.116825   -0.120845
      8          6           0        2.837251   -0.063975   -0.095530
      9          8           0        3.907444   -0.282891    0.419131
     10          8           0        2.550642    1.096130   -0.702642
     11          1           0       -3.132163    2.021625    1.041218
     12          1           0       -1.439022    2.555211    0.995930
     13          1           0       -2.263399    2.135291   -0.513475
     14          1           0       -1.580252    0.183877    1.756399
     15          1           0       -2.408888   -1.853361    0.289667
     16          1           0        0.284976   -1.023702    1.465000
     17          1           0        2.077884   -2.008237    0.386440
     18          1           0        1.478701   -1.368439   -1.162721
     19          1           0        1.626464    1.074631   -1.057996
 ---------------------------------------------------------------------
                    Distance matrix (angstroms):
                    1          2          3          4          5
     1  C    0.000000
     2  C    1.529285   0.000000
     3  S    2.748695   1.857975   0.000000
     4  C    2.521840   1.526774   2.774955   0.000000
     5  O    2.866182   2.424546   3.421746   1.235398   0.000000
     6  N    3.680870   2.446687   3.528977   1.357976   2.265654
     7  C    4.944372   3.830973   4.749146   2.472457   2.798235
     8  C    5.407147   4.631052   5.888215   3.232962   3.232183
     9  O    6.450020   5.658273   6.949081   4.343827   4.431702
    10  O    4.943557   4.523259   5.887596   3.140552   2.723138
    11  H    1.093633   2.170393   2.898448   3.473923   3.916236
    12  H    1.095050   2.163306   3.735990   2.787609   3.073429
    13  H    1.092443   2.166047   2.961575   2.741377   2.621136
    14  H    2.163628   1.095493   2.427423   2.162542   3.271638
    15  H    3.745710   2.424111   1.351189   2.898431   3.742885
    16  H    3.909065   2.576564   3.628181   2.052923   3.158536
    17  H    5.757648   4.505541   5.279337   3.332135   3.834801
    18  H    5.171625   4.096390   4.695300   2.676306   2.656301
    19  H    4.196997   3.814508   5.077106   2.417817   1.775898
                    6          7          8          9         10
     6  N    0.000000
     7  C    1.463414   0.000000
     8  C    2.525427   1.542718   0.000000
     9  O    3.461465   2.411654   1.207523   0.000000
    10  O    3.004402   2.437714   1.340364   2.236288   0.000000
    11  H    4.537643   5.886099   6.424627   7.433294   6.015968
    12  H    3.792870   4.964570   5.132050   6.080479   4.575094
    13  H    4.067094   5.149542   5.570286   6.693031   4.928553
    14  H    2.544242   4.005145   4.796395   5.667536   4.893196
    15  H    3.116568   4.204247   5.556281   6.509930   5.855007
    16  H    1.010350   2.134029   3.141725   3.842515   3.784918
    17  H    2.084185   1.089652   2.142216   2.514991   3.323657
    18  H    2.084257   1.096487   2.164759   3.095070   2.726688
    19  H    2.638956   2.384889   1.920617   3.037703   0.990375
                   11         12         13         14         15
    11  H    0.000000
    12  H    1.775808   0.000000
    13  H    1.784585   1.770377   0.000000
    14  H    2.509428   2.494290   3.070348   0.000000
    15  H    4.012913   4.568912   4.071308   2.643535   0.000000
    16  H    4.596786   4.000102   4.515286   2.241034   3.053955
    17  H    6.619147   5.793545   6.068394   4.479298   4.490487
    18  H    6.132695   5.344896   5.167297   4.504236   4.178269
    19  H    5.286590   3.975919   4.068481   4.358587   5.164629
                   16         17         18         19
    16  H    0.000000
    17  H    2.312384   0.000000
    18  H    2.906672   1.779961   0.000000
    19  H    3.545151   3.434276   2.449773   0.000000
 Stoichiometry    C5H9NO3S
 Framework group  C1[X(C5H9NO3S)]
 Deg. of freedom    51
 Full point group                 C1      NOp   1
 RotChk:  IX=2 Diff= 2.46D-03
 Largest Abelian subgroup         C1      NOp   1
 Largest concise Abelian subgroup C1      NOp   1
                         Standard orientation:                         
 ---------------------------------------------------------------------
 Center     Atomic      Atomic             Coordinates (Angstroms)
 Number     Number       Type             X           Y           Z
 ---------------------------------------------------------------------
      1          6           0        2.281335    1.651918   -0.633006
      2          6           0        1.770308    0.210672   -0.613567
      3         16           0        3.008654   -0.828213    0.302559
      4          6           0        0.409517    0.116149    0.072255
      5          8           0        0.103973    0.824516    1.037174
      6          7           0       -0.443733   -0.814051   -0.428536
      7          6           0       -1.730693   -1.115240    0.199637
      8          6           0       -2.817519   -0.046212   -0.036941
      9          8           0       -3.864273   -0.305498   -0.580252
     10          8           0       -2.525060    1.178648    0.422147
     11          1           0        3.275008    1.701395   -1.087095
     12          1           0        1.601574    2.281268   -1.216940
     13          1           0        2.325274    2.052330    0.382460
     14          1           0        1.702443   -0.175409   -1.636523
     15          1           0        2.376496   -2.011538    0.141837
     16          1           0       -0.217034   -1.280656   -1.295540
     17          1           0       -2.100540   -2.058096   -0.202328
     18          1           0       -1.566892   -1.226361    1.278111
     19          1           0       -1.623474    1.181786    0.831995
 ---------------------------------------------------------------------
 Rotational constants (GHZ):           2.6653677           0.5298075           0.4845187
 Leave Link  202 at Fri Mar 14 14:24:49 2025, MaxMem=  8589934592 cpu:               0.7 elap:               0.3
 (Enter /home/enzo/gaussian_versions/gdv.j21/gdv/l301.exe)
 Standard basis: 6-31G(d) (6D, 7F)
 Ernie: Thresh=  0.10000D-02 Tol=  0.10000D-05 Strict=F.
 There are   172 symmetry adapted cartesian basis functions of A   symmetry.
 There are   172 symmetry adapted basis functions of A   symmetry.
   172 basis functions,   340 primitive gaussians,   172 cartesian basis functions
    43 alpha electrons       43 beta electrons
       nuclear repulsion energy       625.3913896577 Hartrees.
 IExCor=      4002 DFT=T Ex+Corr=B3LYP ScaHFX=  0.200000
 ScaDFX=  0.800000  0.720000  1.000000  0.810000  1.000000  0.000000
 ScaDFX=  0.000000  0.000000  0.000000  0.000000  0.000000  0.000000
 IRadAn=      5 IRanWt=     -1 IRanGd=            0 ICorTp=0 IEmpDi=  4
 NAtoms=   19 NActive=   19 NUniq=   19 SFac= 1.00D+00 NAtFMM=   60 NAOKFM=F Big=F
 Integral buffers will be    131072 words long.
 Raffenetti 2 integral format.
 Two-electron integral symmetry is turned on.
 Leave Link  301 at Fri Mar 14 14:24:49 2025, MaxMem=  8589934592 cpu:               0.9 elap:               0.4
 (Enter /home/enzo/gaussian_versions/gdv.j21/gdv/l302.exe)
 NPDir=0 NMtPBC=     1 NCelOv=     1 NCel=       1 NClECP=     1 NCelD=      1
         NCelK=      1 NCelE2=     1 NClLst=     1 CellRange=     0.0.
 One-electron integrals computed using PRISM.
 One-electron integral symmetry used in STVInt
 NBasis=   172 RedAO= T EigKep=  2.76D-03  NBF=   172
 NBsUse=   172 1.00D-06 EigRej= -1.00D+00 NBFU=   172
 Precomputing XC quadrature grid using
 IXCGrd= 4 IRadAn=           5 IRanWt=          -1 IRanGd=           0 AccXCQ= 0.00D+00.
 Generated NRdTot=       0 NPtTot=      406830 NUsed=           0 NTot=          64
 NSgBfM=   171   171   171   171   171 MxSgAt=    19 MxSgA2=    19 SizInc=   0.000
 NMBTot=     3448 MaxBatPerAtom=       85 MaxMicBPerAtom=      201 NBfPt=            52163356.
 Leave Link  302 at Fri Mar 14 14:24:50 2025, MaxMem=  8589934592 cpu:               5.2 elap:               0.9
 (Enter /home/enzo/gaussian_versions/gdv.j21/gdv/l303.exe)
 DipDrv:  MaxL=1.
 Leave Link  303 at Fri Mar 14 14:24:50 2025, MaxMem=  8589934592 cpu:               0.6 elap:               0.3
 (Enter /home/enzo/gaussian_versions/gdv.j21/gdv/l401.exe)
 Initial guess from the checkpoint file:  "/local/home/enzo/scratch/Gau-2271009.chk"
 B after Tr=    -0.000000    0.000000   -0.000000
         Rot=    0.999999    0.001105    0.000290    0.000366 Ang=   0.14 deg.
 AO Guess basis will be translated and rotated to current coordinates.
 JPrj=2 DoOrth=T DoCkMO=T.
 Generating alternative initial guess.
 ExpMin= 1.17D-01 ExpMax= 2.19D+04 ExpMxC= 3.30D+03 IAcc=3 IRadAn=         5 AccDes= 0.00D+00
 Harris functional with IExCor= 4002 and IRadAn=       5 diagonalized for initial guess.
 HarFok:  IExCor=    4002 AccDes= 0.00D+00 IRadAn=         5 IDoV= 1 UseB2=F ITyADJ=14 ICtDFT=  3500011
 FoFCou: FMM=F IPFlag=           0 FMFlag=      100000 FMFlg1=           0
         NFxFlg=           0 DoJE=T BraDBF=F KetDBF=T FulRan=T
         wScrn=  0.000000 ICntrl=       500 IOpCl=  0 I1Cent=   200000004 NGrid=           0
         NMat0=    1 NMatS0=      1 NMatT0=    0 NMatD0=    1 NMtDS0=    0 NMtDT0=    0
 Petite list used in FoFCou.
 Harris En= -874.547389772624    
 Leave Link  401 at Fri Mar 14 14:24:52 2025, MaxMem=  8589934592 cpu:              12.2 elap:               1.8
 (Enter /home/enzo/gaussian_versions/gdv.j21/gdv/l502.exe)
 Integral symmetry usage will be decided dynamically.
 Closed shell SCF:
 Using DIIS extrapolation, IDIIS=  1040.
 NGot=  8589934592 LenX=  8589843591 LenY=  8589813566
 Requested convergence on RMS density matrix=1.00D-08 within 128 cycles.
 Requested convergence on MAX density matrix=1.00D-06.
 Requested convergence on             energy=1.00D-06.
 No special actions if energy rises.
 Fock matrices will be formed incrementally for  20 cycles.
 Integral accuracy reduced to 1.0D-05 until final iterations.

 Cycle   1  Pass 0  IDiag  1:
 FoFJK:  IHMeth= 1 ICntrl=       0 DoSepK=F KAlg= 0 I1Cent=           0 FoldK=F
 IRaf= 910000000 NMat=       1 IRICut=       1 DoRegI=T DoRafI=F ISym2E= 0 IDoP0=0 IntGTp=1.
 FoFCou: FMM=F IPFlag=           0 FMFlag=      100000 FMFlg1=           0
         NFxFlg=           0 DoJE=F BraDBF=F KetDBF=F FulRan=T
         wScrn=  0.000000 ICntrl=         0 IOpCl=  0 I1Cent=           0 NGrid=           0
         NMat0=    1 NMatS0=      1 NMatT0=    0 NMatD0=    1 NMtDS0=    0 NMtDT0=    0
 Symmetry not used in FoFCou.
 E= -874.583551481890    
 DIIS: error= 3.94D-04 at cycle   1 NSaved=   1.
 NSaved= 1 IEnMin= 1 EnMin= -874.583551481890     IErMin= 1 ErrMin= 3.94D-04
 ErrMax= 3.94D-04  0.00D+00 EMaxC= 1.00D-01 BMatC= 9.18D-05 BMatP= 9.18D-05
 IDIUse=3 WtCom= 9.96D-01 WtEn= 3.94D-03
 Coeff-Com:  0.100D+01
 Coeff-En:   0.100D+01
 Coeff:      0.100D+01
 Gap=     1.537 Goal=   None    Shift=    0.000
 RMSDP=9.82D-05 MaxDP=1.95D-03              OVMax= 2.99D-03

 Cycle   2  Pass 0  IDiag  1:
 RMSU=  9.82D-05    CP:  1.00D+00
 E= -874.583725997193     Delta-E=       -0.000174515303 Rises=F Damp=F
 DIIS: error= 7.23D-05 at cycle   2 NSaved=   2.
 NSaved= 2 IEnMin= 2 EnMin= -874.583725997193     IErMin= 2 ErrMin= 7.23D-05
 ErrMax= 7.23D-05  0.00D+00 EMaxC= 1.00D-01 BMatC= 2.02D-06 BMatP= 9.18D-05
 IDIUse=1 WtCom= 1.00D+00 WtEn= 0.00D+00
 Coeff-Com: -0.526D-01 0.105D+01
 Coeff:     -0.526D-01 0.105D+01
 Gap=     0.223 Goal=   None    Shift=    0.000
 RMSDP=1.80D-05 MaxDP=3.51D-04 DE=-1.75D-04 OVMax= 6.85D-04

 Cycle   3  Pass 0  IDiag  1:
 RMSU=  1.71D-05    CP:  1.00D+00  1.06D+00
 E= -874.583726625604     Delta-E=       -0.000000628410 Rises=F Damp=F
 DIIS: error= 8.18D-05 at cycle   3 NSaved=   3.
 NSaved= 3 IEnMin= 3 EnMin= -874.583726625604     IErMin= 2 ErrMin= 7.23D-05
 ErrMax= 8.18D-05  0.00D+00 EMaxC= 1.00D-01 BMatC= 2.80D-06 BMatP= 2.02D-06
 IDIUse=1 WtCom= 1.00D+00 WtEn= 0.00D+00
 Coeff-Com: -0.445D-01 0.603D+00 0.442D+00
 Coeff:     -0.445D-01 0.603D+00 0.442D+00
 Gap=     0.223 Goal=   None    Shift=    0.000
 RMSDP=1.04D-05 MaxDP=3.10D-04 DE=-6.28D-07 OVMax= 6.33D-04

 Cycle   4  Pass 0  IDiag  1:
 RMSU=  6.42D-06    CP:  1.00D+00  1.07D+00  5.34D-01
 E= -874.583728542426     Delta-E=       -0.000001916822 Rises=F Damp=F
 DIIS: error= 4.15D-05 at cycle   4 NSaved=   4.
 NSaved= 4 IEnMin= 4 EnMin= -874.583728542426     IErMin= 4 ErrMin= 4.15D-05
 ErrMax= 4.15D-05  0.00D+00 EMaxC= 1.00D-01 BMatC= 3.74D-07 BMatP= 2.02D-06
 IDIUse=1 WtCom= 1.00D+00 WtEn= 0.00D+00
 Coeff-Com: -0.184D-01 0.213D+00 0.282D+00 0.523D+00
 Coeff:     -0.184D-01 0.213D+00 0.282D+00 0.523D+00
 Gap=     0.223 Goal=   None    Shift=    0.000
 RMSDP=3.57D-06 MaxDP=1.40D-04 DE=-1.92D-06 OVMax= 2.31D-04

 Initial convergence to 1.0D-05 achieved.  Increase integral accuracy.
 Cycle   5  Pass 1  IDiag  1:
 E= -874.583697876219     Delta-E=        0.000030666207 Rises=F Damp=F
 DIIS: error= 7.07D-06 at cycle   1 NSaved=   1.
 NSaved= 1 IEnMin= 1 EnMin= -874.583697876219     IErMin= 1 ErrMin= 7.07D-06
 ErrMax= 7.07D-06  0.00D+00 EMaxC= 1.00D-01 BMatC= 4.18D-08 BMatP= 4.18D-08
 IDIUse=1 WtCom= 1.00D+00 WtEn= 0.00D+00
 Coeff-Com:  0.100D+01
 Coeff:      0.100D+01
 Gap=     0.223 Goal=   None    Shift=    0.000
 RMSDP=3.57D-06 MaxDP=1.40D-04 DE= 3.07D-05 OVMax= 1.08D-04

 Cycle   6  Pass 1  IDiag  1:
 RMSU=  3.98D-06    CP:  1.00D+00
 E= -874.583697839204     Delta-E=        0.000000037015 Rises=F Damp=F
 DIIS: error= 1.29D-05 at cycle   2 NSaved=   2.
 NSaved= 2 IEnMin= 1 EnMin= -874.583697876219     IErMin= 1 ErrMin= 7.07D-06
 ErrMax= 1.29D-05  0.00D+00 EMaxC= 1.00D-01 BMatC= 9.05D-08 BMatP= 4.18D-08
 IDIUse=1 WtCom= 1.00D+00 WtEn= 0.00D+00
 Coeff-Com:  0.608D+00 0.392D+00
 Coeff:      0.608D+00 0.392D+00
 Gap=     0.223 Goal=   None    Shift=    0.000
 RMSDP=1.82D-06 MaxDP=6.33D-05 DE= 3.70D-08 OVMax= 9.64D-05

 Cycle   7  Pass 1  IDiag  1:
 RMSU=  1.41D-06    CP:  1.00D+00  7.13D-01
 E= -874.583697908334     Delta-E=       -0.000000069130 Rises=F Damp=F
 DIIS: error= 3.77D-06 at cycle   3 NSaved=   3.
 NSaved= 3 IEnMin= 3 EnMin= -874.583697908334     IErMin= 3 ErrMin= 3.77D-06
 ErrMax= 3.77D-06  0.00D+00 EMaxC= 1.00D-01 BMatC= 5.39D-09 BMatP= 4.18D-08
 IDIUse=1 WtCom= 1.00D+00 WtEn= 0.00D+00
 Coeff-Com:  0.148D+00 0.209D+00 0.643D+00
 Coeff:      0.148D+00 0.209D+00 0.643D+00
 Gap=     0.223 Goal=   None    Shift=    0.000
 RMSDP=5.16D-07 MaxDP=1.46D-05 DE=-6.91D-08 OVMax= 2.78D-05

 Cycle   8  Pass 1  IDiag  1:
 RMSU=  4.52D-07    CP:  1.00D+00  7.46D-01  8.52D-01
 E= -874.583697911406     Delta-E=       -0.000000003073 Rises=F Damp=F
 DIIS: error= 1.45D-06 at cycle   4 NSaved=   4.
 NSaved= 4 IEnMin= 4 EnMin= -874.583697911406     IErMin= 4 ErrMin= 1.45D-06
 ErrMax= 1.45D-06  0.00D+00 EMaxC= 1.00D-01 BMatC= 1.42D-09 BMatP= 5.39D-09
 IDIUse=1 WtCom= 1.00D+00 WtEn= 0.00D+00
 Coeff-Com: -0.689D-03 0.731D-01 0.414D+00 0.514D+00
 Coeff:     -0.689D-03 0.731D-01 0.414D+00 0.514D+00
 Gap=     0.223 Goal=   None    Shift=    0.000
 RMSDP=2.06D-07 MaxDP=4.80D-06 DE=-3.07D-09 OVMax= 8.37D-06

 Cycle   9  Pass 1  IDiag  1:
 RMSU=  8.71D-08    CP:  1.00D+00  7.55D-01  8.69D-01  5.98D-01
 E= -874.583697912538     Delta-E=       -0.000000001131 Rises=F Damp=F
 DIIS: error= 4.26D-07 at cycle   5 NSaved=   5.
 NSaved= 5 IEnMin= 5 EnMin= -874.583697912538     IErMin= 5 ErrMin= 4.26D-07
 ErrMax= 4.26D-07  0.00D+00 EMaxC= 1.00D-01 BMatC= 5.72D-11 BMatP= 1.42D-09
 IDIUse=1 WtCom= 1.00D+00 WtEn= 0.00D+00
 Coeff-Com: -0.559D-02 0.345D-01 0.215D+00 0.297D+00 0.459D+00
 Coeff:     -0.559D-02 0.345D-01 0.215D+00 0.297D+00 0.459D+00
 Gap=     0.223 Goal=   None    Shift=    0.000
 RMSDP=4.57D-08 MaxDP=9.16D-07 DE=-1.13D-09 OVMax= 1.63D-06

 Cycle  10  Pass 1  IDiag  1:
 RMSU=  2.13D-08    CP:  1.00D+00  7.57D-01  8.69D-01  5.86D-01  5.48D-01
 E= -874.583697912580     Delta-E=       -0.000000000042 Rises=F Damp=F
 DIIS: error= 4.81D-08 at cycle   6 NSaved=   6.
 NSaved= 6 IEnMin= 6 EnMin= -874.583697912580     IErMin= 6 ErrMin= 4.81D-08
 ErrMax= 4.81D-08  0.00D+00 EMaxC= 1.00D-01 BMatC= 7.50D-13 BMatP= 5.72D-11
 IDIUse=1 WtCom= 1.00D+00 WtEn= 0.00D+00
 Coeff-Com: -0.196D-02 0.937D-02 0.597D-01 0.841D-01 0.166D+00 0.683D+00
 Coeff:     -0.196D-02 0.937D-02 0.597D-01 0.841D-01 0.166D+00 0.683D+00
 Gap=     0.223 Goal=   None    Shift=    0.000
 RMSDP=6.61D-09 MaxDP=2.05D-07 DE=-4.18D-11 OVMax= 2.32D-07

 SCF Done:  E(RB3LYP) =  -874.583697913     A.U. after   10 cycles
            NFock= 10  Conv=0.66D-08     -V/T= 2.0064
 KE= 8.690041356663D+02 PE=-3.309853639299D+03 EE= 9.408744160624D+02
 Leave Link  502 at Fri Mar 14 14:25:00 2025, MaxMem=  8589934592 cpu:              65.7 elap:               8.0
 (Enter /home/enzo/gaussian_versions/gdv.j21/gdv/l701.exe)
 ... and contract with generalized density number  0.
 Compute integral first derivatives.
 Leave Link  701 at Fri Mar 14 14:25:01 2025, MaxMem=  8589934592 cpu:               1.8 elap:               0.5
 (Enter /home/enzo/gaussian_versions/gdv.j21/gdv/l702.exe)
 L702 exits ... SP integral derivatives will be done elsewhere.
 Leave Link  702 at Fri Mar 14 14:25:01 2025, MaxMem=  8589934592 cpu:               0.1 elap:               0.2
 (Enter /home/enzo/gaussian_versions/gdv.j21/gdv/l703.exe)
 Integral derivatives from FoFJK, PRISM(SPDF).
 Compute integral first derivatives, UseDBF=F ICtDFT=           0.
 Calling FoFJK, ICntrl=      2127 FMM=F ISym2X=0 I1Cent= 0 IOpClX= 0 NMat=1 NMatS=1 NMatT=0.
 FoFJK:  IHMeth= 1 ICntrl=    2127 DoSepK=F KAlg= 0 I1Cent=           0 FoldK=F
 IRaf=         0 NMat=       1 IRICut=       1 DoRegI=T DoRafI=F ISym2E= 0 IDoP0=0 IntGTp=1.
 FoFCou: FMM=F IPFlag=           0 FMFlag=      100000 FMFlg1=         800
         NFxFlg=           0 DoJE=F BraDBF=F KetDBF=F FulRan=T
         wScrn=  0.000000 ICntrl=      2127 IOpCl=  0 I1Cent=           0 NGrid=           0
         NMat0=    1 NMatS0=      1 NMatT0=    0 NMatD0=    1 NMtDS0=    0 NMtDT0=    0
 Symmetry not used in FoFCou.
 Leave Link  703 at Fri Mar 14 14:25:03 2025, MaxMem=  8589934592 cpu:              16.4 elap:               2.6
 (Enter /home/enzo/gaussian_versions/gdv.j21/gdv/l716.exe)
 Dipole        = 1.41608949D+00-1.05275009D+00-7.53410144D-01
 ***** Axes restored to original set *****
 -------------------------------------------------------------------
 Center     Atomic                   Forces (Hartrees/Bohr)
 Number     Number              X              Y              Z
 -------------------------------------------------------------------
      1        6          -0.000030737   -0.000101618    0.000027017
      2        6           0.000028264    0.000161157    0.000083271
      3       16          -0.000084178   -0.000019540   -0.000045780
      4        6          -0.000062531   -0.000060076   -0.000371929
      5        8          -0.000080888    0.000008166    0.000152199
      6        7           0.000262195    0.000188382    0.000158219
      7        6          -0.000168551   -0.000003014   -0.000026946
      8        6          -0.000144419    0.000027636    0.000074229
      9        8           0.000025793   -0.000021888   -0.000108380
     10        8          -0.000136977    0.000008852    0.000007608
     11        1           0.000002384   -0.000011945    0.000005900
     12        1           0.000024392    0.000011278   -0.000027925
     13        1          -0.000001107    0.000021589   -0.000021644
     14        1          -0.000004805    0.000024577    0.000017387
     15        1           0.000022274   -0.000024295    0.000007489
     16        1          -0.000011256   -0.000098877   -0.000005937
     17        1           0.000031165   -0.000004854    0.000018353
     18        1           0.000085333   -0.000010883   -0.000035510
     19        1           0.000243651   -0.000094648    0.000092379
 -------------------------------------------------------------------
 Cartesian Forces:  Max     0.000371929 RMS     0.000098204
 Leave Link  716 at Fri Mar 14 14:25:04 2025, MaxMem=  8589934592 cpu:               0.5 elap:               0.3
 (Enter /home/enzo/gaussian_versions/gdv.j21/gdv/l103.exe)

 GradGradGradGradGradGradGradGradGradGradGradGradGradGradGradGradGradGrad
 Berny optimization.
 Using GEDIIS/GDIIS optimizer.
 FormGI is forming the generalized inverse of G from B-inverse, IUseBI=4.
 Internal  Forces:  Max     0.000258154 RMS     0.000061888
 Search for a local minimum.
 Step number  12 out of a maximum of   93
 All quantities printed in internal units (Hartrees-Bohrs-Radians)
 RMS Force = .61888D-04 SwitMx=.10000D-02 MixMth= 2
 Mixed Optimization -- En-DIIS/RFO-DIIS
 Swapping is turned off.
 Update second derivatives using D2CorX and points    7    8   10    9   11
                                                     12
 DE= -8.76D-06 DEPred=-6.75D-06 R= 1.30D+00
 TightC=F SS=  1.41D+00  RLast= 4.20D-02 DXNew= 5.9156D-01 1.2592D-01
 Trust test= 1.30D+00 RLast= 4.20D-02 DXMaxT set to 3.52D-01
 ITU=  1  1 -1  1  1  0  1 -1 -1  1  1  0
     Eigenvalues ---    0.00230   0.00263   0.00435   0.00856   0.00972
     Eigenvalues ---    0.01098   0.01480   0.03106   0.04123   0.05004
     Eigenvalues ---    0.05525   0.05651   0.05740   0.06146   0.06688
     Eigenvalues ---    0.07036   0.07739   0.10445   0.14184   0.15896
     Eigenvalues ---    0.15934   0.16001   0.16035   0.16232   0.17237
     Eigenvalues ---    0.19024   0.19742   0.22037   0.22700   0.23717
     Eigenvalues ---    0.24635   0.25386   0.25927   0.28695   0.30079
     Eigenvalues ---    0.30391   0.31951   0.32582   0.32588   0.32605
     Eigenvalues ---    0.32628   0.32656   0.32998   0.36258   0.40660
     Eigenvalues ---    0.42487   0.45172   0.51010   0.73231   0.80151
     Eigenvalues ---    0.87465
 En-DIIS/RFO-DIIS/Sim-DIIS IScMMF=       -3 using points:    12   11
 RFO step:  Lambda=-7.23424444D-06.
 NNeg= 0 NGDIIS= 2 SimSw=  2.50D-03 Rises=F DC= -8.76D-06 SmlDif=  1.00D-05
 NRisDI= 0 DoIntr=F SqrtH=F CThrHd= 10.0 CDAdj=  3.0
 RMS Error=  0.4557334144D-02 NUsed= 2 OKEnD=F EnDIS=F
 InvSVX:  RCond= 4.37D-04 Info=           0 Equed=N FErr=  4.57D-15 BErr=  3.30D-17
 DidBck=FF Rises=F RFO-DIIS coefs:    1.93680   -0.93680
 Iteration  1 RMS(Cart)=  0.00996606 RMS(Int)=  0.00003407
 Iteration  2 RMS(Cart)=  0.00004543 RMS(Int)=  0.00000896
 Iteration  3 RMS(Cart)=  0.00000000 RMS(Int)=  0.00000896
 Variable       Old X    -DE/DX   Delta X   Delta X   Delta X     New X
                                 (Linear)    (Quad)   (Total)
    R1        2.88993  -0.00007  -0.00021  -0.00022  -0.00043   2.88950
    R2        2.06667  -0.00000  -0.00015   0.00008  -0.00007   2.06659
    R3        2.06934   0.00001  -0.00015   0.00013  -0.00002   2.06932
    R4        2.06442   0.00003  -0.00013   0.00017   0.00004   2.06446
    R5        3.51106   0.00008   0.00082   0.00015   0.00097   3.51204
    R6        2.88519   0.00007   0.00014   0.00010   0.00025   2.88543
    R7        2.07018   0.00001  -0.00004   0.00006   0.00003   2.07021
    R8        2.55338   0.00003  -0.00038   0.00045   0.00007   2.55344
    R9        2.33456  -0.00015  -0.00014  -0.00005  -0.00019   2.33437
   R10        2.56620   0.00020  -0.00108   0.00117   0.00009   2.56629
   R11        2.76545  -0.00003   0.00012  -0.00011   0.00001   2.76546
   R12        1.90929   0.00003  -0.00023   0.00023  -0.00001   1.90928
   R13        2.91532  -0.00006  -0.00003  -0.00063  -0.00066   2.91466
   R14        2.05914   0.00002  -0.00015   0.00018   0.00003   2.05917
   R15        2.07206   0.00002   0.00006   0.00006   0.00012   2.07218
   R16        2.28189  -0.00002  -0.00029   0.00015  -0.00014   2.28175
   R17        2.53292  -0.00014   0.00019  -0.00034  -0.00015   2.53277
   R18        1.87154  -0.00026   0.00028  -0.00076  -0.00048   1.87106
    A1        1.93000  -0.00002  -0.00004  -0.00017  -0.00020   1.92980
    A2        1.91876   0.00000  -0.00036   0.00016  -0.00020   1.91856
    A3        1.92522   0.00002   0.00044   0.00004   0.00047   1.92570
    A4        1.89295   0.00002   0.00035   0.00005   0.00040   1.89335
    A5        1.91010   0.00000   0.00014  -0.00006   0.00009   1.91018
    A6        1.88598  -0.00002  -0.00055  -0.00002  -0.00057   1.88540
    A7        1.88652  -0.00003  -0.00013  -0.00006  -0.00019   1.88633
    A8        1.94109   0.00003   0.00101  -0.00030   0.00072   1.94180
    A9        1.91874  -0.00001   0.00002  -0.00012  -0.00010   1.91864
   A10        1.91552  -0.00000  -0.00094   0.00042  -0.00052   1.91500
   A11        1.88038   0.00001  -0.00009   0.00018   0.00009   1.88047
   A12        1.92029  -0.00001   0.00008  -0.00010  -0.00002   1.92027
   A13        1.69029  -0.00002   0.00002  -0.00003  -0.00001   1.69028
   A14        2.13624  -0.00007   0.00045  -0.00050  -0.00005   2.13618
   A15        2.02280  -0.00005   0.00015  -0.00013   0.00002   2.02282
   A16        2.12399   0.00012  -0.00056   0.00064   0.00007   2.12406
   A17        2.13559   0.00010   0.00004   0.00040   0.00040   2.13599
   A18        2.08498  -0.00000   0.00072  -0.00003   0.00064   2.08561
   A19        2.06079  -0.00009  -0.00012  -0.00015  -0.00032   2.06048
   A20        1.99445   0.00002   0.00013  -0.00047  -0.00034   1.99412
   A21        1.89466   0.00002  -0.00034   0.00060   0.00026   1.89492
   A22        1.88776   0.00005  -0.00001   0.00072   0.00070   1.88847
   A23        1.87959  -0.00007   0.00078  -0.00038   0.00040   1.87999
   A24        1.90318  -0.00002  -0.00052  -0.00048  -0.00100   1.90218
   A25        1.90270  -0.00000  -0.00005   0.00003  -0.00002   1.90269
   A26        2.13046   0.00001  -0.00041   0.00078   0.00037   2.13083
   A27        2.01197   0.00002   0.00008  -0.00055  -0.00047   2.01150
   A28        2.14061  -0.00003   0.00034  -0.00024   0.00009   2.14070
   A29        1.92119  -0.00017   0.00214  -0.00274  -0.00060   1.92059
    D1        0.99479   0.00001   0.00189   0.00142   0.00331   0.99810
    D2        3.09864   0.00000   0.00126   0.00172   0.00298   3.10163
    D3       -1.05334   0.00001   0.00206   0.00131   0.00337  -1.04997
    D4        3.08452   0.00001   0.00208   0.00148   0.00356   3.08808
    D5       -1.09482   0.00001   0.00145   0.00178   0.00323  -1.09159
    D6        1.03639   0.00002   0.00224   0.00137   0.00361   1.04000
    D7       -1.12056   0.00000   0.00144   0.00158   0.00302  -1.11754
    D8        0.98329  -0.00000   0.00081   0.00188   0.00269   0.98599
    D9        3.11450   0.00001   0.00161   0.00147   0.00308   3.11758
   D10       -3.10495   0.00001  -0.00086   0.00128   0.00042  -3.10453
   D11        1.05849  -0.00001  -0.00144   0.00143  -0.00002   1.05847
   D12       -1.03226  -0.00001  -0.00095   0.00120   0.00025  -1.03201
   D13       -0.61764   0.00005   0.01414  -0.00153   0.01261  -0.60503
   D14        2.54294   0.00002   0.01192  -0.00188   0.01004   2.55299
   D15        1.46903   0.00003   0.01401  -0.00152   0.01249   1.48152
   D16       -1.65357  -0.00000   0.01179  -0.00187   0.00992  -1.64365
   D17       -2.74795   0.00004   0.01338  -0.00111   0.01227  -2.73568
   D18        0.41263   0.00001   0.01116  -0.00146   0.00970   0.42234
   D19        3.03554  -0.00001  -0.00426  -0.00159  -0.00585   3.02969
   D20       -0.17221   0.00008   0.00635   0.00246   0.00881  -0.16340
   D21       -0.08721  -0.00004  -0.00647  -0.00193  -0.00840  -0.09561
   D22        2.98823   0.00006   0.00413   0.00212   0.00626   2.99449
   D23        1.31409   0.00012   0.00077   0.00427   0.00504   1.31914
   D24       -2.87117   0.00006   0.00161   0.00391   0.00552  -2.86566
   D25       -0.80899   0.00010   0.00136   0.00468   0.00603  -0.80296
   D26       -1.76222   0.00002  -0.00973   0.00027  -0.00945  -1.77167
   D27        0.33570  -0.00003  -0.00889  -0.00009  -0.00898   0.32672
   D28        2.39788   0.00000  -0.00915   0.00068  -0.00846   2.38942
   D29        2.10773   0.00003   0.00477   0.00203   0.00680   2.11453
   D30       -1.05234  -0.00001   0.00523   0.00123   0.00646  -1.04588
   D31        0.00142   0.00004   0.00456   0.00184   0.00640   0.00782
   D32        3.12453  -0.00000   0.00502   0.00104   0.00606   3.13059
   D33       -2.06087   0.00009   0.00447   0.00228   0.00675  -2.05413
   D34        1.06224   0.00005   0.00493   0.00148   0.00640   1.06864
   D35        0.01803  -0.00001  -0.00150  -0.00403  -0.00552   0.01250
   D36        3.14102  -0.00005  -0.00104  -0.00482  -0.00586   3.13516
         Item               Value     Threshold  Converged?
 Maximum Force            0.000258     0.000450     YES
 RMS     Force            0.000062     0.000300     YES
 Maximum Displacement     0.029500     0.001800     NO 
 RMS     Displacement     0.009963     0.001200     NO 
 Predicted change in Energy=-3.623802D-06
 Lowest energy point so far.  Saving SCF results.
 GradGradGradGradGradGradGradGradGradGradGradGradGradGradGradGradGradGrad

 Leave Link  103 at Fri Mar 14 14:25:04 2025, MaxMem=  8589934592 cpu:               1.4 elap:               0.4
 (Enter /home/enzo/gaussian_versions/gdv.j21/gdv/l202.exe)
                          Input orientation:                          
 ---------------------------------------------------------------------
 Center     Atomic      Atomic             Coordinates (Angstroms)
 Number     Number       Type             X           Y           Z
 ---------------------------------------------------------------------
      1          6           0       -2.175782    1.876060    0.538599
      2          6           0       -1.698124    0.432141    0.696580
      3         16           0       -3.011621   -0.688378    0.008725
      4          6           0       -0.383160    0.199891   -0.043938
      5          8           0       -0.114912    0.764658   -1.109321
      6          7           0        0.472584   -0.684716    0.529994
      7          6           0        1.708106   -1.117208   -0.124243
      8          6           0        2.840313   -0.070223   -0.095430
      9          8           0        3.912291   -0.298501    0.411215
     10          8           0        2.555564    1.096332   -0.690772
     11          1           0       -3.137649    2.019479    1.038790
     12          1           0       -1.447095    2.561092    0.984528
     13          1           0       -2.274674    2.129598   -0.519425
     14          1           0       -1.577777    0.192722    1.758808
     15          1           0       -2.397119   -1.855616    0.301559
     16          1           0        0.281334   -1.030010    1.460045
     17          1           0        2.071871   -2.012882    0.378564
     18          1           0        1.475539   -1.362576   -1.167380
     19          1           0        1.631314    1.079556   -1.045485
 ---------------------------------------------------------------------
                    Distance matrix (angstroms):
                    1          2          3          4          5
     1  C    0.000000
     2  C    1.529058   0.000000
     3  S    2.748770   1.858489   0.000000
     4  C    2.522377   1.526905   2.774997   0.000000
     5  O    2.863221   2.424542   3.428157   1.235297   0.000000
     6  N    3.683950   2.446854   3.522984   1.358023   2.265655
     7  C    4.948091   3.831010   4.741033   2.472770   2.799142
     8  C    5.417677   4.634335   5.885414   3.235180   3.233939
     9  O    6.466033   5.664983   6.946550   4.348156   4.434039
    10  O    4.950248   4.523245   5.887956   3.139760   2.723350
    11  H    1.093594   2.170019   2.899898   3.474249   3.914829
    12  H    1.095037   2.162952   3.736173   2.786569   3.063672
    13  H    1.092463   2.166204   2.960240   2.743662   2.622138
    14  H    2.163365   1.095506   2.427970   2.162650   3.270053
    15  H    3.745742   2.424555   1.351225   2.898364   3.750319
    16  H    3.915575   2.576630   3.614775   2.053333   3.159033
    17  H    5.761253   4.504679   5.266212   3.331974   3.835434
    18  H    5.170229   4.094813   4.687469   2.675479   2.656696
    19  H    4.199728   3.813016   5.078759   2.415576   1.775540
                    6          7          8          9         10
     6  N    0.000000
     7  C    1.463418   0.000000
     8  C    2.524857   1.542369   0.000000
     9  O    3.463359   2.411520   1.207450   0.000000
    10  O    3.000201   2.436986   1.340285   2.236212   0.000000
    11  H    4.539309   5.888360   6.433455   7.447720   6.021316
    12  H    3.798294   4.971374   5.145095   6.101556   4.579675
    13  H    4.070512   5.153684   5.584092   6.711207   4.942489
    14  H    2.546343   4.007347   4.798631   5.674342   4.888912
    15  H    3.107794   4.192783   5.547606   6.499638   5.850452
    16  H    1.010346   2.133835   3.144689   3.849546   3.784107
    17  H    2.084389   1.089666   2.142218   2.515415   3.323349
    18  H    2.084824   1.096553   2.163761   3.092245   2.727607
    19  H    2.633903   2.383350   1.919968   3.037083   0.990122
                   11         12         13         14         15
    11  H    0.000000
    12  H    1.776024   0.000000
    13  H    1.784625   1.770014   0.000000
    14  H    2.507721   2.495148   3.070424   0.000000
    15  H    4.013509   4.569059   4.070742   2.643971   0.000000
    16  H    4.600683   4.013677   4.520465   2.245134   3.032792
    17  H    6.620795   5.802719   6.071160   4.482153   4.472420
    18  H    6.130822   5.344873   5.165193   4.506026   4.171133
    19  H    5.288729   3.973978   4.078734   4.353022   5.163142
                   16         17         18         19
    16  H    0.000000
    17  H    2.311204   0.000000
    18  H    2.905183   1.780015   0.000000
    19  H    3.542654   3.432955   2.450129   0.000000
 Stoichiometry    C5H9NO3S
 Framework group  C1[X(C5H9NO3S)]
 Deg. of freedom    51
 Full point group                 C1      NOp   1
 RotChk:  IX=2 Diff= 2.13D-03
 Largest Abelian subgroup         C1      NOp   1
 Largest concise Abelian subgroup C1      NOp   1
                         Standard orientation:                         
 ---------------------------------------------------------------------
 Center     Atomic      Atomic             Coordinates (Angstroms)
 Number     Number       Type             X           Y           Z
 ---------------------------------------------------------------------
      1          6           0        2.291915    1.650947   -0.624993
      2          6           0        1.772374    0.212915   -0.612336
      3         16           0        3.003697   -0.837147    0.301554
      4          6           0        0.410099    0.122476    0.071379
      5          8           0        0.102443    0.837093    1.030872
      6          7           0       -0.443023   -0.809215   -0.426978
      7          6           0       -1.728348   -1.112075    0.203741
      8          6           0       -2.818742   -0.048223   -0.037425
      9          8           0       -3.867830   -0.314853   -0.572456
     10          8           0       -2.526405    1.181403    0.408584
     11          1           0        3.285088    1.696668   -1.080475
     12          1           0        1.614736    2.287308   -1.204285
     13          1           0        2.339800    2.046258    0.392313
     14          1           0        1.703828   -0.168409   -1.637044
     15          1           0        2.365200   -2.016238    0.134592
     16          1           0       -0.211963   -1.285625   -1.287470
     17          1           0       -2.095024   -2.058498   -0.192750
     18          1           0       -1.564178   -1.216413    1.282903
     19          1           0       -1.624920    1.188437    0.817993
 ---------------------------------------------------------------------
 Rotational constants (GHZ):           2.6646604           0.5300419           0.4839856
 Leave Link  202 at Fri Mar 14 14:25:05 2025, MaxMem=  8589934592 cpu:               0.5 elap:               0.4
 (Enter /home/enzo/gaussian_versions/gdv.j21/gdv/l301.exe)
 Standard basis: 6-31G(d) (6D, 7F)
 Ernie: Thresh=  0.10000D-02 Tol=  0.10000D-05 Strict=F.
 There are   172 symmetry adapted cartesian basis functions of A   symmetry.
 There are   172 symmetry adapted basis functions of A   symmetry.
   172 basis functions,   340 primitive gaussians,   172 cartesian basis functions
    43 alpha electrons       43 beta electrons
       nuclear repulsion energy       625.3774496231 Hartrees.
 IExCor=      4002 DFT=T Ex+Corr=B3LYP ScaHFX=  0.200000
 ScaDFX=  0.800000  0.720000  1.000000  0.810000  1.000000  0.000000
 ScaDFX=  0.000000  0.000000  0.000000  0.000000  0.000000  0.000000
 IRadAn=      5 IRanWt=     -1 IRanGd=            0 ICorTp=0 IEmpDi=  4
 NAtoms=   19 NActive=   19 NUniq=   19 SFac= 1.00D+00 NAtFMM=   60 NAOKFM=F Big=F
 Integral buffers will be    131072 words long.
 Raffenetti 2 integral format.
 Two-electron integral symmetry is turned on.
 Leave Link  301 at Fri Mar 14 14:25:05 2025, MaxMem=  8589934592 cpu:               0.6 elap:               0.3
 (Enter /home/enzo/gaussian_versions/gdv.j21/gdv/l302.exe)
 NPDir=0 NMtPBC=     1 NCelOv=     1 NCel=       1 NClECP=     1 NCelD=      1
         NCelK=      1 NCelE2=     1 NClLst=     1 CellRange=     0.0.
 One-electron integrals computed using PRISM.
 One-electron integral symmetry used in STVInt
 NBasis=   172 RedAO= T EigKep=  2.77D-03  NBF=   172
 NBsUse=   172 1.00D-06 EigRej= -1.00D+00 NBFU=   172
 Precomputing XC quadrature grid using
 IXCGrd= 4 IRadAn=           5 IRanWt=          -1 IRanGd=           0 AccXCQ= 0.00D+00.
 Generated NRdTot=       0 NPtTot=      406886 NUsed=           0 NTot=          64
 NSgBfM=   171   171   171   171   171 MxSgAt=    19 MxSgA2=    19 SizInc=   0.000
 NMBTot=     3440 MaxBatPerAtom=       85 MaxMicBPerAtom=      204 NBfPt=            52165197.
 Leave Link  302 at Fri Mar 14 14:25:06 2025, MaxMem=  8589934592 cpu:               6.5 elap:               1.2
 (Enter /home/enzo/gaussian_versions/gdv.j21/gdv/l303.exe)
 DipDrv:  MaxL=1.
 Leave Link  303 at Fri Mar 14 14:25:06 2025, MaxMem=  8589934592 cpu:               0.4 elap:               0.2
 (Enter /home/enzo/gaussian_versions/gdv.j21/gdv/l401.exe)
 Initial guess from the checkpoint file:  "/local/home/enzo/scratch/Gau-2271009.chk"
 B after Tr=     0.000000    0.000000    0.000000
         Rot=    0.999999    0.000973    0.000203    0.000393 Ang=   0.12 deg.
 AO Guess basis will be translated and rotated to current coordinates.
 JPrj=2 DoOrth=T DoCkMO=T.
 Generating alternative initial guess.
 ExpMin= 1.17D-01 ExpMax= 2.19D+04 ExpMxC= 3.30D+03 IAcc=3 IRadAn=         5 AccDes= 0.00D+00
 Harris functional with IExCor= 4002 and IRadAn=       5 diagonalized for initial guess.
 HarFok:  IExCor=    4002 AccDes= 0.00D+00 IRadAn=         5 IDoV= 1 UseB2=F ITyADJ=14 ICtDFT=  3500011
 FoFCou: FMM=F IPFlag=           0 FMFlag=      100000 FMFlg1=           0
         NFxFlg=           0 DoJE=T BraDBF=F KetDBF=T FulRan=T
         wScrn=  0.000000 ICntrl=       500 IOpCl=  0 I1Cent=   200000004 NGrid=           0
         NMat0=    1 NMatS0=      1 NMatT0=    0 NMatD0=    1 NMtDS0=    0 NMtDT0=    0
 Petite list used in FoFCou.
 Harris En= -874.547393781728    
 Leave Link  401 at Fri Mar 14 14:25:08 2025, MaxMem=  8589934592 cpu:              11.9 elap:               1.9
 (Enter /home/enzo/gaussian_versions/gdv.j21/gdv/l502.exe)
 Integral symmetry usage will be decided dynamically.
 Closed shell SCF:
 Using DIIS extrapolation, IDIIS=  1040.
 NGot=  8589934592 LenX=  8589843591 LenY=  8589813566
 Requested convergence on RMS density matrix=1.00D-08 within 128 cycles.
 Requested convergence on MAX density matrix=1.00D-06.
 Requested convergence on             energy=1.00D-06.
 No special actions if energy rises.
 Fock matrices will be formed incrementally for  20 cycles.
 Integral accuracy reduced to 1.0D-05 until final iterations.

 Cycle   1  Pass 0  IDiag  1:
 FoFJK:  IHMeth= 1 ICntrl=       0 DoSepK=F KAlg= 0 I1Cent=           0 FoldK=F
 IRaf= 910000000 NMat=       1 IRICut=       1 DoRegI=T DoRafI=F ISym2E= 0 IDoP0=0 IntGTp=1.
 FoFCou: FMM=F IPFlag=           0 FMFlag=      100000 FMFlg1=           0
         NFxFlg=           0 DoJE=F BraDBF=F KetDBF=F FulRan=T
         wScrn=  0.000000 ICntrl=         0 IOpCl=  0 I1Cent=           0 NGrid=           0
         NMat0=    1 NMatS0=      1 NMatT0=    0 NMatD0=    1 NMtDS0=    0 NMtDT0=    0
 Symmetry not used in FoFCou.
 E= -874.583547734312    
 DIIS: error= 4.61D-04 at cycle   1 NSaved=   1.
 NSaved= 1 IEnMin= 1 EnMin= -874.583547734312     IErMin= 1 ErrMin= 4.61D-04
 ErrMax= 4.61D-04  0.00D+00 EMaxC= 1.00D-01 BMatC= 9.65D-05 BMatP= 9.65D-05
 IDIUse=3 WtCom= 9.95D-01 WtEn= 4.61D-03
 Coeff-Com:  0.100D+01
 Coeff-En:   0.100D+01
 Coeff:      0.100D+01
 Gap=     1.536 Goal=   None    Shift=    0.000
 RMSDP=9.79D-05 MaxDP=1.96D-03              OVMax= 3.61D-03

 Cycle   2  Pass 0  IDiag  1:
 RMSU=  9.79D-05    CP:  1.00D+00
 E= -874.583729452354     Delta-E=       -0.000181718043 Rises=F Damp=F
 DIIS: error= 6.13D-05 at cycle   2 NSaved=   2.
 NSaved= 2 IEnMin= 2 EnMin= -874.583729452354     IErMin= 2 ErrMin= 6.13D-05
 ErrMax= 6.13D-05  0.00D+00 EMaxC= 1.00D-01 BMatC= 1.58D-06 BMatP= 9.65D-05
 IDIUse=1 WtCom= 1.00D+00 WtEn= 0.00D+00
 Coeff-Com: -0.670D-01 0.107D+01
 Coeff:     -0.670D-01 0.107D+01
 Gap=     0.223 Goal=   None    Shift=    0.000
 RMSDP=1.55D-05 MaxDP=2.43D-04 DE=-1.82D-04 OVMax= 4.25D-04

 Cycle   3  Pass 0  IDiag  1:
 RMSU=  1.40D-05    CP:  1.00D+00  1.07D+00
 E= -874.583731047604     Delta-E=       -0.000001595249 Rises=F Damp=F
 DIIS: error= 5.55D-05 at cycle   3 NSaved=   3.
 NSaved= 3 IEnMin= 3 EnMin= -874.583731047604     IErMin= 3 ErrMin= 5.55D-05
 ErrMax= 5.55D-05  0.00D+00 EMaxC= 1.00D-01 BMatC= 1.01D-06 BMatP= 1.58D-06
 IDIUse=1 WtCom= 1.00D+00 WtEn= 0.00D+00
 Coeff-Com: -0.395D-01 0.510D+00 0.529D+00
 Coeff:     -0.395D-01 0.510D+00 0.529D+00
 Gap=     0.223 Goal=   None    Shift=    0.000
 RMSDP=7.89D-06 MaxDP=1.92D-04 DE=-1.60D-06 OVMax= 3.83D-04

 Initial convergence to 1.0D-05 achieved.  Increase integral accuracy.
 Cycle   4  Pass 1  IDiag  1:
 E= -874.583701764974     Delta-E=        0.000029282629 Rises=F Damp=F
 DIIS: error= 3.63D-05 at cycle   1 NSaved=   1.
 NSaved= 1 IEnMin= 1 EnMin= -874.583701764974     IErMin= 1 ErrMin= 3.63D-05
 ErrMax= 3.63D-05  0.00D+00 EMaxC= 1.00D-01 BMatC= 2.79D-07 BMatP= 2.79D-07
 IDIUse=1 WtCom= 1.00D+00 WtEn= 0.00D+00
 Coeff-Com:  0.100D+01
 Coeff:      0.100D+01
 Gap=     0.223 Goal=   None    Shift=    0.000
 RMSDP=7.89D-06 MaxDP=1.92D-04 DE= 2.93D-05 OVMax= 5.19D-04

 Cycle   5  Pass 1  IDiag  1:
 RMSU=  8.23D-06    CP:  1.00D+00
 E= -874.583701080296     Delta-E=        0.000000684678 Rises=F Damp=F
 DIIS: error= 7.65D-05 at cycle   2 NSaved=   2.
 NSaved= 2 IEnMin= 1 EnMin= -874.583701764974     IErMin= 1 ErrMin= 3.63D-05
 ErrMax= 7.65D-05  0.00D+00 EMaxC= 1.00D-01 BMatC= 1.15D-06 BMatP= 2.79D-07
 IDIUse=1 WtCom= 1.00D+00 WtEn= 0.00D+00
 Coeff-Com:  0.673D+00 0.327D+00
 Coeff:      0.673D+00 0.327D+00
 Gap=     0.223 Goal=   None    Shift=    0.000
 RMSDP=5.29D-06 MaxDP=1.89D-04 DE= 6.85D-07 OVMax= 3.74D-04

 Cycle   6  Pass 1  IDiag  1:
 RMSU=  2.04D-06    CP:  1.00D+00  4.07D-01
 E= -874.583701987141     Delta-E=       -0.000000906845 Rises=F Damp=F
 DIIS: error= 4.18D-06 at cycle   3 NSaved=   3.
 NSaved= 3 IEnMin= 3 EnMin= -874.583701987141     IErMin= 3 ErrMin= 4.18D-06
 ErrMax= 4.18D-06  0.00D+00 EMaxC= 1.00D-01 BMatC= 8.06D-09 BMatP= 2.79D-07
 IDIUse=1 WtCom= 1.00D+00 WtEn= 0.00D+00
 Coeff-Com:  0.278D+00 0.151D+00 0.571D+00
 Coeff:      0.278D+00 0.151D+00 0.571D+00
 Gap=     0.223 Goal=   None    Shift=    0.000
 RMSDP=6.78D-07 MaxDP=2.04D-05 DE=-9.07D-07 OVMax= 2.69D-05

 Cycle   7  Pass 1  IDiag  1:
 RMSU=  6.40D-07    CP:  1.00D+00  4.17D-01  8.97D-01
 E= -874.583701991625     Delta-E=       -0.000000004484 Rises=F Damp=F
 DIIS: error= 1.96D-06 at cycle   4 NSaved=   4.
 NSaved= 4 IEnMin= 4 EnMin= -874.583701991625     IErMin= 4 ErrMin= 1.96D-06
 ErrMax= 1.96D-06  0.00D+00 EMaxC= 1.00D-01 BMatC= 2.44D-09 BMatP= 8.06D-09
 IDIUse=1 WtCom= 1.00D+00 WtEn= 0.00D+00
 Coeff-Com:  0.212D-01 0.216D-01 0.367D+00 0.590D+00
 Coeff:      0.212D-01 0.216D-01 0.367D+00 0.590D+00
 Gap=     0.223 Goal=   None    Shift=    0.000
 RMSDP=2.65D-07 MaxDP=5.41D-06 DE=-4.48D-09 OVMax= 8.36D-06

 Cycle   8  Pass 1  IDiag  1:
 RMSU=  9.93D-08    CP:  1.00D+00  4.22D-01  9.38D-01  6.45D-01
 E= -874.583701993703     Delta-E=       -0.000000002079 Rises=F Damp=F
 DIIS: error= 2.50D-07 at cycle   5 NSaved=   5.
 NSaved= 5 IEnMin= 5 EnMin= -874.583701993703     IErMin= 5 ErrMin= 2.50D-07
 ErrMax= 2.50D-07  0.00D+00 EMaxC= 1.00D-01 BMatC= 3.45D-11 BMatP= 2.44D-09
 IDIUse=1 WtCom= 1.00D+00 WtEn= 0.00D+00
 Coeff-Com: -0.314D-02 0.191D-02 0.109D+00 0.215D+00 0.677D+00
 Coeff:     -0.314D-02 0.191D-02 0.109D+00 0.215D+00 0.677D+00
 Gap=     0.223 Goal=   None    Shift=    0.000
 RMSDP=4.11D-08 MaxDP=1.06D-06 DE=-2.08D-09 OVMax= 1.58D-06

 Cycle   9  Pass 1  IDiag  1:
 RMSU=  3.05D-08    CP:  1.00D+00  4.23D-01  9.42D-01  6.47D-01  7.36D-01
 E= -874.583701993733     Delta-E=       -0.000000000029 Rises=F Damp=F
 DIIS: error= 9.68D-08 at cycle   6 NSaved=   6.
 NSaved= 6 IEnMin= 6 EnMin= -874.583701993733     IErMin= 6 ErrMin= 9.68D-08
 ErrMax= 9.68D-08  0.00D+00 EMaxC= 1.00D-01 BMatC= 6.55D-12 BMatP= 3.45D-11
 IDIUse=1 WtCom= 1.00D+00 WtEn= 0.00D+00
 Coeff-Com: -0.279D-02-0.121D-03 0.378D-01 0.834D-01 0.372D+00 0.510D+00
 Coeff:     -0.279D-02-0.121D-03 0.378D-01 0.834D-01 0.372D+00 0.510D+00
 Gap=     0.223 Goal=   None    Shift=    0.000
 RMSDP=1.66D-08 MaxDP=4.31D-07 DE=-2.93D-11 OVMax= 6.54D-07

 Cycle  10  Pass 1  IDiag  1:
 RMSU=  1.19D-08    CP:  1.00D+00  4.23D-01  9.42D-01  6.55D-01  7.84D-01
                    CP:  7.04D-01
 E= -874.583701993729     Delta-E=        0.000000000003 Rises=F Damp=F
 DIIS: error= 4.18D-08 at cycle   7 NSaved=   7.
 NSaved= 7 IEnMin= 6 EnMin= -874.583701993733     IErMin= 7 ErrMin= 4.18D-08
 ErrMax= 4.18D-08  0.00D+00 EMaxC= 1.00D-01 BMatC= 5.40D-13 BMatP= 6.55D-12
 IDIUse=1 WtCom= 1.00D+00 WtEn= 0.00D+00
 Coeff-Com: -0.120D-02-0.245D-03 0.985D-02 0.241D-01 0.140D+00 0.271D+00
 Coeff-Com:  0.556D+00
 Coeff:     -0.120D-02-0.245D-03 0.985D-02 0.241D-01 0.140D+00 0.271D+00
 Coeff:      0.556D+00
 Gap=     0.223 Goal=   None    Shift=    0.000
 RMSDP=5.55D-09 MaxDP=1.77D-07 DE= 3.41D-12 OVMax= 2.56D-07

 SCF Done:  E(RB3LYP) =  -874.583701994     A.U. after   10 cycles
            NFock= 10  Conv=0.55D-08     -V/T= 2.0064
 KE= 8.690051867411D+02 PE=-3.309822927546D+03 EE= 9.408565891876D+02
 Leave Link  502 at Fri Mar 14 14:25:17 2025, MaxMem=  8589934592 cpu:              67.0 elap:               8.4
 (Enter /home/enzo/gaussian_versions/gdv.j21/gdv/l701.exe)
 ... and contract with generalized density number  0.
 Compute integral first derivatives.
 Leave Link  701 at Fri Mar 14 14:25:17 2025, MaxMem=  8589934592 cpu:               2.1 elap:               0.5
 (Enter /home/enzo/gaussian_versions/gdv.j21/gdv/l702.exe)
 L702 exits ... SP integral derivatives will be done elsewhere.
 Leave Link  702 at Fri Mar 14 14:25:17 2025, MaxMem=  8589934592 cpu:               0.1 elap:               0.2
 (Enter /home/enzo/gaussian_versions/gdv.j21/gdv/l703.exe)
 Integral derivatives from FoFJK, PRISM(SPDF).
 Compute integral first derivatives, UseDBF=F ICtDFT=           0.
 Calling FoFJK, ICntrl=      2127 FMM=F ISym2X=0 I1Cent= 0 IOpClX= 0 NMat=1 NMatS=1 NMatT=0.
 FoFJK:  IHMeth= 1 ICntrl=    2127 DoSepK=F KAlg= 0 I1Cent=           0 FoldK=F
 IRaf=         0 NMat=       1 IRICut=       1 DoRegI=T DoRafI=F ISym2E= 0 IDoP0=0 IntGTp=1.
 FoFCou: FMM=F IPFlag=           0 FMFlag=      100000 FMFlg1=         800
         NFxFlg=           0 DoJE=F BraDBF=F KetDBF=F FulRan=T
         wScrn=  0.000000 ICntrl=      2127 IOpCl=  0 I1Cent=           0 NGrid=           0
         NMat0=    1 NMatS0=      1 NMatT0=    0 NMatD0=    1 NMtDS0=    0 NMtDT0=    0
 Symmetry not used in FoFCou.
 Leave Link  703 at Fri Mar 14 14:25:20 2025, MaxMem=  8589934592 cpu:              15.8 elap:               2.2
 (Enter /home/enzo/gaussian_versions/gdv.j21/gdv/l716.exe)
 Dipole        = 1.42483381D+00-1.05125119D+00-7.48339901D-01
 ***** Axes restored to original set *****
 -------------------------------------------------------------------
 Center     Atomic                   Forces (Hartrees/Bohr)
 Number     Number              X              Y              Z
 -------------------------------------------------------------------
      1        6           0.000037991   -0.000042211   -0.000008482
      2        6          -0.000028252   -0.000000786   -0.000020292
      3       16          -0.000017762    0.000021788   -0.000000177
      4        6          -0.000042329    0.000079707   -0.000002235
      5        8          -0.000055210   -0.000062420    0.000004404
      6        7           0.000147088   -0.000007024    0.000030081
      7        6          -0.000178067   -0.000000248   -0.000035824
      8        6          -0.000078388    0.000087408    0.000063516
      9        8           0.000106889   -0.000056119   -0.000011393
     10        8           0.000036464   -0.000003604    0.000000260
     11        1          -0.000011505    0.000004567    0.000009812
     12        1          -0.000003856    0.000014996    0.000002934
     13        1          -0.000007177    0.000000588   -0.000010675
     14        1           0.000016492   -0.000006553   -0.000000058
     15        1          -0.000002875   -0.000016737    0.000000696
     16        1          -0.000031745   -0.000023442   -0.000005840
     17        1           0.000037093    0.000010809    0.000011888
     18        1           0.000030377   -0.000047998   -0.000013045
     19        1           0.000044771    0.000047281   -0.000015570
 -------------------------------------------------------------------
 Cartesian Forces:  Max     0.000178067 RMS     0.000046308
 Leave Link  716 at Fri Mar 14 14:25:20 2025, MaxMem=  8589934592 cpu:               0.2 elap:               0.3
 (Enter /home/enzo/gaussian_versions/gdv.j21/gdv/l103.exe)

 GradGradGradGradGradGradGradGradGradGradGradGradGradGradGradGradGradGrad
 Berny optimization.
 Using GEDIIS/GDIIS optimizer.
 FormGI is forming the generalized inverse of G from B-inverse, IUseBI=4.
 Internal  Forces:  Max     0.000223146 RMS     0.000052873
 Search for a local minimum.
 Step number  13 out of a maximum of   93
 All quantities printed in internal units (Hartrees-Bohrs-Radians)
 RMS Force = .52873D-04 SwitMx=.10000D-02 MixMth= 2
 Mixed Optimization -- En-DIIS/RFO-DIIS
 Swapping is turned off.
 Update second derivatives using D2CorX and points    7    8   10    9   11
                                                     12   13
 DE= -4.08D-06 DEPred=-3.62D-06 R= 1.13D+00
 TightC=F SS=  1.41D+00  RLast= 4.16D-02 DXNew= 5.9156D-01 1.2485D-01
 Trust test= 1.13D+00 RLast= 4.16D-02 DXMaxT set to 3.52D-01
 ITU=  1  1  1 -1  1  1  0  1 -1 -1  1  1  0
     Eigenvalues ---    0.00228   0.00243   0.00428   0.00763   0.00982
     Eigenvalues ---    0.01099   0.01477   0.03126   0.04133   0.05010
     Eigenvalues ---    0.05526   0.05651   0.05744   0.06147   0.06601
     Eigenvalues ---    0.07052   0.07743   0.10444   0.14319   0.15911
     Eigenvalues ---    0.15947   0.16003   0.16047   0.16289   0.17425
     Eigenvalues ---    0.19146   0.19815   0.22027   0.22626   0.23851
     Eigenvalues ---    0.24596   0.25406   0.26161   0.28983   0.30059
     Eigenvalues ---    0.30799   0.31942   0.32582   0.32590   0.32605
     Eigenvalues ---    0.32632   0.32662   0.33037   0.36402   0.40666
     Eigenvalues ---    0.42628   0.44776   0.51714   0.71709   0.80234
     Eigenvalues ---    0.88590
 En-DIIS/RFO-DIIS/Sim-DIIS IScMMF=       -3 using points:    13   12   11
 RFO step:  Lambda=-1.15705077D-06.
 NNeg= 0 NGDIIS= 3 SimSw=  2.50D-01 Rises=F DC= -4.08D-06 SmlDif=  1.00D-05
 NRisDI= 0 DoIntr=F SqrtH=F CThrHd= 10.0 CDAdj=  3.0
 RMS Error=  0.1242268993D-02 NUsed= 3 OKEnD=F EnDIS=F
 InvSVX:  RCond= 7.11D-06 Info=           0 Equed=N FErr=  6.55D-14 BErr=  4.62D-17
 DidBck=FF Rises=F RFO-DIIS coefs:    1.44157   -0.63672    0.19515
 Iteration  1 RMS(Cart)=  0.00268182 RMS(Int)=  0.00000336
 Iteration  2 RMS(Cart)=  0.00000428 RMS(Int)=  0.00000074
 Iteration  3 RMS(Cart)=  0.00000000 RMS(Int)=  0.00000074
 Variable       Old X    -DE/DX   Delta X   Delta X   Delta X     New X
                                 (Linear)    (Quad)   (Total)
    R1        2.88950  -0.00003  -0.00015  -0.00000  -0.00015   2.88935
    R2        2.06659   0.00002  -0.00000   0.00002   0.00002   2.06661
    R3        2.06932   0.00001   0.00002  -0.00002   0.00000   2.06932
    R4        2.06446   0.00001   0.00004  -0.00002   0.00002   2.06448
    R5        3.51204   0.00001   0.00026  -0.00000   0.00025   3.51229
    R6        2.88543  -0.00000   0.00008   0.00005   0.00013   2.88556
    R7        2.07021   0.00000   0.00002  -0.00003  -0.00001   2.07020
    R8        2.55344   0.00001   0.00011  -0.00014  -0.00003   2.55342
    R9        2.33437  -0.00004  -0.00005  -0.00013  -0.00018   2.33419
   R10        2.56629   0.00008   0.00026  -0.00025   0.00002   2.56631
   R11        2.76546  -0.00001  -0.00002  -0.00018  -0.00021   2.76525
   R12        1.90928   0.00001   0.00005  -0.00008  -0.00003   1.90925
   R13        2.91466   0.00013  -0.00028   0.00049   0.00021   2.91486
   R14        2.05917   0.00001   0.00004  -0.00002   0.00002   2.05919
   R15        2.07218   0.00002   0.00004   0.00001   0.00005   2.07224
   R16        2.28175   0.00010  -0.00000   0.00004   0.00004   2.28179
   R17        2.53277   0.00003  -0.00010   0.00031   0.00021   2.53298
   R18        1.87106  -0.00004  -0.00027   0.00002  -0.00025   1.87081
    A1        1.92980  -0.00000  -0.00008   0.00002  -0.00006   1.92975
    A2        1.91856   0.00002  -0.00001   0.00013   0.00011   1.91867
    A3        1.92570  -0.00000   0.00012  -0.00004   0.00008   1.92577
    A4        1.89335  -0.00001   0.00010  -0.00009   0.00001   1.89336
    A5        1.91018  -0.00000   0.00001  -0.00003  -0.00002   1.91016
    A6        1.88540  -0.00000  -0.00014   0.00001  -0.00013   1.88528
    A7        1.88633  -0.00003  -0.00006  -0.00018  -0.00024   1.88610
    A8        1.94180  -0.00002   0.00011  -0.00014  -0.00003   1.94177
    A9        1.91864   0.00002  -0.00005   0.00013   0.00008   1.91873
   A10        1.91500   0.00004  -0.00003   0.00027   0.00024   1.91524
   A11        1.88047   0.00000   0.00006   0.00002   0.00008   1.88055
   A12        1.92027  -0.00002  -0.00003  -0.00010  -0.00013   1.92014
   A13        1.69028   0.00003  -0.00001   0.00022   0.00022   1.69050
   A14        2.13618  -0.00002  -0.00012   0.00032   0.00020   2.13638
   A15        2.02282  -0.00001  -0.00002   0.00005   0.00003   2.02286
   A16        2.12406   0.00003   0.00015  -0.00038  -0.00023   2.12383
   A17        2.13599   0.00010   0.00017  -0.00023  -0.00006   2.13593
   A18        2.08561  -0.00006   0.00013  -0.00000   0.00013   2.08574
   A19        2.06048  -0.00004  -0.00011   0.00025   0.00013   2.06061
   A20        1.99412   0.00016  -0.00018   0.00050   0.00033   1.99444
   A21        1.89492  -0.00003   0.00019  -0.00013   0.00006   1.89498
   A22        1.88847  -0.00001   0.00031   0.00018   0.00049   1.88896
   A23        1.87999  -0.00013   0.00001  -0.00063  -0.00062   1.87937
   A24        1.90218   0.00000  -0.00033   0.00025  -0.00009   1.90209
   A25        1.90269   0.00000   0.00000  -0.00020  -0.00020   1.90249
   A26        2.13083  -0.00013   0.00025  -0.00051  -0.00026   2.13056
   A27        2.01150   0.00022  -0.00022   0.00068   0.00046   2.01195
   A28        2.14070  -0.00009  -0.00003  -0.00018  -0.00021   2.14049
   A29        1.92059   0.00010  -0.00071   0.00146   0.00075   1.92134
    D1        0.99810  -0.00001   0.00107  -0.00001   0.00106   0.99916
    D2        3.10163   0.00001   0.00105   0.00012   0.00118   3.10280
    D3       -1.04997  -0.00000   0.00106  -0.00001   0.00105  -1.04892
    D4        3.08808  -0.00001   0.00114  -0.00003   0.00111   3.08918
    D5       -1.09159   0.00001   0.00112   0.00010   0.00123  -1.09036
    D6        1.04000  -0.00001   0.00113  -0.00003   0.00110   1.04110
    D7       -1.11754  -0.00000   0.00103   0.00004   0.00107  -1.11647
    D8        0.98599   0.00002   0.00102   0.00017   0.00119   0.98718
    D9        3.11758   0.00000   0.00102   0.00004   0.00106   3.11864
   D10       -3.10453  -0.00000   0.00037   0.00087   0.00124  -3.10329
   D11        1.05847   0.00001   0.00029   0.00099   0.00128   1.05975
   D12       -1.03201   0.00000   0.00031   0.00094   0.00125  -1.03076
   D13       -0.60503  -0.00001   0.00262  -0.00112   0.00151  -0.60352
   D14        2.55299   0.00002   0.00195  -0.00052   0.00144   2.55442
   D15        1.48152  -0.00003   0.00260  -0.00125   0.00135   1.48286
   D16       -1.64365  -0.00000   0.00192  -0.00065   0.00127  -1.64238
   D17       -2.73568  -0.00001   0.00263  -0.00112   0.00151  -2.73416
   D18        0.42234   0.00002   0.00196  -0.00052   0.00144   0.42378
   D19        3.02969  -0.00001  -0.00170  -0.00055  -0.00225   3.02744
   D20       -0.16340   0.00004   0.00257  -0.00006   0.00250  -0.16090
   D21       -0.09561   0.00002  -0.00236   0.00004  -0.00232  -0.09793
   D22        2.99449   0.00007   0.00190   0.00053   0.00243   2.99692
   D23        1.31914   0.00012   0.00207   0.00015   0.00222   1.32136
   D24       -2.86566   0.00004   0.00210  -0.00041   0.00169  -2.86397
   D25       -0.80296   0.00002   0.00238  -0.00062   0.00176  -0.80120
   D26       -1.77167   0.00007  -0.00215  -0.00032  -0.00247  -1.77414
   D27        0.32672  -0.00001  -0.00211  -0.00088  -0.00300   0.32373
   D28        2.38942  -0.00002  -0.00183  -0.00110  -0.00293   2.38649
   D29        2.11453  -0.00001   0.00201   0.00109   0.00310   2.11763
   D30       -1.04588  -0.00005   0.00176   0.00036   0.00212  -1.04376
   D31        0.00782   0.00002   0.00188   0.00138   0.00326   0.01108
   D32        3.13059  -0.00003   0.00163   0.00065   0.00228   3.13287
   D33       -2.05413   0.00008   0.00205   0.00184   0.00389  -2.05024
   D34        1.06864   0.00004   0.00180   0.00111   0.00291   1.07156
   D35        0.01250   0.00001  -0.00213   0.00051  -0.00162   0.01089
   D36        3.13516  -0.00003  -0.00237  -0.00023  -0.00260   3.13256
         Item               Value     Threshold  Converged?
 Maximum Force            0.000223     0.000450     YES
 RMS     Force            0.000053     0.000300     YES
 Maximum Displacement     0.009987     0.001800     NO 
 RMS     Displacement     0.002682     0.001200     NO 
 Predicted change in Energy=-5.697176D-07
 Lowest energy point so far.  Saving SCF results.
 GradGradGradGradGradGradGradGradGradGradGradGradGradGradGradGradGradGrad

 Leave Link  103 at Fri Mar 14 14:25:21 2025, MaxMem=  8589934592 cpu:               1.7 elap:               0.5
 (Enter /home/enzo/gaussian_versions/gdv.j21/gdv/l202.exe)
                          Input orientation:                          
 ---------------------------------------------------------------------
 Center     Atomic      Atomic             Coordinates (Angstroms)
 Number     Number       Type             X           Y           Z
 ---------------------------------------------------------------------
      1          6           0       -2.177514    1.875748    0.537434
      2          6           0       -1.698301    0.432570    0.696708
      3         16           0       -3.010856   -0.689730    0.009598
      4          6           0       -0.382884    0.201201   -0.043423
      5          8           0       -0.114242    0.766422   -1.108354
      6          7           0        0.473062   -0.683262    0.530451
      7          6           0        1.707543   -1.116919   -0.124738
      8          6           0        2.841667   -0.071851   -0.095771
      9          8           0        3.914549   -0.303786    0.407337
     10          8           0        2.558215    1.096894   -0.687674
     11          1           0       -3.139065    2.018758    1.038368
     12          1           0       -1.449140    2.562142    0.981781
     13          1           0       -2.277680    2.127985   -0.520794
     14          1           0       -1.577732    0.194138    1.759129
     15          1           0       -2.396319   -1.856352    0.304733
     16          1           0        0.280591   -1.030776    1.459404
     17          1           0        2.070594   -2.013279    0.377383
     18          1           0        1.474529   -1.361585   -1.167969
     19          1           0        1.633984    1.083099   -1.042190
 ---------------------------------------------------------------------
                    Distance matrix (angstroms):
                    1          2          3          4          5
     1  C    0.000000
     2  C    1.528979   0.000000
     3  S    2.748591   1.858624   0.000000
     4  C    2.522340   1.526973   2.775393   0.000000
     5  O    2.862921   2.424654   3.429368   1.235200   0.000000
     6  N    3.684309   2.446945   3.522644   1.358032   2.265434
     7  C    4.948555   3.830856   4.739602   2.472638   2.798817
     8  C    5.420910   4.636137   5.885992   3.236515   3.235031
     9  O    6.471516   5.668336   6.947545   4.350417   4.435518
    10  O    4.953245   4.525016   5.890057   3.141241   2.725475
    11  H    1.093603   2.169914   2.900123   3.474236   3.914884
    12  H    1.095038   2.162966   3.736144   2.786034   3.061899
    13  H    1.092476   2.166200   2.959456   2.744199   2.622889
    14  H    2.163352   1.095502   2.428153   2.162615   3.269827
    15  H    3.745744   2.424879   1.351210   2.899768   3.752816
    16  H    3.916655   2.576645   3.612738   2.053401   3.158986
    17  H    5.761647   4.504300   5.263857   3.331750   3.835057
    18  H    5.169734   4.094248   4.685802   2.675237   2.656344
    19  H    4.201312   3.814587   5.081705   2.417237   1.777908
                    6          7          8          9         10
     6  N    0.000000
     7  C    1.463309   0.000000
     8  C    2.525126   1.542479   0.000000
     9  O    3.464533   2.411465   1.207472   0.000000
    10  O    3.000108   2.437521   1.340395   2.236201   0.000000
    11  H    4.539423   5.888539   6.436309   7.452911   6.023957
    12  H    3.798843   4.972376   5.148792   6.108411   4.581804
    13  H    4.071217   5.154442   5.588169   6.717041   4.947412
    14  H    2.546612   4.007599   4.800259   5.678064   4.889567
    15  H    3.108125   4.192003   5.548093   6.499849   5.852687
    16  H    1.010329   2.133803   3.145984   3.852403   3.784772
    17  H    2.084343   1.089675   2.141861   2.514643   3.323447
    18  H    2.085111   1.096580   2.163813   3.090991   2.729318
    19  H    2.634572   2.384787   1.920447   3.037360   0.989988
                   11         12         13         14         15
    11  H    0.000000
    12  H    1.776039   0.000000
    13  H    1.784628   1.769944   0.000000
    14  H    2.507289   2.495646   3.070462   0.000000
    15  H    4.013274   4.569314   4.070689   2.643835   0.000000
    16  H    4.601193   4.016112   4.521471   2.245799   3.029965
    17  H    6.620784   5.804163   6.071596   4.482432   4.470260
    18  H    6.130245   5.344614   5.164786   4.506048   4.170985
    19  H    5.290196   3.973623   4.082249   4.353476   5.167002
                   16         17         18         19
    16  H    0.000000
    17  H    2.310886   0.000000
    18  H    2.904826   1.779919   0.000000
    19  H    3.543743   3.434148   2.453105   0.000000
 Stoichiometry    C5H9NO3S
 Framework group  C1[X(C5H9NO3S)]
 Deg. of freedom    51
 Full point group                 C1      NOp   1
 RotChk:  IX=2 Diff= 5.20D-04
 Largest Abelian subgroup         C1      NOp   1
 Largest concise Abelian subgroup C1      NOp   1
                         Standard orientation:                         
 ---------------------------------------------------------------------
 Center     Atomic      Atomic             Coordinates (Angstroms)
 Number     Number       Type             X           Y           Z
 ---------------------------------------------------------------------
      1          6           0        2.294709    1.650487   -0.623179
      2          6           0        1.773357    0.213183   -0.611983
      3         16           0        3.003228   -0.838934    0.301773
      4          6           0        0.410491    0.123981    0.070867
      5          8           0        0.102418    0.839168    1.029678
      6          7           0       -0.442938   -0.807392   -0.427585
      7          6           0       -1.727554   -1.110920    0.204005
      8          6           0       -2.819596   -0.048687   -0.037548
      9          8           0       -3.869851   -0.318213   -0.568874
     10          8           0       -2.528087    1.182638    0.404631
     11          1           0        3.287721    1.695417   -1.079113
     12          1           0        1.618106    2.288518   -1.201309
     13          1           0        2.343650    2.044593    0.394557
     14          1           0        1.704798   -0.167271   -1.637010
     15          1           0        2.364598   -2.017592    0.132408
     16          1           0       -0.210704   -1.286024   -1.286505
     17          1           0       -2.093717   -2.057895   -0.191665
     18          1           0       -1.563216   -1.214494    1.283243
     19          1           0       -1.626602    1.192413    0.813661
 ---------------------------------------------------------------------
 Rotational constants (GHZ):           2.6652679           0.5298375           0.4836560
 Leave Link  202 at Fri Mar 14 14:25:21 2025, MaxMem=  8589934592 cpu:               0.2 elap:               0.3
 (Enter /home/enzo/gaussian_versions/gdv.j21/gdv/l301.exe)
 Standard basis: 6-31G(d) (6D, 7F)
 Ernie: Thresh=  0.10000D-02 Tol=  0.10000D-05 Strict=F.
 There are   172 symmetry adapted cartesian basis functions of A   symmetry.
 There are   172 symmetry adapted basis functions of A   symmetry.
   172 basis functions,   340 primitive gaussians,   172 cartesian basis functions
    43 alpha electrons       43 beta electrons
       nuclear repulsion energy       625.3105481339 Hartrees.
 IExCor=      4002 DFT=T Ex+Corr=B3LYP ScaHFX=  0.200000
 ScaDFX=  0.800000  0.720000  1.000000  0.810000  1.000000  0.000000
 ScaDFX=  0.000000  0.000000  0.000000  0.000000  0.000000  0.000000
 IRadAn=      5 IRanWt=     -1 IRanGd=            0 ICorTp=0 IEmpDi=  4
 NAtoms=   19 NActive=   19 NUniq=   19 SFac= 1.00D+00 NAtFMM=   60 NAOKFM=F Big=F
 Integral buffers will be    131072 words long.
 Raffenetti 2 integral format.
 Two-electron integral symmetry is turned on.
 Leave Link  301 at Fri Mar 14 14:25:21 2025, MaxMem=  8589934592 cpu:               0.4 elap:               0.2
 (Enter /home/enzo/gaussian_versions/gdv.j21/gdv/l302.exe)
 NPDir=0 NMtPBC=     1 NCelOv=     1 NCel=       1 NClECP=     1 NCelD=      1
         NCelK=      1 NCelE2=     1 NClLst=     1 CellRange=     0.0.
 One-electron integrals computed using PRISM.
 One-electron integral symmetry used in STVInt
 NBasis=   172 RedAO= T EigKep=  2.77D-03  NBF=   172
 NBsUse=   172 1.00D-06 EigRej= -1.00D+00 NBFU=   172
 Precomputing XC quadrature grid using
 IXCGrd= 4 IRadAn=           5 IRanWt=          -1 IRanGd=           0 AccXCQ= 0.00D+00.
 Generated NRdTot=       0 NPtTot=      406886 NUsed=           0 NTot=          64
 NSgBfM=   171   171   171   171   171 MxSgAt=    19 MxSgA2=    19 SizInc=   0.000
 NMBTot=     3419 MaxBatPerAtom=       85 MaxMicBPerAtom=      207 NBfPt=            52171574.
 Leave Link  302 at Fri Mar 14 14:25:22 2025, MaxMem=  8589934592 cpu:               4.4 elap:               0.7
 (Enter /home/enzo/gaussian_versions/gdv.j21/gdv/l303.exe)
 DipDrv:  MaxL=1.
 Leave Link  303 at Fri Mar 14 14:25:22 2025, MaxMem=  8589934592 cpu:               1.1 elap:               0.3
 (Enter /home/enzo/gaussian_versions/gdv.j21/gdv/l401.exe)
 Initial guess from the checkpoint file:  "/local/home/enzo/scratch/Gau-2271009.chk"
 B after Tr=    -0.000000   -0.000000   -0.000000
         Rot=    1.000000    0.000255    0.000042    0.000059 Ang=   0.03 deg.
 AO Guess basis will be translated and rotated to current coordinates.
 JPrj=2 DoOrth=T DoCkMO=T.
 Leave Link  401 at Fri Mar 14 14:25:23 2025, MaxMem=  8589934592 cpu:               1.7 elap:               0.4
 (Enter /home/enzo/gaussian_versions/gdv.j21/gdv/l502.exe)
 Integral symmetry usage will be decided dynamically.
 Closed shell SCF:
 Using DIIS extrapolation, IDIIS=  1040.
 NGot=  8589934592 LenX=  8589843591 LenY=  8589813566
 Requested convergence on RMS density matrix=1.00D-08 within 128 cycles.
 Requested convergence on MAX density matrix=1.00D-06.
 Requested convergence on             energy=1.00D-06.
 No special actions if energy rises.
 Fock matrices will be formed incrementally for  20 cycles.

 Cycle   1  Pass 1  IDiag  1:
 FoFJK:  IHMeth= 1 ICntrl=       0 DoSepK=F KAlg= 0 I1Cent=           0 FoldK=F
 IRaf= 910000000 NMat=       1 IRICut=       1 DoRegI=T DoRafI=F ISym2E= 0 IDoP0=0 IntGTp=1.
 FoFCou: FMM=F IPFlag=           0 FMFlag=      100000 FMFlg1=           0
         NFxFlg=           0 DoJE=F BraDBF=F KetDBF=F FulRan=T
         wScrn=  0.000000 ICntrl=         0 IOpCl=  0 I1Cent=           0 NGrid=           0
         NMat0=    1 NMatS0=      1 NMatT0=    0 NMatD0=    1 NMtDS0=    0 NMtDT0=    0
 Symmetry not used in FoFCou.
 E= -874.583683541402    
 DIIS: error= 1.54D-04 at cycle   1 NSaved=   1.
 NSaved= 1 IEnMin= 1 EnMin= -874.583683541402     IErMin= 1 ErrMin= 1.54D-04
 ErrMax= 1.54D-04  0.00D+00 EMaxC= 1.00D-01 BMatC= 1.04D-05 BMatP= 1.04D-05
 IDIUse=3 WtCom= 9.98D-01 WtEn= 1.54D-03
 Coeff-Com:  0.100D+01
 Coeff-En:   0.100D+01
 Coeff:      0.100D+01
 Gap=     1.537 Goal=   None    Shift=    0.000
 RMSDP=3.19D-05 MaxDP=8.66D-04              OVMax= 1.41D-03

 Cycle   2  Pass 1  IDiag  1:
 RMSU=  3.19D-05    CP:  1.00D+00
 E= -874.583702315875     Delta-E=       -0.000018774473 Rises=F Damp=F
 DIIS: error= 2.26D-05 at cycle   2 NSaved=   2.
 NSaved= 2 IEnMin= 2 EnMin= -874.583702315875     IErMin= 2 ErrMin= 2.26D-05
 ErrMax= 2.26D-05  0.00D+00 EMaxC= 1.00D-01 BMatC= 1.85D-07 BMatP= 1.04D-05
 IDIUse=1 WtCom= 1.00D+00 WtEn= 0.00D+00
 Coeff-Com: -0.628D-01 0.106D+01
 Coeff:     -0.628D-01 0.106D+01
 Gap=     0.223 Goal=   None    Shift=    0.000
 RMSDP=4.72D-06 MaxDP=1.02D-04 DE=-1.88D-05 OVMax= 2.05D-04

 Cycle   3  Pass 1  IDiag  1:
 RMSU=  4.10D-06    CP:  1.00D+00  1.07D+00
 E= -874.583702455171     Delta-E=       -0.000000139295 Rises=F Damp=F
 DIIS: error= 2.30D-05 at cycle   3 NSaved=   3.
 NSaved= 3 IEnMin= 3 EnMin= -874.583702455171     IErMin= 2 ErrMin= 2.26D-05
 ErrMax= 2.30D-05  0.00D+00 EMaxC= 1.00D-01 BMatC= 1.61D-07 BMatP= 1.85D-07
 IDIUse=1 WtCom= 1.00D+00 WtEn= 0.00D+00
 Coeff-Com: -0.411D-01 0.549D+00 0.492D+00
 Coeff:     -0.411D-01 0.549D+00 0.492D+00
 Gap=     0.223 Goal=   None    Shift=    0.000
 RMSDP=2.83D-06 MaxDP=8.41D-05 DE=-1.39D-07 OVMax= 1.38D-04

 Cycle   4  Pass 1  IDiag  1:
 RMSU=  1.85D-06    CP:  1.00D+00  1.09D+00  4.91D-01
 E= -874.583702556102     Delta-E=       -0.000000100932 Rises=F Damp=F
 DIIS: error= 1.23D-05 at cycle   4 NSaved=   4.
 NSaved= 4 IEnMin= 4 EnMin= -874.583702556102     IErMin= 4 ErrMin= 1.23D-05
 ErrMax= 1.23D-05  0.00D+00 EMaxC= 1.00D-01 BMatC= 4.11D-08 BMatP= 1.61D-07
 IDIUse=1 WtCom= 1.00D+00 WtEn= 0.00D+00
 Coeff-Com: -0.155D-01 0.182D+00 0.335D+00 0.498D+00
 Coeff:     -0.155D-01 0.182D+00 0.335D+00 0.498D+00
 Gap=     0.223 Goal=   None    Shift=    0.000
 RMSDP=1.15D-06 MaxDP=3.67D-05 DE=-1.01D-07 OVMax= 5.33D-05

 Cycle   5  Pass 1  IDiag  1:
 RMSU=  6.19D-07    CP:  1.00D+00  1.09D+00  6.19D-01  5.65D-01
 E= -874.583702586419     Delta-E=       -0.000000030317 Rises=F Damp=F
 DIIS: error= 2.30D-06 at cycle   5 NSaved=   5.
 NSaved= 5 IEnMin= 5 EnMin= -874.583702586419     IErMin= 5 ErrMin= 2.30D-06
 ErrMax= 2.30D-06  0.00D+00 EMaxC= 1.00D-01 BMatC= 1.99D-09 BMatP= 4.11D-08
 IDIUse=1 WtCom= 1.00D+00 WtEn= 0.00D+00
 Coeff-Com: -0.488D-02 0.522D-01 0.144D+00 0.269D+00 0.540D+00
 Coeff:     -0.488D-02 0.522D-01 0.144D+00 0.269D+00 0.540D+00
 Gap=     0.223 Goal=   None    Shift=    0.000
 RMSDP=2.98D-07 MaxDP=6.64D-06 DE=-3.03D-08 OVMax= 9.67D-06

 Cycle   6  Pass 1  IDiag  1:
 RMSU=  1.72D-07    CP:  1.00D+00  1.09D+00  6.27D-01  6.43D-01  6.91D-01
 E= -874.583702587971     Delta-E=       -0.000000001552 Rises=F Damp=F
 DIIS: error= 8.14D-07 at cycle   6 NSaved=   6.
 NSaved= 6 IEnMin= 6 EnMin= -874.583702587971     IErMin= 6 ErrMin= 8.14D-07
 ErrMax= 8.14D-07  0.00D+00 EMaxC= 1.00D-01 BMatC= 2.42D-10 BMatP= 1.99D-09
 IDIUse=1 WtCom= 1.00D+00 WtEn= 0.00D+00
 Coeff-Com:  0.685D-04-0.502D-02 0.226D-01 0.634D-01 0.290D+00 0.629D+00
 Coeff:      0.685D-04-0.502D-02 0.226D-01 0.634D-01 0.290D+00 0.629D+00
 Gap=     0.223 Goal=   None    Shift=    0.000
 RMSDP=9.20D-08 MaxDP=2.90D-06 DE=-1.55D-09 OVMax= 3.90D-06

 Cycle   7  Pass 1  IDiag  1:
 RMSU=  6.07D-08    CP:  1.00D+00  1.09D+00  6.36D-01  6.46D-01  7.31D-01
                    CP:  6.88D-01
 E= -874.583702588152     Delta-E=       -0.000000000181 Rises=F Damp=F
 DIIS: error= 3.20D-07 at cycle   7 NSaved=   7.
 NSaved= 7 IEnMin= 7 EnMin= -874.583702588152     IErMin= 7 ErrMin= 3.20D-07
 ErrMax= 3.20D-07  0.00D+00 EMaxC= 1.00D-01 BMatC= 2.21D-11 BMatP= 2.42D-10
 IDIUse=1 WtCom= 1.00D+00 WtEn= 0.00D+00
 Coeff-Com:  0.555D-03-0.864D-02-0.378D-02 0.430D-02 0.920D-01 0.318D+00
 Coeff-Com:  0.598D+00
 Coeff:      0.555D-03-0.864D-02-0.378D-02 0.430D-02 0.920D-01 0.318D+00
 Coeff:      0.598D+00
 Gap=     0.223 Goal=   None    Shift=    0.000
 RMSDP=3.19D-08 MaxDP=8.91D-07 DE=-1.81D-10 OVMax= 9.44D-07

 Cycle   8  Pass 1  IDiag  1:
 RMSU=  1.54D-08    CP:  1.00D+00  1.09D+00  6.35D-01  6.48D-01  7.56D-01
                    CP:  7.30D-01  6.49D-01
 E= -874.583702588174     Delta-E=       -0.000000000021 Rises=F Damp=F
 DIIS: error= 4.15D-08 at cycle   8 NSaved=   8.
 NSaved= 8 IEnMin= 8 EnMin= -874.583702588174     IErMin= 8 ErrMin= 4.15D-08
 ErrMax= 4.15D-08  0.00D+00 EMaxC= 1.00D-01 BMatC= 7.55D-13 BMatP= 2.21D-11
 IDIUse=1 WtCom= 1.00D+00 WtEn= 0.00D+00
 Coeff-Com:  0.200D-03-0.299D-02-0.225D-02-0.810D-03 0.222D-01 0.962D-01
 Coeff-Com:  0.236D+00 0.652D+00
 Coeff:      0.200D-03-0.299D-02-0.225D-02-0.810D-03 0.222D-01 0.962D-01
 Coeff:      0.236D+00 0.652D+00
 Gap=     0.223 Goal=   None    Shift=    0.000
 RMSDP=8.01D-09 MaxDP=2.15D-07 DE=-2.14D-11 OVMax= 4.32D-07

 SCF Done:  E(RB3LYP) =  -874.583702588     A.U. after    8 cycles
            NFock=  8  Conv=0.80D-08     -V/T= 2.0064
 KE= 8.690044252785D+02 PE=-3.309689164190D+03 EE= 9.407904881896D+02
 Leave Link  502 at Fri Mar 14 14:25:32 2025, MaxMem=  8589934592 cpu:              69.6 elap:               9.1
 (Enter /home/enzo/gaussian_versions/gdv.j21/gdv/l701.exe)
 ... and contract with generalized density number  0.
 Compute integral first derivatives.
 Leave Link  701 at Fri Mar 14 14:25:32 2025, MaxMem=  8589934592 cpu:               2.7 elap:               0.6
 (Enter /home/enzo/gaussian_versions/gdv.j21/gdv/l702.exe)
 L702 exits ... SP integral derivatives will be done elsewhere.
 Leave Link  702 at Fri Mar 14 14:25:33 2025, MaxMem=  8589934592 cpu:               0.5 elap:               0.3
 (Enter /home/enzo/gaussian_versions/gdv.j21/gdv/l703.exe)
 Integral derivatives from FoFJK, PRISM(SPDF).
 Compute integral first derivatives, UseDBF=F ICtDFT=           0.
 Calling FoFJK, ICntrl=      2127 FMM=F ISym2X=0 I1Cent= 0 IOpClX= 0 NMat=1 NMatS=1 NMatT=0.
 FoFJK:  IHMeth= 1 ICntrl=    2127 DoSepK=F KAlg= 0 I1Cent=           0 FoldK=F
 IRaf=         0 NMat=       1 IRICut=       1 DoRegI=T DoRafI=F ISym2E= 0 IDoP0=0 IntGTp=1.
 FoFCou: FMM=F IPFlag=           0 FMFlag=      100000 FMFlg1=         800
         NFxFlg=           0 DoJE=F BraDBF=F KetDBF=F FulRan=T
         wScrn=  0.000000 ICntrl=      2127 IOpCl=  0 I1Cent=           0 NGrid=           0
         NMat0=    1 NMatS0=      1 NMatT0=    0 NMatD0=    1 NMtDS0=    0 NMtDT0=    0
 Symmetry not used in FoFCou.
 Leave Link  703 at Fri Mar 14 14:25:35 2025, MaxMem=  8589934592 cpu:              15.1 elap:               2.1
 (Enter /home/enzo/gaussian_versions/gdv.j21/gdv/l716.exe)
 Dipole        = 1.42700967D+00-1.04878291D+00-7.49044661D-01
 ***** Axes restored to original set *****
 -------------------------------------------------------------------
 Center     Atomic                   Forces (Hartrees/Bohr)
 Number     Number              X              Y              Z
 -------------------------------------------------------------------
      1        6           0.000015572   -0.000000056   -0.000000737
      2        6          -0.000009854   -0.000020191   -0.000042031
      3       16           0.000013373    0.000046186    0.000009496
      4        6          -0.000053501    0.000005748    0.000039485
      5        8          -0.000012815    0.000039296   -0.000062395
      6        7           0.000090631   -0.000038867    0.000011073
      7        6          -0.000059698    0.000035288    0.000011701
      8        6          -0.000083400    0.000049148   -0.000051628
      9        8           0.000034550   -0.000007385    0.000004429
     10        8           0.000062757    0.000005961    0.000035213
     11        1          -0.000007723    0.000007379    0.000001981
     12        1          -0.000002594    0.000006916    0.000008190
     13        1          -0.000003487   -0.000002591   -0.000006767
     14        1           0.000005810   -0.000008581    0.000003395
     15        1           0.000010151   -0.000020246    0.000004266
     16        1          -0.000018982   -0.000021251    0.000005363
     17        1           0.000022752    0.000005200    0.000011879
     18        1           0.000008668   -0.000010144   -0.000002291
     19        1          -0.000012210   -0.000071811    0.000019378
 -------------------------------------------------------------------
 Cartesian Forces:  Max     0.000090631 RMS     0.000031520
 Leave Link  716 at Fri Mar 14 14:25:35 2025, MaxMem=  8589934592 cpu:               0.2 elap:               0.2
 (Enter /home/enzo/gaussian_versions/gdv.j21/gdv/l103.exe)

 GradGradGradGradGradGradGradGradGradGradGradGradGradGradGradGradGradGrad
 Berny optimization.
 Using GEDIIS/GDIIS optimizer.
 FormGI is forming the generalized inverse of G from B-inverse, IUseBI=4.
 Internal  Forces:  Max     0.000140120 RMS     0.000024975
 Search for a local minimum.
 Step number  14 out of a maximum of   93
 All quantities printed in internal units (Hartrees-Bohrs-Radians)
 RMS Force = .24975D-04 SwitMx=.10000D-02 MixMth= 2
 Mixed Optimization -- En-DIIS/RFO-DIIS
 Swapping is turned off.
 Update second derivatives using D2CorX and points    7    8   10    9   11
                                                     12   13   14
 DE= -5.94D-07 DEPred=-5.70D-07 R= 1.04D+00
 Trust test= 1.04D+00 RLast= 1.23D-02 DXMaxT set to 3.52D-01
 ITU=  0  1  1  1 -1  1  1  0  1 -1 -1  1  1  0
     Eigenvalues ---    0.00214   0.00232   0.00431   0.00666   0.01084
     Eigenvalues ---    0.01091   0.01476   0.03233   0.04213   0.05013
     Eigenvalues ---    0.05528   0.05650   0.05751   0.06153   0.06571
     Eigenvalues ---    0.06989   0.07745   0.10317   0.14252   0.15941
     Eigenvalues ---    0.15968   0.16014   0.16052   0.16291   0.17388
     Eigenvalues ---    0.19324   0.20485   0.22033   0.22705   0.23711
     Eigenvalues ---    0.24795   0.25537   0.26490   0.29081   0.30099
     Eigenvalues ---    0.31619   0.32054   0.32582   0.32589   0.32605
     Eigenvalues ---    0.32636   0.32702   0.32963   0.35732   0.40716
     Eigenvalues ---    0.43152   0.46010   0.53824   0.72089   0.80367
     Eigenvalues ---    0.86739
 En-DIIS/RFO-DIIS/Sim-DIIS IScMMF=       -3 using points:    14   13   12   11
 RFO step:  Lambda=-2.39924319D-07.
 NNeg= 0 NGDIIS= 4 SimSw=  2.50D-01 Rises=F DC= -5.94D-07 SmlDif=  1.00D-05
 NRisDI= 0 DoIntr=F SqrtH=F CThrHd= 10.0 CDAdj=  3.0
 RMS Error=  0.4229659846D-03 NUsed= 4 OKEnD=F EnDIS=F
 InvSVX:  RCond= 8.43D-07 Info=           0 Equed=N FErr=  8.51D-14 BErr=  5.13D-17
 DidBck=FF Rises=F RFO-DIIS coefs:    1.28641   -0.34841    0.10215   -0.04015
 Iteration  1 RMS(Cart)=  0.00053530 RMS(Int)=  0.00000026
 Iteration  2 RMS(Cart)=  0.00000019 RMS(Int)=  0.00000022
 Variable       Old X    -DE/DX   Delta X   Delta X   Delta X     New X
                                 (Linear)    (Quad)   (Total)
    R1        2.88935   0.00001  -0.00002   0.00004   0.00001   2.88936
    R2        2.06661   0.00001   0.00000   0.00002   0.00002   2.06663
    R3        2.06932   0.00001  -0.00000   0.00002   0.00001   2.06934
    R4        2.06448   0.00001  -0.00000   0.00002   0.00002   2.06450
    R5        3.51229  -0.00004   0.00005  -0.00015  -0.00010   3.51219
    R6        2.88556  -0.00003   0.00003  -0.00008  -0.00006   2.88550
    R7        2.07020   0.00001  -0.00001   0.00002   0.00001   2.07021
    R8        2.55342   0.00002  -0.00003   0.00011   0.00008   2.55350
    R9        2.33419   0.00007  -0.00005   0.00010   0.00005   2.33425
   R10        2.56631   0.00008  -0.00005   0.00020   0.00015   2.56646
   R11        2.76525  -0.00004  -0.00005  -0.00004  -0.00009   2.76516
   R12        1.90925   0.00002  -0.00002   0.00005   0.00003   1.90927
   R13        2.91486  -0.00002   0.00010  -0.00006   0.00004   2.91491
   R14        2.05919   0.00001  -0.00000   0.00002   0.00002   2.05921
   R15        2.07224   0.00000   0.00001   0.00001   0.00002   2.07226
   R16        2.28179   0.00003   0.00001   0.00003   0.00004   2.28183
   R17        2.53298  -0.00009   0.00008  -0.00021  -0.00013   2.53285
   R18        1.87081   0.00001  -0.00003   0.00005   0.00002   1.87082
    A1        1.92975   0.00001  -0.00001   0.00004   0.00003   1.92978
    A2        1.91867   0.00001   0.00003   0.00002   0.00005   1.91872
    A3        1.92577  -0.00001   0.00001  -0.00003  -0.00001   1.92576
    A4        1.89336  -0.00001  -0.00001  -0.00004  -0.00004   1.89332
    A5        1.91016  -0.00000  -0.00001  -0.00002  -0.00003   1.91013
    A6        1.88528   0.00000  -0.00002   0.00003   0.00001   1.88529
    A7        1.88610  -0.00000  -0.00006   0.00003  -0.00004   1.88606
    A8        1.94177  -0.00000  -0.00001   0.00002   0.00001   1.94178
    A9        1.91873   0.00000   0.00003   0.00002   0.00005   1.91877
   A10        1.91524   0.00001   0.00006  -0.00002   0.00004   1.91528
   A11        1.88055  -0.00000   0.00001  -0.00001   0.00001   1.88056
   A12        1.92014  -0.00000  -0.00003  -0.00004  -0.00007   1.92007
   A13        1.69050   0.00000   0.00006  -0.00004   0.00002   1.69052
   A14        2.13638  -0.00003   0.00008  -0.00018  -0.00010   2.13628
   A15        2.02286  -0.00000   0.00001  -0.00003  -0.00002   2.02284
   A16        2.12383   0.00003  -0.00010   0.00022   0.00012   2.12395
   A17        2.13593   0.00001  -0.00004   0.00015   0.00010   2.13603
   A18        2.08574  -0.00001   0.00003  -0.00007  -0.00004   2.08570
   A19        2.06061   0.00000   0.00005  -0.00008  -0.00003   2.06058
   A20        1.99444  -0.00000   0.00012   0.00002   0.00014   1.99458
   A21        1.89498   0.00001  -0.00001   0.00004   0.00002   1.89500
   A22        1.88896   0.00001   0.00010   0.00003   0.00013   1.88909
   A23        1.87937  -0.00001  -0.00017  -0.00011  -0.00027   1.87910
   A24        1.90209  -0.00000   0.00001  -0.00001   0.00000   1.90210
   A25        1.90249   0.00000  -0.00006   0.00003  -0.00003   1.90246
   A26        2.13056   0.00002  -0.00012   0.00007  -0.00005   2.13052
   A27        2.01195  -0.00004   0.00016  -0.00014   0.00002   2.01197
   A28        2.14049   0.00001  -0.00005   0.00007   0.00002   2.14051
   A29        1.92134  -0.00014   0.00034  -0.00087  -0.00053   1.92081
    D1        0.99916  -0.00000   0.00018  -0.00019  -0.00002   0.99914
    D2        3.10280   0.00000   0.00021  -0.00019   0.00002   3.10282
    D3       -1.04892  -0.00000   0.00018  -0.00021  -0.00003  -1.04895
    D4        3.08918  -0.00000   0.00019  -0.00021  -0.00002   3.08916
    D5       -1.09036   0.00000   0.00021  -0.00020   0.00001  -1.09035
    D6        1.04110  -0.00000   0.00019  -0.00022  -0.00004   1.04107
    D7       -1.11647  -0.00000   0.00018  -0.00017   0.00001  -1.11646
    D8        0.98718   0.00000   0.00021  -0.00017   0.00004   0.98722
    D9        3.11864  -0.00000   0.00018  -0.00019  -0.00001   3.11863
   D10       -3.10329  -0.00000   0.00029  -0.00034  -0.00005  -3.10334
   D11        1.05975  -0.00000   0.00031  -0.00037  -0.00006   1.05969
   D12       -1.03076   0.00000   0.00030  -0.00031  -0.00001  -1.03076
   D13       -0.60352  -0.00000   0.00026  -0.00020   0.00005  -0.60347
   D14        2.55442  -0.00001   0.00030  -0.00076  -0.00046   2.55396
   D15        1.48286  -0.00000   0.00021  -0.00017   0.00004   1.48291
   D16       -1.64238  -0.00001   0.00026  -0.00072  -0.00047  -1.64285
   D17       -2.73416  -0.00000   0.00025  -0.00021   0.00004  -2.73413
   D18        0.42378  -0.00001   0.00029  -0.00077  -0.00048   0.42330
   D19        3.02744   0.00001  -0.00046   0.00103   0.00056   3.02800
   D20       -0.16090   0.00001   0.00044   0.00101   0.00145  -0.15945
   D21       -0.09793   0.00000  -0.00042   0.00048   0.00006  -0.09787
   D22        2.99692   0.00000   0.00048   0.00046   0.00095   2.99786
   D23        1.32136  -0.00001   0.00036  -0.00066  -0.00031   1.32105
   D24       -2.86397  -0.00002   0.00021  -0.00076  -0.00055  -2.86452
   D25       -0.80120  -0.00000   0.00019  -0.00068  -0.00050  -0.80170
   D26       -1.77414  -0.00001  -0.00054  -0.00064  -0.00118  -1.77532
   D27        0.32373  -0.00002  -0.00068  -0.00074  -0.00142   0.32230
   D28        2.38649  -0.00000  -0.00071  -0.00066  -0.00137   2.38512
   D29        2.11763   0.00001   0.00067   0.00035   0.00102   2.11866
   D30       -1.04376   0.00001   0.00043   0.00024   0.00067  -1.04309
   D31        0.01108   0.00000   0.00073   0.00037   0.00110   0.01218
   D32        3.13287  -0.00000   0.00049   0.00025   0.00075   3.13362
   D33       -2.05024   0.00001   0.00089   0.00040   0.00129  -2.04895
   D34        1.07156   0.00001   0.00065   0.00028   0.00093   1.07249
   D35        0.01089  -0.00000  -0.00018  -0.00001  -0.00020   0.01069
   D36        3.13256  -0.00000  -0.00043  -0.00013  -0.00055   3.13200
         Item               Value     Threshold  Converged?
 Maximum Force            0.000140     0.000450     YES
 RMS     Force            0.000025     0.000300     YES
 Maximum Displacement     0.001438     0.001800     YES
 RMS     Displacement     0.000535     0.001200     YES
 Predicted change in Energy=-1.197170D-07
 Optimization completed.
    -- Stationary point found.
                           ----------------------------
                           !   Optimized Parameters   !
                           ! (Angstroms and Degrees)  !
 --------------------------                            --------------------------
 ! Name  Definition              Value          Derivative Info.                !
 --------------------------------------------------------------------------------
 ! R1    R(1,2)                  1.529          -DE/DX =    0.0                 !
 ! R2    R(1,11)                 1.0936         -DE/DX =    0.0                 !
 ! R3    R(1,12)                 1.095          -DE/DX =    0.0                 !
 ! R4    R(1,13)                 1.0925         -DE/DX =    0.0                 !
 ! R5    R(2,3)                  1.8586         -DE/DX =    0.0                 !
 ! R6    R(2,4)                  1.527          -DE/DX =    0.0                 !
 ! R7    R(2,14)                 1.0955         -DE/DX =    0.0                 !
 ! R8    R(3,15)                 1.3512         -DE/DX =    0.0                 !
 ! R9    R(4,5)                  1.2352         -DE/DX =    0.0001              !
 ! R10   R(4,6)                  1.358          -DE/DX =    0.0001              !
 ! R11   R(6,7)                  1.4633         -DE/DX =    0.0                 !
 ! R12   R(6,16)                 1.0103         -DE/DX =    0.0                 !
 ! R13   R(7,8)                  1.5425         -DE/DX =    0.0                 !
 ! R14   R(7,17)                 1.0897         -DE/DX =    0.0                 !
 ! R15   R(7,18)                 1.0966         -DE/DX =    0.0                 !
 ! R16   R(8,9)                  1.2075         -DE/DX =    0.0                 !
 ! R17   R(8,10)                 1.3404         -DE/DX =   -0.0001              !
 ! R18   R(10,19)                0.99           -DE/DX =    0.0                 !
 ! A1    A(2,1,11)             110.5663         -DE/DX =    0.0                 !
 ! A2    A(2,1,12)             109.9319         -DE/DX =    0.0                 !
 ! A3    A(2,1,13)             110.3388         -DE/DX =    0.0                 !
 ! A4    A(11,1,12)            108.4816         -DE/DX =    0.0                 !
 ! A5    A(11,1,13)            109.4442         -DE/DX =    0.0                 !
 ! A6    A(12,1,13)            108.0185         -DE/DX =    0.0                 !
 ! A7    A(1,2,3)              108.0654         -DE/DX =    0.0                 !
 ! A8    A(1,2,4)              111.2553         -DE/DX =    0.0                 !
 ! A9    A(1,2,14)             109.9349         -DE/DX =    0.0                 !
 ! A10   A(3,2,4)              109.7352         -DE/DX =    0.0                 !
 ! A11   A(3,2,14)             107.7476         -DE/DX =    0.0                 !
 ! A12   A(4,2,14)             110.0158         -DE/DX =    0.0                 !
 ! A13   A(2,3,15)              96.8583         -DE/DX =    0.0                 !
 ! A14   A(2,4,5)              122.4057         -DE/DX =    0.0                 !
 ! A15   A(2,4,6)              115.9011         -DE/DX =    0.0                 !
 ! A16   A(5,4,6)              121.6864         -DE/DX =    0.0                 !
 ! A17   A(4,6,7)              122.3796         -DE/DX =    0.0                 !
 ! A18   A(4,6,16)             119.5041         -DE/DX =    0.0                 !
 ! A19   A(7,6,16)             118.0642         -DE/DX =    0.0                 !
 ! A20   A(6,7,8)              114.2731         -DE/DX =    0.0                 !
 ! A21   A(6,7,17)             108.5742         -DE/DX =    0.0                 !
 ! A22   A(6,7,18)             108.2293         -DE/DX =    0.0                 !
 ! A23   A(8,7,17)             107.6802         -DE/DX =    0.0                 !
 ! A24   A(8,7,18)             108.9819         -DE/DX =    0.0                 !
 ! A25   A(17,7,18)            109.0045         -DE/DX =    0.0                 !
 ! A26   A(7,8,9)              122.0723         -DE/DX =    0.0                 !
 ! A27   A(7,8,10)             115.2763         -DE/DX =    0.0                 !
 ! A28   A(9,8,10)             122.6411         -DE/DX =    0.0                 !
 ! A29   A(8,10,19)            110.0845         -DE/DX =   -0.0001              !
 ! D1    D(11,1,2,3)            57.2476         -DE/DX =    0.0                 !
 ! D2    D(11,1,2,4)           177.7774         -DE/DX =    0.0                 !
 ! D3    D(11,1,2,14)          -60.0987         -DE/DX =    0.0                 !
 ! D4    D(12,1,2,3)           176.9972         -DE/DX =    0.0                 !
 ! D5    D(12,1,2,4)           -62.4729         -DE/DX =    0.0                 !
 ! D6    D(12,1,2,14)           59.6509         -DE/DX =    0.0                 !
 ! D7    D(13,1,2,3)           -63.9688         -DE/DX =    0.0                 !
 ! D8    D(13,1,2,4)            56.5611         -DE/DX =    0.0                 !
 ! D9    D(13,1,2,14)          178.6849         -DE/DX =    0.0                 !
 ! D10   D(1,2,3,15)          -177.8053         -DE/DX =    0.0                 !
 ! D11   D(4,2,3,15)            60.7192         -DE/DX =    0.0                 !
 ! D12   D(14,2,3,15)          -59.0579         -DE/DX =    0.0                 !
 ! D13   D(1,2,4,5)            -34.5792         -DE/DX =    0.0                 !
 ! D14   D(1,2,4,6)            146.3576         -DE/DX =    0.0                 !
 ! D15   D(3,2,4,5)             84.9618         -DE/DX =    0.0                 !
 ! D16   D(3,2,4,6)            -94.1014         -DE/DX =    0.0                 !
 ! D17   D(14,2,4,5)          -156.6561         -DE/DX =    0.0                 !
 ! D18   D(14,2,4,6)            24.2807         -DE/DX =    0.0                 !
 ! D19   D(2,4,6,7)            173.4594         -DE/DX =    0.0                 !
 ! D20   D(2,4,6,16)            -9.2187         -DE/DX =    0.0                 !
 ! D21   D(5,4,6,7)             -5.6112         -DE/DX =    0.0                 !
 ! D22   D(5,4,6,16)           171.7108         -DE/DX =    0.0                 !
 ! D23   D(4,6,7,8)             75.7081         -DE/DX =    0.0                 !
 ! D24   D(4,6,7,17)          -164.0932         -DE/DX =    0.0                 !
 ! D25   D(4,6,7,18)           -45.9055         -DE/DX =    0.0                 !
 ! D26   D(16,6,7,8)          -101.6506         -DE/DX =    0.0                 !
 ! D27   D(16,6,7,17)           18.5481         -DE/DX =    0.0                 !
 ! D28   D(16,6,7,18)          136.7358         -DE/DX =    0.0                 !
 ! D29   D(6,7,8,9)            121.3314         -DE/DX =    0.0                 !
 ! D30   D(6,7,8,10)           -59.803          -DE/DX =    0.0                 !
 ! D31   D(17,7,8,9)             0.6348         -DE/DX =    0.0                 !
 ! D32   D(17,7,8,10)          179.5004         -DE/DX =    0.0                 !
 ! D33   D(18,7,8,9)          -117.47           -DE/DX =    0.0                 !
 ! D34   D(18,7,8,10)           61.3956         -DE/DX =    0.0                 !
 ! D35   D(7,8,10,19)            0.6237         -DE/DX =    0.0                 !
 ! D36   D(9,8,10,19)          179.4822         -DE/DX =    0.0                 !
 --------------------------------------------------------------------------------
 Lowest energy point so far.  Saving SCF results.
 Largest change from initial coordinates is atom    5       0.708 Angstoms.
 GradGradGradGradGradGradGradGradGradGradGradGradGradGradGradGradGradGrad

 Leave Link  103 at Fri Mar 14 14:25:36 2025, MaxMem=  8589934592 cpu:               1.8 elap:               0.4
 (Enter /home/enzo/gaussian_versions/gdv.j21/gdv/l202.exe)
                          Input orientation:                          
 ---------------------------------------------------------------------
 Center     Atomic      Atomic             Coordinates (Angstroms)
 Number     Number       Type             X           Y           Z
 ---------------------------------------------------------------------
      1          6           0       -2.177514    1.875748    0.537434
      2          6           0       -1.698301    0.432570    0.696708
      3         16           0       -3.010856   -0.689730    0.009598
      4          6           0       -0.382884    0.201201   -0.043423
      5          8           0       -0.114242    0.766422   -1.108354
      6          7           0        0.473062   -0.683262    0.530451
      7          6           0        1.707543   -1.116919   -0.124738
      8          6           0        2.841667   -0.071851   -0.095771
      9          8           0        3.914549   -0.303786    0.407337
     10          8           0        2.558215    1.096894   -0.687674
     11          1           0       -3.139065    2.018758    1.038368
     12          1           0       -1.449140    2.562142    0.981781
     13          1           0       -2.277680    2.127985   -0.520794
     14          1           0       -1.577732    0.194138    1.759129
     15          1           0       -2.396319   -1.856352    0.304733
     16          1           0        0.280591   -1.030776    1.459404
     17          1           0        2.070594   -2.013279    0.377383
     18          1           0        1.474529   -1.361585   -1.167969
     19          1           0        1.633984    1.083099   -1.042190
 ---------------------------------------------------------------------
                    Distance matrix (angstroms):
                    1          2          3          4          5
     1  C    0.000000
     2  C    1.528979   0.000000
     3  S    2.748591   1.858624   0.000000
     4  C    2.522340   1.526973   2.775393   0.000000
     5  O    2.862921   2.424654   3.429368   1.235200   0.000000
     6  N    3.684309   2.446945   3.522644   1.358032   2.265434
     7  C    4.948555   3.830856   4.739602   2.472638   2.798817
     8  C    5.420910   4.636137   5.885992   3.236515   3.235031
     9  O    6.471516   5.668336   6.947545   4.350417   4.435518
    10  O    4.953245   4.525016   5.890057   3.141241   2.725475
    11  H    1.093603   2.169914   2.900123   3.474236   3.914884
    12  H    1.095038   2.162966   3.736144   2.786034   3.061899
    13  H    1.092476   2.166200   2.959456   2.744199   2.622889
    14  H    2.163352   1.095502   2.428153   2.162615   3.269827
    15  H    3.745744   2.424879   1.351210   2.899768   3.752816
    16  H    3.916655   2.576645   3.612738   2.053401   3.158986
    17  H    5.761647   4.504300   5.263857   3.331750   3.835057
    18  H    5.169734   4.094248   4.685802   2.675237   2.656344
    19  H    4.201312   3.814587   5.081705   2.417237   1.777908
                    6          7          8          9         10
     6  N    0.000000
     7  C    1.463309   0.000000
     8  C    2.525126   1.542479   0.000000
     9  O    3.464533   2.411465   1.207472   0.000000
    10  O    3.000108   2.437521   1.340395   2.236201   0.000000
    11  H    4.539423   5.888539   6.436309   7.452911   6.023957
    12  H    3.798843   4.972376   5.148792   6.108411   4.581804
    13  H    4.071217   5.154442   5.588169   6.717041   4.947412
    14  H    2.546612   4.007599   4.800259   5.678064   4.889567
    15  H    3.108125   4.192003   5.548093   6.499849   5.852687
    16  H    1.010329   2.133803   3.145984   3.852403   3.784772
    17  H    2.084343   1.089675   2.141861   2.514643   3.323447
    18  H    2.085111   1.096580   2.163813   3.090991   2.729318
    19  H    2.634572   2.384787   1.920447   3.037360   0.989988
                   11         12         13         14         15
    11  H    0.000000
    12  H    1.776039   0.000000
    13  H    1.784628   1.769944   0.000000
    14  H    2.507289   2.495646   3.070462   0.000000
    15  H    4.013274   4.569314   4.070689   2.643835   0.000000
    16  H    4.601193   4.016112   4.521471   2.245799   3.029965
    17  H    6.620784   5.804163   6.071596   4.482432   4.470260
    18  H    6.130245   5.344614   5.164786   4.506048   4.170985
    19  H    5.290196   3.973623   4.082249   4.353476   5.167002
                   16         17         18         19
    16  H    0.000000
    17  H    2.310886   0.000000
    18  H    2.904826   1.779919   0.000000
    19  H    3.543743   3.434148   2.453105   0.000000
 Stoichiometry    C5H9NO3S
 Framework group  C1[X(C5H9NO3S)]
 Deg. of freedom    51
 Full point group                 C1      NOp   1
 RotChk:  IX=2 Diff= 2.55D-15
 Largest Abelian subgroup         C1      NOp   1
 Largest concise Abelian subgroup C1      NOp   1
                         Standard orientation:                         
 ---------------------------------------------------------------------
 Center     Atomic      Atomic             Coordinates (Angstroms)
 Number     Number       Type             X           Y           Z
 ---------------------------------------------------------------------
      1          6           0        2.294709    1.650487   -0.623179
      2          6           0        1.773357    0.213183   -0.611983
      3         16           0        3.003228   -0.838934    0.301773
      4          6           0        0.410491    0.123981    0.070867
      5          8           0        0.102418    0.839168    1.029678
      6          7           0       -0.442938   -0.807392   -0.427585
      7          6           0       -1.727554   -1.110920    0.204005
      8          6           0       -2.819596   -0.048687   -0.037548
      9          8           0       -3.869851   -0.318213   -0.568874
     10          8           0       -2.528087    1.182638    0.404631
     11          1           0        3.287721    1.695417   -1.079113
     12          1           0        1.618106    2.288518   -1.201309
     13          1           0        2.343650    2.044593    0.394557
     14          1           0        1.704798   -0.167271   -1.637010
     15          1           0        2.364598   -2.017592    0.132408
     16          1           0       -0.210704   -1.286024   -1.286505
     17          1           0       -2.093717   -2.057895   -0.191665
     18          1           0       -1.563216   -1.214494    1.283243
     19          1           0       -1.626602    1.192413    0.813661
 ---------------------------------------------------------------------
 Rotational constants (GHZ):           2.6652679           0.5298375           0.4836560
 Leave Link  202 at Fri Mar 14 14:25:36 2025, MaxMem=  8589934592 cpu:               0.3 elap:               0.2
 (Enter /home/enzo/gaussian_versions/gdv.j21/gdv/l601.exe)
 Copying SCF densities to generalized density rwf, IOpCl= 0 IROHF=0.

 **********************************************************************

            Population analysis using the SCF Density.

 **********************************************************************

 Orbital symmetries:
       Occupied  (A) (A) (A) (A) (A) (A) (A) (A) (A) (A) (A) (A)
                 (A) (A) (A) (A) (A) (A) (A) (A) (A) (A) (A) (A)
                 (A) (A) (A) (A) (A) (A) (A) (A) (A) (A) (A) (A)
                 (A) (A) (A) (A) (A) (A) (A)
       Virtual   (A) (A) (A) (A) (A) (A) (A) (A) (A) (A) (A) (A)
                 (A) (A) (A) (A) (A) (A) (A) (A) (A) (A) (A) (A)
                 (A) (A) (A) (A) (A) (A) (A) (A) (A) (A) (A) (A)
                 (A) (A) (A) (A) (A) (A) (A) (A) (A) (A) (A) (A)
                 (A) (A) (A) (A) (A) (A) (A) (A) (A) (A) (A) (A)
                 (A) (A) (A) (A) (A) (A) (A) (A) (A) (A) (A) (A)
                 (A) (A) (A) (A) (A) (A) (A) (A) (A) (A) (A) (A)
                 (A) (A) (A) (A) (A) (A) (A) (A) (A) (A) (A) (A)
                 (A) (A) (A) (A) (A) (A) (A) (A) (A) (A) (A) (A)
                 (A) (A) (A) (A) (A) (A) (A) (A) (A) (A) (A) (A)
                 (A) (A) (A) (A) (A) (A) (A) (A) (A)
 The electronic state is 1-A.
 Alpha  occ. eigenvalues --      -88.89872     -19.17920     -19.15534     -19.13179     -14.40520
 Alpha  occ. eigenvalues --      -10.32645     -10.31863     -10.26095     -10.25729     -10.20435
 Alpha  occ. eigenvalues --       -7.96167      -5.92678      -5.92327      -5.91565      -1.09424
 Alpha  occ. eigenvalues --       -1.07059      -1.01142      -0.96032      -0.83830      -0.75989
 Alpha  occ. eigenvalues --       -0.72917      -0.66120      -0.61872      -0.60404      -0.54869
 Alpha  occ. eigenvalues --       -0.53916      -0.51013      -0.48569      -0.46742      -0.44959
 Alpha  occ. eigenvalues --       -0.43822      -0.43260      -0.40863      -0.40155      -0.39262
 Alpha  occ. eigenvalues --       -0.38738      -0.37835      -0.35112      -0.31209      -0.30683
 Alpha  occ. eigenvalues --       -0.29349      -0.26192      -0.25856
 Alpha virt. eigenvalues --       -0.03522      -0.00003       0.01857       0.05142       0.05386
 Alpha virt. eigenvalues --        0.10139       0.10477       0.13458       0.14077       0.15166
 Alpha virt. eigenvalues --        0.16590       0.17038       0.18219       0.19468       0.20037
 Alpha virt. eigenvalues --        0.22805       0.29146       0.32911       0.34135       0.35128
 Alpha virt. eigenvalues --        0.35615       0.36669       0.37257       0.40988       0.48387
 Alpha virt. eigenvalues --        0.49634       0.51985       0.52400       0.53294       0.55443
 Alpha virt. eigenvalues --        0.57623       0.58293       0.59305       0.62806       0.63602
 Alpha virt. eigenvalues --        0.65691       0.67371       0.70464       0.71327       0.74737
 Alpha virt. eigenvalues --        0.75236       0.77998       0.78849       0.79887       0.81160
 Alpha virt. eigenvalues --        0.82903       0.84329       0.85786       0.86265       0.87471
 Alpha virt. eigenvalues --        0.88075       0.89425       0.90577       0.93050       0.95003
 Alpha virt. eigenvalues --        0.97264       1.01981       1.02241       1.04194       1.04953
 Alpha virt. eigenvalues --        1.07507       1.11062       1.11753       1.12534       1.16920
 Alpha virt. eigenvalues --        1.21354       1.25042       1.31593       1.32951       1.35063
 Alpha virt. eigenvalues --        1.40484       1.42233       1.44291       1.48054       1.49895
 Alpha virt. eigenvalues --        1.56405       1.60725       1.63745       1.70508       1.71972
 Alpha virt. eigenvalues --        1.74513       1.76337       1.78139       1.78569       1.80838
 Alpha virt. eigenvalues --        1.84731       1.86134       1.86487       1.89143       1.91021
 Alpha virt. eigenvalues --        1.93708       1.95216       1.98305       2.00732       2.02616
 Alpha virt. eigenvalues --        2.05985       2.11934       2.12949       2.21062       2.25330
 Alpha virt. eigenvalues --        2.27711       2.33220       2.34593       2.37388       2.42599
 Alpha virt. eigenvalues --        2.47217       2.50201       2.55703       2.57417       2.62576
 Alpha virt. eigenvalues --        2.66002       2.68158       2.73176       2.84281       2.86152
 Alpha virt. eigenvalues --        2.96542       2.99040       3.06947       3.12021       3.88100
 Alpha virt. eigenvalues --        3.89487       3.94639       4.10115       4.13955       4.15301
 Alpha virt. eigenvalues --        4.26865       4.34035       4.46733       4.52738
          Condensed to atoms (all electrons):
               1          2          3          4          5          6
     1  C    5.092888   0.342656  -0.050197  -0.030609   0.000704   0.002812
     2  C    0.342656   5.367348   0.254552   0.312813  -0.080573  -0.110737
     3  S   -0.050197   0.254552  15.659931  -0.039185   0.003087  -0.005105
     4  C   -0.030609   0.312813  -0.039185   4.420887   0.498945   0.293174
     5  O    0.000704  -0.080573   0.003087   0.498945   8.144071  -0.098235
     6  N    0.002812  -0.110737  -0.005105   0.293174  -0.098235   7.080218
     7  C   -0.000131   0.005679  -0.000613  -0.028572   0.010918   0.222461
     8  C    0.000019  -0.000282   0.000006  -0.003191  -0.003774  -0.035394
     9  O   -0.000000  -0.000000   0.000000  -0.000038  -0.000007   0.000973
    10  O   -0.000005  -0.000023   0.000003   0.008433  -0.025241   0.003953
    11  H    0.371800  -0.032300  -0.000629   0.004848   0.000295  -0.000069
    12  H    0.376116  -0.031169   0.004696  -0.002714   0.000228   0.000150
    13  H    0.379270  -0.036513   0.001460  -0.006338   0.007895   0.000429
    14  H   -0.035389   0.354912  -0.045611  -0.050300   0.002446   0.003676
    15  H    0.003050  -0.013424   0.243501  -0.002524  -0.000215   0.003006
    16  H   -0.000118   0.002305  -0.000158  -0.019340   0.003371   0.305676
    17  H   -0.000000  -0.000092   0.000023   0.004836   0.000472  -0.029022
    18  H   -0.000020   0.000307   0.000099  -0.003594   0.006451  -0.043768
    19  H    0.000002   0.001431  -0.000030  -0.001981   0.069187  -0.009312
               7          8          9         10         11         12
     1  C   -0.000131   0.000019  -0.000000  -0.000005   0.371800   0.376116
     2  C    0.005679  -0.000282  -0.000000  -0.000023  -0.032300  -0.031169
     3  S   -0.000613   0.000006   0.000000   0.000003  -0.000629   0.004696
     4  C   -0.028572  -0.003191  -0.000038   0.008433   0.004848  -0.002714
     5  O    0.010918  -0.003774  -0.000007  -0.025241   0.000295   0.000228
     6  N    0.222461  -0.035394   0.000973   0.003953  -0.000069   0.000150
     7  C    5.252462   0.301603  -0.086642  -0.104600   0.000001  -0.000021
     8  C    0.301603   4.322745   0.603851   0.289912   0.000000   0.000001
     9  O   -0.086642   0.603851   7.989403  -0.077186   0.000000   0.000000
    10  O   -0.104600   0.289912  -0.077186   8.286500  -0.000000   0.000003
    11  H    0.000001   0.000000   0.000000  -0.000000   0.543803  -0.027780
    12  H   -0.000021   0.000001   0.000000   0.000003  -0.027780   0.538589
    13  H   -0.000003   0.000001   0.000000   0.000005  -0.026621  -0.024710
    14  H    0.000052   0.000011  -0.000000   0.000010  -0.003091  -0.003300
    15  H   -0.000138   0.000003  -0.000000  -0.000000   0.000047  -0.000114
    16  H   -0.026593   0.000835   0.000034  -0.000140  -0.000015  -0.000017
    17  H    0.343615  -0.025839   0.007635   0.003875  -0.000000   0.000000
    18  H    0.357280  -0.032159   0.001809   0.003227  -0.000000   0.000001
    19  H    0.009676  -0.013470   0.002836   0.192190   0.000001   0.000000
              13         14         15         16         17         18
     1  C    0.379270  -0.035389   0.003050  -0.000118  -0.000000  -0.000020
     2  C   -0.036513   0.354912  -0.013424   0.002305  -0.000092   0.000307
     3  S    0.001460  -0.045611   0.243501  -0.000158   0.000023   0.000099
     4  C   -0.006338  -0.050300  -0.002524  -0.019340   0.004836  -0.003594
     5  O    0.007895   0.002446  -0.000215   0.003371   0.000472   0.006451
     6  N    0.000429   0.003676   0.003006   0.305676  -0.029022  -0.043768
     7  C   -0.000003   0.000052  -0.000138  -0.026593   0.343615   0.357280
     8  C    0.000001   0.000011   0.000003   0.000835  -0.025839  -0.032159
     9  O    0.000000  -0.000000  -0.000000   0.000034   0.007635   0.001809
    10  O    0.000005   0.000010  -0.000000  -0.000140   0.003875   0.003227
    11  H   -0.026621  -0.003091   0.000047  -0.000015  -0.000000  -0.000000
    12  H   -0.024710  -0.003300  -0.000114  -0.000017   0.000000   0.000001
    13  H    0.502185   0.004994   0.000007  -0.000004  -0.000000  -0.000001
    14  H    0.004994   0.596111  -0.003104   0.004100  -0.000017  -0.000008
    15  H    0.000007  -0.003104   0.681686   0.000217  -0.000004  -0.000030
    16  H   -0.000004   0.004100   0.000217   0.386485  -0.004390   0.003439
    17  H   -0.000000  -0.000017  -0.000004  -0.004390   0.530568  -0.019236
    18  H   -0.000001  -0.000008  -0.000030   0.003439  -0.019236   0.525515
    19  H   -0.000060  -0.000088   0.000001   0.000023  -0.000015  -0.001086
              19
     1  C    0.000002
     2  C    0.001431
     3  S   -0.000030
     4  C   -0.001981
     5  O    0.069187
     6  N   -0.009312
     7  C    0.009676
     8  C   -0.013470
     9  O    0.002836
    10  O    0.192190
    11  H    0.000001
    12  H    0.000000
    13  H   -0.000060
    14  H   -0.000088
    15  H    0.000001
    16  H    0.000023
    17  H   -0.000015
    18  H   -0.001086
    19  H    0.303825
 Mulliken charges:
               1
     1  C   -0.452847
     2  C   -0.336891
     3  S   -0.025829
     4  C    0.644449
     5  O   -0.540023
     6  N   -0.584883
     7  C   -0.256434
     8  C    0.595122
     9  O   -0.442667
    10  O   -0.580916
    11  H    0.169712
    12  H    0.170040
    13  H    0.198006
    14  H    0.174596
    15  H    0.088037
    16  H    0.344292
    17  H    0.187593
    18  H    0.201772
    19  H    0.446871
 Sum of Mulliken charges =  -0.00000
 Mulliken charges with hydrogens summed into heavy atoms:
               1
     1  C    0.084911
     2  C   -0.162295
     3  S    0.062208
     4  C    0.644449
     5  O   -0.540023
     6  N   -0.240590
     7  C    0.132931
     8  C    0.595122
     9  O   -0.442667
    10  O   -0.134045
 Electronic spatial extent (au):  <R**2>=           2242.7089
 Charge=              0.0000 electrons
 Dipole moment (field-independent basis, Debye):
    X=              3.6271    Y=             -2.6657    Z=             -1.9039  Tot=              4.8874
 Quadrupole moment (field-independent basis, Debye-Ang):
   XX=            -90.0723   YY=            -61.2867   ZZ=            -65.2493
   XY=              4.7164   XZ=             -6.6359   YZ=             -0.8241
 Traceless Quadrupole moment (field-independent basis, Debye-Ang):
   XX=            -17.8696   YY=             10.9161   ZZ=              6.9535
   XY=              4.7164   XZ=             -6.6359   YZ=             -0.8241
 Octapole moment (field-independent basis, Debye-Ang**2):
  XXX=             51.3006  YYY=             -7.0115  ZZZ=             -3.9673  XYY=              2.6345
  XXY=              2.6370  XXZ=             15.6651  XZZ=             -9.6544  YZZ=             -1.9379
  YYZ=             -2.1998  XYZ=              0.0517
 Hexadecapole moment (field-independent basis, Debye-Ang**3):
 XXXX=          -2678.4500 YYYY=           -414.1561 ZZZZ=           -186.9690 XXXY=             27.9626
 XXXZ=            -58.4838 YYYX=             -4.8120 YYYZ=              8.1042 ZZZX=             -6.3904
 ZZZY=              9.7394 XXYY=           -432.3213 XXZZ=           -410.2510 YYZZ=            -98.4945
 XXYZ=            -16.0423 YYXZ=              4.6686 ZZXY=              0.7027
 N-N= 6.253105481339D+02 E-N=-3.309689158932D+03  KE= 8.690044252785D+02
 No NMR shielding tensors so no spin-rotation constants.
 Leave Link  601 at Fri Mar 14 14:25:37 2025, MaxMem=  8589934592 cpu:               7.7 elap:               1.3
 (Enter /home/enzo/gaussian_versions/gdv.j21/gdv/l9999.exe)
 Unable to Open any file for archive entry.
 1\1\GINC-ORACLE\FOpt\RB3LYP\6-31G(d)\C5H9N1O3S1\ENZO\14-Mar-2025\0\\#p
  B3LYP/6-31G* OPT OUTPUT=PICKETT\\individuo_9422\\0,1\C,-2.1775137932,
 1.8757482396,0.5374343641\C,-1.6983005638,0.4325702711,0.6967080352\S,
 -3.010856481,-0.6897300327,0.0095975627\C,-0.3828844953,0.2012012797,-
 0.0434232257\O,-0.1142421744,0.7664216007,-1.1083539346\N,0.4730622158
 ,-0.683261892,0.5304508564\C,1.7075429951,-1.1169191254,-0.1247375551\
 C,2.84166661,-0.071851336,-0.0957708717\O,3.9145487815,-0.3037860936,0
 .407337353\O,2.5582153195,1.0968942015,-0.6876739325\H,-3.1390650377,2
 .0187584203,1.0383679094\H,-1.4491400386,2.5621420546,0.9817807189\H,-
 2.2776804323,2.1279847403,-0.520793554\H,-1.5777315066,0.1941377546,1.
 7591288901\H,-2.3963191855,-1.8563518112,0.3047327138\H,0.2805910939,-
 1.0307757914,1.4594041102\H,2.0705944171,-2.0132792135,0.3773825922\H,
 1.4745294366,-1.361585139,-1.1679689289\H,1.633983839,1.0830988721,-1.
 0421901035\\Version=ES64L-GDVRevJ.21\State=1-A\HF=-874.5837026\RMSD=8.
 009e-09\RMSF=3.152e-05\Dipole=-1.4072382,-0.8836902,0.9675445\Quadrupo
 le=-13.9967787,8.4992549,5.4975238,-3.3358677,-3.3103772,0.5388965\PG=
 C01 [X(C5H9N1O3S1)]\\@
 The archive entry for this job was punched.
 DoSRE=F DoSRN=F DoDH=F DoFC=F DoNQ=T DoQCD=F DoSCD=F
 Inertia tensor (amu-bohr**2): 
                 1             2             3 
      1   0.685090D+03  0.500235D+02  0.147180D+03
      2   0.500235D+02  0.341416D+04  0.503248D+02
      3   0.147180D+03  0.503248D+02  0.371556D+04
 Principal inertia moments (amu-bohr**2):
 Iaa = 0.677133D+03 Ibb= 0.340622D+04 Icc= 0.373146D+04
 Rotation matrix to Principal Axis frame: 
                 1             2             3 
      1   0.998692D+00  0.921545D-02  0.502917D-01
      2  -0.173685D-01  0.986278D+00  0.164178D+00
      3  -0.480886D-01 -0.164837D+00  0.985148D+00
                Principal axis orientation:                
 ---------------------------------------------------------------------
 Center     Atomic                     Coordinates (Angstroms)
 Number     Number                        X           Y           Z
 ---------------------------------------------------------------------
      1          6                   -2.293862    1.675155    0.711488
      2          6                   -1.797869    0.229943    0.655559
      3         16                   -3.056173   -0.775792   -0.271614
      4          6                   -0.444563    0.135872   -0.045411
      5          8                   -0.134878    0.871351   -0.988218
      6          7                    0.398029   -0.823162    0.417777
      7          6                    1.669935   -1.131493   -0.236793
      8          6                    2.783031   -0.095089    0.020358
      9          8                    3.834344   -0.396885    0.531872
     10          8                    2.508115    1.152574   -0.385128
     11          1                   -3.280728    1.724770    1.180103
     12          1                   -1.599730    2.285598    1.298557
     13          1                   -2.347390    2.097442   -0.294649
     14          1                   -1.724406   -0.179232    1.669119
     15          1                   -2.436370   -1.969391   -0.141490
     16          1                    0.167174   -1.320807    1.266200
     17          1                    2.023933   -2.094975    0.128966
     18          1                    1.491643   -1.202986   -1.316417
     19          1                    1.602380    1.188888   -0.783124
 ---------------------------------------------------------------------
 Rotational constants (MHZ):
   2665.2679093    529.8375258    483.6559758
 Nuclear quadrupole coupling constants [Chi] (MHz):
  6  N(14) 
   aa=     0.9403   ba=    -2.0702   ca=    -1.7067
   ab=    -2.0702   bb=    -1.0783   cb=    -2.3975
   ac=    -1.7067   bc=    -2.3975   cc=     0.1380
 Dipole moment (Debye):
     -3.6514146     -2.6536321      1.8740795  Tot=      4.8874089

 Atoms with significant hyperfine tensors:  N6-14

--------------------------------------------------------------------------------
 individuo_9422                                          
   99  1000  50  0.1760E-11  0.1000E+07  0.1000E+01 1.0000000000
a 3  1  0  0  0  1  1   1  0  1  0
     10000   0.26652679E+04    0.0000E+00   /  A  /
     20000   0.52983753E+03    0.0000E+00   /  B  /
     30000   0.48365598E+03    0.0000E+00   /  C  /
 110010000   0.14104534E+01    0.0000E+00   /  (6 N-14) 3/2*Chi_aa             /
 110040000  -0.30406989E+00    0.0000E+00   /  (6 N-14) 1/4*(Chi_bb-Chi_cc)    /
 110610000  -0.20701939E+01    0.0000E+00   /  (6 N-14) Chi_ab                 /
 110410000  -0.17067134E+01    0.0000E+00   /  (6 N-14) Chi_ac                 /
 110210000  -0.23975441E+01    0.0000E+00   /  (6 N-14) Chi_bc                 /
--------------------------------------------------------------------------------



 The hours that make us happy make us wise.
                         -- John Masefield
 Job cpu time:       0 days  0 hours 27 minutes  1.2 seconds.
 Elapsed time:       0 days  0 hours  4 minutes  0.9 seconds.
 File lengths (MBytes):  RWF=     26 Int=      0 D2E=      0 Chk=      4 Scr=      1
 Normal termination of Gaussian DV at Fri Mar 14 14:25:37 2025.
