%Nprocshared=12
%Mem=64GB
#p B3LYP/6-31G* OPT OUTPUT=PICKETT

individuo_3436

0 1
6 -1.598701 1.909472 -0.072891
6 -1.849411 0.523583 0.509190
16 -3.175596 -0.307542 -0.416851
6 -0.595129 -0.300705 0.467879
8 -0.633613 -1.471669 0.006034
7 0.642054 0.244151 0.938490
6 1.877258 -0.531538 0.896946
6 2.768777 -0.043631 -0.196689
8 3.937615 0.338078 0.066123
8 2.295614 0.012986 -1.500885
1 -2.523067 2.519507 -0.006763
1 -0.798889 2.424156 0.499192
1 -1.292903 1.838575 -1.137653
1 -2.190695 0.641558 1.558908
1 -3.438759 -1.214723 0.624795
1 0.652380 1.217779 1.317201
1 2.403404 -0.444699 1.870882
1 1.637295 -1.600787 0.720933
1 1.325047 0.226489 -1.691878

