 Entering Gaussian System, Link 0=gdv
 Input=icluster_centers_population_49_gaussian/individuo_7873.gjf
 Output=icluster_centers_population_49_gaussian/individuo_7873.log
 Initial command:
 /home/enzo/gaussian_versions/gdv.j21/gdv/l1.exe "/local/home/enzo/scratch/Gau-2409721.inp" -scrdir="/local/home/enzo/scratch/"
 Entering Link 1 = /home/enzo/gaussian_versions/gdv.j21/gdv/l1.exe PID=   2409726.
  
 Copyright (c) 1988-2022, Gaussian, Inc.  All Rights Reserved.
  
 This is the private, development version of
 the Gaussian(R) DV system of programs. It is based on
 the Gaussian(R) 16 system (copyright 2016, Gaussian, Inc.),
 the Gaussian(R) 09 system (copyright 2009, Gaussian, Inc.),
 the Gaussian(R) 03 system (copyright 2003, Gaussian, Inc.),
 the Gaussian(R) 98 system (copyright 1998, Gaussian, Inc.),
 the Gaussian(R) 94 system (copyright 1995, Gaussian, Inc.),
 the Gaussian 92(TM) system (copyright 1992, Gaussian, Inc.),
 the Gaussian 90(TM) system (copyright 1990, Gaussian, Inc.),
 the Gaussian 88(TM) system (copyright 1988, Gaussian, Inc.),
 the Gaussian 86(TM) system (copyright 1986, Carnegie Mellon
 University), and the Gaussian 82(TM) system (copyright 1983,
 Carnegie Mellon University). Gaussian is a federally registered
 trademark of Gaussian, Inc.
  
 This software contains proprietary and confidential information,
 including trade secrets, belonging to Gaussian, Inc.
  
 This software is provided under written license and may be
 used, copied, transmitted, or stored only in accord with that
 written license.
  
 The following legend is applicable only to US Government
 contracts under FAR:
  
                    RESTRICTED RIGHTS LEGEND
  
 Use, reproduction and disclosure by the US Government is
 subject to restrictions as set forth in subparagraphs (a)
 and (c) of the Commercial Computer Software - Restricted
 Rights clause in FAR 52.227-19.
  
 Gaussian, Inc.
 340 Quinnipiac St., Bldg. 40, Wallingford CT 06492
  
  
 ---------------------------------------------------------------
 Warning -- This program may not be used in any manner that
 competes with the business of Gaussian, Inc. or will provide
 assistance to any competitor of Gaussian, Inc.  The licensee
 of this program is prohibited from giving any competitor of
 Gaussian, Inc. access to this program.  By using this program,
 the user acknowledges that Gaussian, Inc. is engaged in the
 business of creating and licensing software in the field of
 computational chemistry and represents and warrants to the
 licensee that it is not a competitor of Gaussian, Inc. and that
 it will not use this program in any manner prohibited above.
 ---------------------------------------------------------------
  

 Cite this work as:
 Gaussian Development Version, Revision J.21,
 M. J. Frisch, G. W. Trucks, H. B. Schlegel, G. E. Scuseria, 
 M. A. Robb, J. R. Cheeseman, G. Scalmani, V. Barone, 
 G. A. Petersson, H. Nakatsuji, X. Li, A. V. Marenich, M. Caricato, 
 J. Bloino, B. G. Janesko, J. Zheng, R. Gomperts, B. Mennucci, 
 H. P. Hratchian, J. V. Ortiz, A. F. Izmaylov, J. L. Sonnenberg, 
 D. Williams-Young, F. Ding, F. Lipparini, F. Egidi, J. Goings, 
 B. Peng, A. Petrone, T. Henderson, D. Ranasinghe, V. G. Zakrzewski, 
 J. Gao, N. Rega, G. Zheng, W. Liang, M. Hada, M. Ehara, K. Toyota, 
 R. Fukuda, J. Hasegawa, M. Ishida, T. Nakajima, Y. Honda, O. Kitao, 
 H. Nakai, T. Vreven, K. Throssell, J. A. Montgomery, Jr., 
 J. E. Peralta, F. Ogliaro, M. J. Bearpark, J. J. Heyd, 
 E. N. Brothers, K. N. Kudin, V. N. Staroverov, T. A. Keith, 
 R. Kobayashi, J. Normand, K. Raghavachari, A. P. Rendell, 
 J. C. Burant, S. S. Iyengar, J. Tomasi, M. Cossi, J. M. Millam, 
 M. Klene, C. Adamo, R. Cammi, J. W. Ochterski, R. L. Martin, 
 K. Morokuma, O. Farkas, J. B. Foresman, and D. J. Fox, 
 Gaussian, Inc., Wallingford CT, 2020.
 
 ******************************************
 Gaussian DV:  ES64L-GDVRevJ.21 25-Jul-2022
                14-Mar-2025 
 ******************************************
 %Nprocshared=12
 Will use up to   12 processors via shared memory.
 %Mem=64GB
 ----------------------------------
 #p B3LYP/6-31G* OPT OUTPUT=PICKETT
 ----------------------------------
 1/18=20,19=15,26=3,37=210000000,38=1/1,3;
 2/9=110,12=2/2;
 3/5=1,6=6,7=1,11=2,25=1,30=1,71=1,74=-5/1,2,3;
 4//1;
 5/5=2,38=5/2;
 6/7=2,8=2,9=2,10=2,28=1/1;
 7//1,2,3,16;
 1/18=20,19=15,26=3/3(2);
 2/9=110/2;
 99/10=1024/99;
 2/9=110/2;
 3/5=1,6=6,7=1,11=2,25=1,30=1,71=1,74=-5/1,2,3;
 4/5=5,16=3,69=1/1;
 5/5=2,38=5/2;
 7//1,2,3,16;
 1/18=20,19=15,26=3/3(-5);
 2/9=110/2;
 6/7=2,8=2,9=2,10=2,19=2,28=1/1;
 99/9=1,10=1024/99;
 Leave Link    1 at Fri Mar 14 15:41:11 2025, MaxMem=  8589934592 cpu:               0.2 elap:               0.0
 (Enter /home/enzo/gaussian_versions/gdv.j21/gdv/l101.exe)
 --------------
 individuo_7873
 --------------
 Symbolic Z-matrix:
 Charge =     0 Multiplicity =     1
 7                    -1.93562  -0.08194  -0.06399 
 6                    -0.76815   0.77332   0.1105 
 6                     0.48822  -0.03474   0.03728 
 8                     0.43737  -1.29101   0.05108 
 8                     1.7104    0.6137   -0.08047 
 1                    -2.08117  -0.2561   -1.08423 
 1                    -2.7765    0.41819   0.30379 
 1                    -0.7521    1.55759  -0.67457 
 1                    -0.8256    1.28365   1.09486 
 1                     2.57576   0.09036  -0.044 
 
 ITRead=  0  0  0  0  0  0  0  0  0  0
 MicOpt= -1 -1 -1 -1 -1 -1 -1 -1 -1 -1
 NAtoms=     10 NQM=       10 NQMF=       0 NMMI=      0 NMMIF=      0
                NMic=       0 NMicF=      0.
                    Isotopes and Nuclear Properties:
 (Nuclear quadrupole moments (NQMom) in fm**2, nuclear magnetic moments (NMagM)
  in nuclear magnetons)

  Atom         1           2           3           4           5           6           7           8           9          10
 IAtWgt=          14          12          12          16          16           1           1           1           1           1
 AtmWgt=  14.0030740  12.0000000  12.0000000  15.9949146  15.9949146   1.0078250   1.0078250   1.0078250   1.0078250   1.0078250
 NucSpn=           2           0           0           0           0           1           1           1           1           1
 AtZEff=  -0.0000000  -0.0000000  -0.0000000  -0.0000000  -0.0000000  -0.0000000  -0.0000000  -0.0000000  -0.0000000  -0.0000000
 NQMom=    2.0440000   0.0000000   0.0000000   0.0000000   0.0000000   0.0000000   0.0000000   0.0000000   0.0000000   0.0000000
 NMagM=    0.4037610   0.0000000   0.0000000   0.0000000   0.0000000   2.7928460   2.7928460   2.7928460   2.7928460   2.7928460
 AtZNuc=   7.0000000   6.0000000   6.0000000   8.0000000   8.0000000   1.0000000   1.0000000   1.0000000   1.0000000   1.0000000
 Leave Link  101 at Fri Mar 14 15:41:12 2025, MaxMem=  8589934592 cpu:               1.9 elap:               0.3
 (Enter /home/enzo/gaussian_versions/gdv.j21/gdv/l103.exe)

 GradGradGradGradGradGradGradGradGradGradGradGradGradGradGradGradGradGrad
 Berny optimization.
 Initialization pass.
                           ----------------------------
                           !    Initial Parameters    !
                           ! (Angstroms and Degrees)  !
 --------------------------                            --------------------------
 ! Name  Definition              Value          Derivative Info.                !
 --------------------------------------------------------------------------------
 ! R1    R(1,2)                  1.4577         estimate D2E/DX2                !
 ! R2    R(1,6)                  1.0452         estimate D2E/DX2                !
 ! R3    R(1,7)                  1.0452         estimate D2E/DX2                !
 ! R4    R(2,3)                  1.4956         estimate D2E/DX2                !
 ! R5    R(2,8)                  1.1098         estimate D2E/DX2                !
 ! R6    R(2,9)                  1.1103         estimate D2E/DX2                !
 ! R7    R(3,4)                  1.2574         estimate D2E/DX2                !
 ! R8    R(3,5)                  1.3885         estimate D2E/DX2                !
 ! R9    R(5,10)                 1.012          estimate D2E/DX2                !
 ! A1    A(2,1,6)              109.0351         estimate D2E/DX2                !
 ! A2    A(2,1,7)              108.7515         estimate D2E/DX2                !
 ! A3    A(6,1,7)              108.1292         estimate D2E/DX2                !
 ! A4    A(1,2,3)              110.4832         estimate D2E/DX2                !
 ! A5    A(1,2,8)              109.9697         estimate D2E/DX2                !
 ! A6    A(1,2,9)              109.5342         estimate D2E/DX2                !
 ! A7    A(3,2,8)              109.5744         estimate D2E/DX2                !
 ! A8    A(3,2,9)              109.5858         estimate D2E/DX2                !
 ! A9    A(8,2,9)              107.6436         estimate D2E/DX2                !
 ! A10   A(2,3,4)              120.3518         estimate D2E/DX2                !
 ! A11   A(2,3,5)              119.4221         estimate D2E/DX2                !
 ! A12   A(4,3,5)              120.2059         estimate D2E/DX2                !
 ! A13   A(3,5,10)             120.5378         estimate D2E/DX2                !
 ! D1    D(6,1,2,3)            -81.234          estimate D2E/DX2                !
 ! D2    D(6,1,2,8)             39.8477         estimate D2E/DX2                !
 ! D3    D(6,1,2,9)            157.9535         estimate D2E/DX2                !
 ! D4    D(7,1,2,3)            161.0728         estimate D2E/DX2                !
 ! D5    D(7,1,2,8)            -77.8455         estimate D2E/DX2                !
 ! D6    D(7,1,2,9)             40.2603         estimate D2E/DX2                !
 ! D7    D(1,2,3,4)            -10.784          estimate D2E/DX2                !
 ! D8    D(1,2,3,5)            167.5861         estimate D2E/DX2                !
 ! D9    D(8,2,3,4)           -132.1004         estimate D2E/DX2                !
 ! D10   D(8,2,3,5)             46.2697         estimate D2E/DX2                !
 ! D11   D(9,2,3,4)            109.9978         estimate D2E/DX2                !
 ! D12   D(9,2,3,5)            -71.6321         estimate D2E/DX2                !
 ! D13   D(2,3,5,10)           174.2275         estimate D2E/DX2                !
 ! D14   D(4,3,5,10)            -7.4            estimate D2E/DX2                !
 --------------------------------------------------------------------------------
 Trust Radius=3.00D-01 FncErr=1.00D-07 GrdErr=1.00D-06 EigMax=2.50D+02 EigMin=1.00D-04
 Number of steps in this run=     46 maximum allowed number of steps=    100.
 GradGradGradGradGradGradGradGradGradGradGradGradGradGradGradGradGradGrad

 Leave Link  103 at Fri Mar 14 15:41:12 2025, MaxMem=  8589934592 cpu:               0.1 elap:               0.1
 (Enter /home/enzo/gaussian_versions/gdv.j21/gdv/l202.exe)
                          Input orientation:                          
 ---------------------------------------------------------------------
 Center     Atomic      Atomic             Coordinates (Angstroms)
 Number     Number       Type             X           Y           Z
 ---------------------------------------------------------------------
      1          7           0       -1.935615   -0.081941   -0.063985
      2          6           0       -0.768149    0.773318    0.110504
      3          6           0        0.488223   -0.034740    0.037283
      4          8           0        0.437372   -1.291006    0.051080
      5          8           0        1.710404    0.613702   -0.080474
      6          1           0       -2.081175   -0.256101   -1.084231
      7          1           0       -2.776501    0.418192    0.303794
      8          1           0       -0.752100    1.557591   -0.674567
      9          1           0       -0.825598    1.283653    1.094860
     10          1           0        2.575761    0.090358   -0.044000
 ---------------------------------------------------------------------
                    Distance matrix (angstroms):
                    1          2          3          4          5
     1  N    0.000000
     2  C    1.457701   0.000000
     3  C    2.426412   1.495590   0.000000
     4  O    2.665735   2.391285   1.257370   0.000000
     5  O    3.711825   2.491019   1.388550   2.294740   0.000000
     6  H    1.045190   2.052104   2.812223   2.950091   4.017481
     7  H    1.045219   2.048647   3.306750   3.648863   4.507572
     8  H    2.112246   1.109810   2.140245   3.171106   2.703294
     9  H    2.107109   1.110270   2.140737   3.051793   2.874291
    10  H    4.514709   3.416437   2.092862   2.547531   1.011960
                    6          7          8          9         10
     6  H    0.000000
     7  H    1.692561   0.000000
     8  H    2.285551   2.520639   0.000000
     9  H    2.948856   2.276144   1.792014   0.000000
    10  H    4.784262   5.373560   3.691212   3.780238   0.000000
 Stoichiometry    C2H5NO2
 Framework group  C1[X(C2H5NO2)]
 Deg. of freedom    24
 Full point group                 C1      NOp   1
 Largest Abelian subgroup         C1      NOp   1
 Largest concise Abelian subgroup C1      NOp   1
                         Standard orientation:                         
 ---------------------------------------------------------------------
 Center     Atomic      Atomic             Coordinates (Angstroms)
 Number     Number       Type             X           Y           Z
 ---------------------------------------------------------------------
      1          7           0       -1.884892    0.165846    0.044813
      2          6           0       -0.737019   -0.719807   -0.106504
      3          6           0        0.537701    0.059609   -0.040246
      4          8           0        0.516722    1.316252   -0.077510
      5          8           0        1.743455   -0.615184    0.097162
      6          1           0       -2.032282    0.362308    1.060737
      7          1           0       -2.735217   -0.321055   -0.318995
      8          1           0       -0.744182   -1.489526    0.692970
      9          1           0       -0.800756   -1.246837   -1.081633
     10          1           0        2.621173   -0.113167    0.056521
 ---------------------------------------------------------------------
 Rotational constants (GHZ):          10.6091415           3.7256715           2.8607538
 Leave Link  202 at Fri Mar 14 15:41:12 2025, MaxMem=  8589934592 cpu:               0.1 elap:               0.1
 (Enter /home/enzo/gaussian_versions/gdv.j21/gdv/l301.exe)
 Standard basis: 6-31G(d) (6D, 7F)
 Ernie: Thresh=  0.10000D-02 Tol=  0.10000D-05 Strict=F.
 There are    85 symmetry adapted cartesian basis functions of A   symmetry.
 There are    85 symmetry adapted basis functions of A   symmetry.
    85 basis functions,   160 primitive gaussians,    85 cartesian basis functions
    20 alpha electrons       20 beta electrons
       nuclear repulsion energy       176.2048051395 Hartrees.
 IExCor=      4002 DFT=T Ex+Corr=B3LYP ScaHFX=  0.200000
 ScaDFX=  0.800000  0.720000  1.000000  0.810000  1.000000  0.000000
 ScaDFX=  0.000000  0.000000  0.000000  0.000000  0.000000  0.000000
 IRadAn=      5 IRanWt=     -1 IRanGd=            0 ICorTp=0 IEmpDi=  4
 NAtoms=   10 NActive=   10 NUniq=   10 SFac= 1.00D+00 NAtFMM=   60 NAOKFM=F Big=F
 Integral buffers will be    131072 words long.
 Raffenetti 2 integral format.
 Two-electron integral symmetry is turned on.
 Leave Link  301 at Fri Mar 14 15:41:12 2025, MaxMem=  8589934592 cpu:               0.3 elap:               0.1
 (Enter /home/enzo/gaussian_versions/gdv.j21/gdv/l302.exe)
 NPDir=0 NMtPBC=     1 NCelOv=     1 NCel=       1 NClECP=     1 NCelD=      1
         NCelK=      1 NCelE2=     1 NClLst=     1 CellRange=     0.0.
 One-electron integrals computed using PRISM.
 One-electron integral symmetry used in STVInt
 NBasis=    85 RedAO= T EigKep=  3.84D-03  NBF=    85
 NBsUse=    85 1.00D-06 EigRej= -1.00D+00 NBFU=    85
 Precomputing XC quadrature grid using
 IXCGrd= 4 IRadAn=           5 IRanWt=          -1 IRanGd=           0 AccXCQ= 0.00D+00.
 Generated NRdTot=       0 NPtTot=      220029 NUsed=           0 NTot=          64
 NSgBfM=    85    85    85    85    85 MxSgAt=    10 MxSgA2=    10 SizInc=   0.000
 NMBTot=     1957 MaxBatPerAtom=       84 MaxMicBPerAtom=      203 NBfPt=            15834741.
 Leave Link  302 at Fri Mar 14 15:41:12 2025, MaxMem=  8589934592 cpu:               0.9 elap:               0.2
 (Enter /home/enzo/gaussian_versions/gdv.j21/gdv/l303.exe)
 DipDrv:  MaxL=1.
 Leave Link  303 at Fri Mar 14 15:41:12 2025, MaxMem=  8589934592 cpu:               0.1 elap:               0.1
 (Enter /home/enzo/gaussian_versions/gdv.j21/gdv/l401.exe)
 ExpMin= 1.61D-01 ExpMax= 5.48D+03 ExpMxC= 8.25D+02 IAcc=3 IRadAn=         5 AccDes= 0.00D+00
 Harris functional with IExCor= 4002 and IRadAn=       5 diagonalized for initial guess.
 HarFok:  IExCor=    4002 AccDes= 0.00D+00 IRadAn=         5 IDoV= 1 UseB2=F ITyADJ=14 ICtDFT=  3500011
 FoFCou: FMM=F IPFlag=           0 FMFlag=      100000 FMFlg1=           0
         NFxFlg=           0 DoJE=T BraDBF=F KetDBF=T FulRan=T
         wScrn=  0.000000 ICntrl=       500 IOpCl=  0 I1Cent=   200000004 NGrid=           0
         NMat0=    1 NMatS0=      1 NMatT0=    0 NMatD0=    1 NMtDS0=    0 NMtDT0=    0
 Petite list used in FoFCou.
 Harris En= -284.425856759415    
 JPrj=0 DoOrth=F DoCkMO=F.
 Leave Link  401 at Fri Mar 14 15:41:12 2025, MaxMem=  8589934592 cpu:               2.3 elap:               0.3
 (Enter /home/enzo/gaussian_versions/gdv.j21/gdv/l502.exe)
 Keep R1 ints in memory in canonical form, NReq=17617987.
 FoFCou: FMM=F IPFlag=           0 FMFlag=           0 FMFlg1=           0
         NFxFlg=           0 DoJE=F BraDBF=F KetDBF=F FulRan=T
         wScrn=  0.000000 ICntrl=       600 IOpCl=  0 I1Cent=           0 NGrid=           0
         NMat0=    1 NMatS0=   3655 NMatT0=    0 NMatD0=    1 NMtDS0=    0 NMtDT0=    0
 Symmetry not used in FoFCou.
 Two-electron integral symmetry not used.
 Closed shell SCF:
 Using DIIS extrapolation, IDIIS=  1040.
 NGot=  8589934592 LenX=  8583230350 LenY=  8583222684
 Requested convergence on RMS density matrix=1.00D-08 within 128 cycles.
 Requested convergence on MAX density matrix=1.00D-06.
 Requested convergence on             energy=1.00D-06.
 No special actions if energy rises.
 Integral accuracy reduced to 1.0D-05 until final iterations.

 Cycle   1  Pass 0  IDiag  1:
 E= -284.218766916745    
 DIIS: error= 3.38D-02 at cycle   1 NSaved=   1.
 NSaved= 1 IEnMin= 1 EnMin= -284.218766916745     IErMin= 1 ErrMin= 3.38D-02
 ErrMax= 3.38D-02  0.00D+00 EMaxC= 1.00D-01 BMatC= 2.17D-01 BMatP= 2.17D-01
 IDIUse=3 WtCom= 6.62D-01 WtEn= 3.38D-01
 Coeff-Com:  0.100D+01
 Coeff-En:   0.100D+01
 Coeff:      0.100D+01
 Gap=     0.138 Goal=   None    Shift=    0.000
 GapD=    0.138 DampG=1.000 DampE=0.500 DampFc=0.5000 IDamp=-1.
 Damping current iteration by 5.00D-01
 RMSDP=1.36D-02 MaxDP=2.42D-01              OVMax= 3.49D-01

 Cycle   2  Pass 0  IDiag  1:
 E= -284.236449445515     Delta-E=       -0.017682528769 Rises=F Damp=T
 DIIS: error= 1.80D-02 at cycle   2 NSaved=   2.
 NSaved= 2 IEnMin= 2 EnMin= -284.236449445515     IErMin= 2 ErrMin= 1.80D-02
 ErrMax= 1.80D-02  0.00D+00 EMaxC= 1.00D-01 BMatC= 5.19D-02 BMatP= 2.17D-01
 IDIUse=3 WtCom= 8.20D-01 WtEn= 1.80D-01
 Coeff-Com:  0.294D+00 0.706D+00
 Coeff-En:   0.458D+00 0.542D+00
 Coeff:      0.323D+00 0.677D+00
 Gap=     0.294 Goal=   None    Shift=    0.000
 RMSDP=4.18D-03 MaxDP=6.53D-02 DE=-1.77D-02 OVMax= 2.41D-01

 Cycle   3  Pass 0  IDiag  1:
 E= -284.364254644012     Delta-E=       -0.127805198498 Rises=F Damp=F
 DIIS: error= 1.84D-02 at cycle   3 NSaved=   3.
 NSaved= 3 IEnMin= 3 EnMin= -284.364254644012     IErMin= 2 ErrMin= 1.80D-02
 ErrMax= 1.84D-02  0.00D+00 EMaxC= 1.00D-01 BMatC= 3.89D-02 BMatP= 5.19D-02
 IDIUse=3 WtCom= 8.16D-01 WtEn= 1.84D-01
 Coeff-Com:  0.155D+00 0.453D+00 0.393D+00
 Coeff-En:   0.000D+00 0.000D+00 0.100D+01
 Coeff:      0.126D+00 0.369D+00 0.505D+00
 Gap=     0.242 Goal=   None    Shift=    0.000
 RMSDP=2.61D-03 MaxDP=5.09D-02 DE=-1.28D-01 OVMax= 1.05D-01

 Cycle   4  Pass 0  IDiag  1:
 E= -284.388351648541     Delta-E=       -0.024097004529 Rises=F Damp=F
 DIIS: error= 1.01D-02 at cycle   4 NSaved=   4.
 NSaved= 4 IEnMin= 4 EnMin= -284.388351648541     IErMin= 4 ErrMin= 1.01D-02
 ErrMax= 1.01D-02  0.00D+00 EMaxC= 1.00D-01 BMatC= 1.02D-02 BMatP= 3.89D-02
 IDIUse=3 WtCom= 8.99D-01 WtEn= 1.01D-01
 Coeff-Com:  0.343D-01 0.603D-01 0.331D+00 0.575D+00
 Coeff-En:   0.000D+00 0.000D+00 0.242D+00 0.758D+00
 Coeff:      0.309D-01 0.542D-01 0.322D+00 0.593D+00
 Gap=     0.243 Goal=   None    Shift=    0.000
 RMSDP=9.59D-04 MaxDP=1.91D-02 DE=-2.41D-02 OVMax= 3.80D-02

 Cycle   5  Pass 0  IDiag  1:
 E= -284.395789473191     Delta-E=       -0.007437824650 Rises=F Damp=F
 DIIS: error= 1.78D-03 at cycle   5 NSaved=   5.
 NSaved= 5 IEnMin= 5 EnMin= -284.395789473191     IErMin= 5 ErrMin= 1.78D-03
 ErrMax= 1.78D-03  0.00D+00 EMaxC= 1.00D-01 BMatC= 3.15D-04 BMatP= 1.02D-02
 IDIUse=3 WtCom= 9.82D-01 WtEn= 1.78D-02
 Coeff-Com:  0.653D-02-0.398D-02 0.138D+00 0.320D+00 0.540D+00
 Coeff-En:   0.000D+00 0.000D+00 0.000D+00 0.000D+00 0.100D+01
 Coeff:      0.642D-02-0.391D-02 0.135D+00 0.314D+00 0.548D+00
 Gap=     0.238 Goal=   None    Shift=    0.000
 RMSDP=2.05D-04 MaxDP=3.51D-03 DE=-7.44D-03 OVMax= 5.39D-03

 Cycle   6  Pass 0  IDiag  1:
 E= -284.396045207907     Delta-E=       -0.000255734716 Rises=F Damp=F
 DIIS: error= 4.05D-04 at cycle   6 NSaved=   6.
 NSaved= 6 IEnMin= 6 EnMin= -284.396045207907     IErMin= 6 ErrMin= 4.05D-04
 ErrMax= 4.05D-04  0.00D+00 EMaxC= 1.00D-01 BMatC= 1.83D-05 BMatP= 3.15D-04
 IDIUse=3 WtCom= 9.96D-01 WtEn= 4.05D-03
 Coeff-Com:  0.108D-02-0.633D-02 0.382D-01 0.916D-01 0.256D+00 0.619D+00
 Coeff-En:   0.000D+00 0.000D+00 0.000D+00 0.000D+00 0.000D+00 0.100D+01
 Coeff:      0.107D-02-0.631D-02 0.381D-01 0.912D-01 0.255D+00 0.621D+00
 Gap=     0.239 Goal=   None    Shift=    0.000
 RMSDP=4.87D-05 MaxDP=7.09D-04 DE=-2.56D-04 OVMax= 8.35D-04

 Cycle   7  Pass 0  IDiag  1:
 E= -284.396059755549     Delta-E=       -0.000014547642 Rises=F Damp=F
 DIIS: error= 9.21D-05 at cycle   7 NSaved=   7.
 NSaved= 7 IEnMin= 7 EnMin= -284.396059755549     IErMin= 7 ErrMin= 9.21D-05
 ErrMax= 9.21D-05  0.00D+00 EMaxC= 1.00D-01 BMatC= 1.38D-06 BMatP= 1.83D-05
 IDIUse=1 WtCom= 1.00D+00 WtEn= 0.00D+00
 Coeff-Com:  0.358D-03-0.312D-02 0.119D-01 0.269D-01 0.101D+00 0.315D+00
 Coeff-Com:  0.548D+00
 Coeff:      0.358D-03-0.312D-02 0.119D-01 0.269D-01 0.101D+00 0.315D+00
 Coeff:      0.548D+00
 Gap=     0.238 Goal=   None    Shift=    0.000
 RMSDP=1.32D-05 MaxDP=2.29D-04 DE=-1.45D-05 OVMax= 2.31D-04

 Cycle   8  Pass 0  IDiag  1:
 E= -284.396060819937     Delta-E=       -0.000001064388 Rises=F Damp=F
 DIIS: error= 1.67D-05 at cycle   8 NSaved=   8.
 NSaved= 8 IEnMin= 8 EnMin= -284.396060819937     IErMin= 8 ErrMin= 1.67D-05
 ErrMax= 1.67D-05  0.00D+00 EMaxC= 1.00D-01 BMatC= 6.91D-08 BMatP= 1.38D-06
 IDIUse=1 WtCom= 1.00D+00 WtEn= 0.00D+00
 Coeff-Com:  0.931D-04-0.515D-03 0.569D-03-0.196D-03 0.950D-02 0.440D-01
 Coeff-Com:  0.191D+00 0.756D+00
 Coeff:      0.931D-04-0.515D-03 0.569D-03-0.196D-03 0.950D-02 0.440D-01
 Coeff:      0.191D+00 0.756D+00
 Gap=     0.238 Goal=   None    Shift=    0.000
 RMSDP=3.23D-06 MaxDP=5.19D-05 DE=-1.06D-06 OVMax= 6.85D-05

 Initial convergence to 1.0D-05 achieved.  Increase integral accuracy.
 Cycle   9  Pass 1  IDiag  1:
 E= -284.396064674700     Delta-E=       -0.000003854763 Rises=F Damp=F
 DIIS: error= 5.38D-06 at cycle   1 NSaved=   1.
 NSaved= 1 IEnMin= 1 EnMin= -284.396064674700     IErMin= 1 ErrMin= 5.38D-06
 ErrMax= 5.38D-06  0.00D+00 EMaxC= 1.00D-01 BMatC= 6.89D-09 BMatP= 6.89D-09
 IDIUse=1 WtCom= 1.00D+00 WtEn= 0.00D+00
 Coeff-Com:  0.100D+01
 Coeff:      0.100D+01
 Gap=     0.238 Goal=   None    Shift=    0.000
 RMSDP=3.23D-06 MaxDP=5.19D-05 DE=-3.85D-06 OVMax= 3.17D-05

 Cycle  10  Pass 1  IDiag  1:
 E= -284.396064673429     Delta-E=        0.000000001271 Rises=F Damp=F
 DIIS: error= 6.45D-06 at cycle   2 NSaved=   2.
 NSaved= 2 IEnMin= 1 EnMin= -284.396064674700     IErMin= 1 ErrMin= 5.38D-06
 ErrMax= 6.45D-06  0.00D+00 EMaxC= 1.00D-01 BMatC= 8.90D-09 BMatP= 6.89D-09
 IDIUse=1 WtCom= 1.00D+00 WtEn= 0.00D+00
 Coeff-Com:  0.533D+00 0.467D+00
 Coeff:      0.533D+00 0.467D+00
 Gap=     0.238 Goal=   None    Shift=    0.000
 RMSDP=8.94D-07 MaxDP=1.62D-05 DE= 1.27D-09 OVMax= 1.82D-05

 Cycle  11  Pass 1  IDiag  1:
 E= -284.396064681002     Delta-E=       -0.000000007573 Rises=F Damp=F
 DIIS: error= 1.18D-06 at cycle   3 NSaved=   3.
 NSaved= 3 IEnMin= 3 EnMin= -284.396064681002     IErMin= 3 ErrMin= 1.18D-06
 ErrMax= 1.18D-06  0.00D+00 EMaxC= 1.00D-01 BMatC= 2.39D-10 BMatP= 6.89D-09
 IDIUse=1 WtCom= 1.00D+00 WtEn= 0.00D+00
 Coeff-Com:  0.215D+00 0.218D+00 0.567D+00
 Coeff:      0.215D+00 0.218D+00 0.567D+00
 Gap=     0.238 Goal=   None    Shift=    0.000
 RMSDP=2.39D-07 MaxDP=5.77D-06 DE=-7.57D-09 OVMax= 7.79D-06

 Cycle  12  Pass 1  IDiag  1:
 E= -284.396064681096     Delta-E=       -0.000000000094 Rises=F Damp=F
 DIIS: error= 9.33D-07 at cycle   4 NSaved=   4.
 NSaved= 4 IEnMin= 4 EnMin= -284.396064681096     IErMin= 4 ErrMin= 9.33D-07
 ErrMax= 9.33D-07  0.00D+00 EMaxC= 1.00D-01 BMatC= 1.13D-10 BMatP= 2.39D-10
 IDIUse=1 WtCom= 1.00D+00 WtEn= 0.00D+00
 Coeff-Com:  0.273D-01 0.444D-01 0.405D+00 0.523D+00
 Coeff:      0.273D-01 0.444D-01 0.405D+00 0.523D+00
 Gap=     0.238 Goal=   None    Shift=    0.000
 RMSDP=1.21D-07 MaxDP=3.17D-06 DE=-9.40D-11 OVMax= 5.33D-06

 Cycle  13  Pass 1  IDiag  1:
 E= -284.396064681174     Delta-E=       -0.000000000078 Rises=F Damp=F
 DIIS: error= 2.65D-07 at cycle   5 NSaved=   5.
 NSaved= 5 IEnMin= 5 EnMin= -284.396064681174     IErMin= 5 ErrMin= 2.65D-07
 ErrMax= 2.65D-07  0.00D+00 EMaxC= 1.00D-01 BMatC= 1.47D-11 BMatP= 1.13D-10
 IDIUse=1 WtCom= 1.00D+00 WtEn= 0.00D+00
 Coeff-Com: -0.635D-02 0.469D-02 0.201D+00 0.348D+00 0.452D+00
 Coeff:     -0.635D-02 0.469D-02 0.201D+00 0.348D+00 0.452D+00
 Gap=     0.238 Goal=   None    Shift=    0.000
 RMSDP=3.79D-08 MaxDP=5.96D-07 DE=-7.80D-11 OVMax= 1.05D-06

 Cycle  14  Pass 1  IDiag  1:
 E= -284.396064681187     Delta-E=       -0.000000000013 Rises=F Damp=F
 DIIS: error= 5.20D-08 at cycle   6 NSaved=   6.
 NSaved= 6 IEnMin= 6 EnMin= -284.396064681187     IErMin= 6 ErrMin= 5.20D-08
 ErrMax= 5.20D-08  0.00D+00 EMaxC= 1.00D-01 BMatC= 2.33D-13 BMatP= 1.47D-11
 IDIUse=1 WtCom= 1.00D+00 WtEn= 0.00D+00
 Coeff-Com: -0.386D-02-0.439D-04 0.653D-01 0.126D+00 0.194D+00 0.618D+00
 Coeff:     -0.386D-02-0.439D-04 0.653D-01 0.126D+00 0.194D+00 0.618D+00
 Gap=     0.238 Goal=   None    Shift=    0.000
 RMSDP=6.44D-09 MaxDP=1.28D-07 DE=-1.33D-11 OVMax= 1.68D-07

 SCF Done:  E(RB3LYP) =  -284.396064681     A.U. after   14 cycles
            NFock= 14  Conv=0.64D-08     -V/T= 2.0102
 KE= 2.815168658069D+02 PE=-1.018737409458D+03 EE= 2.766196738307D+02
 Leave Link  502 at Fri Mar 14 15:41:15 2025, MaxMem=  8589934592 cpu:              17.0 elap:               2.3
 (Enter /home/enzo/gaussian_versions/gdv.j21/gdv/l601.exe)
 Copying SCF densities to generalized density rwf, IOpCl= 0 IROHF=0.

 **********************************************************************

            Population analysis using the SCF Density.

 **********************************************************************

 Orbital symmetries:
       Occupied  (A) (A) (A) (A) (A) (A) (A) (A) (A) (A) (A) (A)
                 (A) (A) (A) (A) (A) (A) (A) (A)
       Virtual   (A) (A) (A) (A) (A) (A) (A) (A) (A) (A) (A) (A)
                 (A) (A) (A) (A) (A) (A) (A) (A) (A) (A) (A) (A)
                 (A) (A) (A) (A) (A) (A) (A) (A) (A) (A) (A) (A)
                 (A) (A) (A) (A) (A) (A) (A) (A) (A) (A) (A) (A)
                 (A) (A) (A) (A) (A) (A) (A) (A) (A) (A) (A) (A)
                 (A) (A) (A) (A) (A)
 The electronic state is 1-A.
 Alpha  occ. eigenvalues --      -19.19123     -19.12612     -14.32574     -10.32108     -10.23777
 Alpha  occ. eigenvalues --       -1.06950      -0.98260      -0.88610      -0.71878      -0.60357
 Alpha  occ. eigenvalues --       -0.51654      -0.48730      -0.45015      -0.43720      -0.42619
 Alpha  occ. eigenvalues --       -0.37913      -0.36623      -0.30083      -0.25732      -0.23910
 Alpha virt. eigenvalues --       -0.00063       0.05060       0.06728       0.12222       0.13753
 Alpha virt. eigenvalues --        0.18506       0.21131       0.22179       0.31042       0.36507
 Alpha virt. eigenvalues --        0.53795       0.54201       0.55855       0.60083       0.63424
 Alpha virt. eigenvalues --        0.66884       0.71643       0.72560       0.78635       0.79477
 Alpha virt. eigenvalues --        0.84996       0.85547       0.88740       0.89202       0.92275
 Alpha virt. eigenvalues --        0.93683       0.94803       0.97992       1.06327       1.10429
 Alpha virt. eigenvalues --        1.14703       1.26923       1.35370       1.41034       1.45039
 Alpha virt. eigenvalues --        1.50792       1.58491       1.70655       1.72605       1.76054
 Alpha virt. eigenvalues --        1.80238       1.82344       1.87652       1.93631       1.95060
 Alpha virt. eigenvalues --        1.98223       2.01365       2.09716       2.17416       2.23455
 Alpha virt. eigenvalues --        2.28538       2.38722       2.42319       2.47011       2.56729
 Alpha virt. eigenvalues --        2.61368       2.70499       2.84378       2.96455       3.03455
 Alpha virt. eigenvalues --        3.72123       3.86435       4.02295       4.16442       4.47292
          Condensed to atoms (all electrons):
               1          2          3          4          5          6
     1  N    6.883978   0.314132  -0.060947  -0.000842   0.001182   0.313302
     2  C    0.314132   5.168523   0.258323  -0.091236  -0.076633  -0.042015
     3  C   -0.060947   0.258323   4.446150   0.567360   0.255507   0.001449
     4  O   -0.000842  -0.091236   0.567360   8.042994  -0.081923   0.002408
     5  O    0.001182  -0.076633   0.255507  -0.081923   8.288041   0.000029
     6  H    0.313302  -0.042015   0.001449   0.002408   0.000029   0.454316
     7  H    0.302930  -0.033945   0.007340   0.000616  -0.000034  -0.029151
     8  H   -0.048997   0.366344  -0.050977   0.001599   0.005097  -0.008074
     9  H   -0.030676   0.359710  -0.020274   0.000052   0.001902   0.005553
    10  H   -0.000111   0.006593  -0.001814   0.006526   0.214718  -0.000003
               7          8          9         10
     1  N    0.302930  -0.048997  -0.030676  -0.000111
     2  C   -0.033945   0.366344   0.359710   0.006593
     3  C    0.007340  -0.050977  -0.020274  -0.001814
     4  O    0.000616   0.001599   0.000052   0.006526
     5  O   -0.000034   0.005097   0.001902   0.214718
     6  H   -0.029151  -0.008074   0.005553  -0.000003
     7  H    0.461823  -0.000696  -0.006949   0.000003
     8  H   -0.000696   0.610272  -0.030664  -0.000315
     9  H   -0.006949  -0.030664   0.538759  -0.000234
    10  H    0.000003  -0.000315  -0.000234   0.352819
 Mulliken charges:
               1
     1  N   -0.673951
     2  C   -0.229796
     3  C    0.597883
     4  O   -0.447553
     5  O   -0.607886
     6  H    0.302186
     7  H    0.298065
     8  H    0.156412
     9  H    0.182822
    10  H    0.421818
 Sum of Mulliken charges =  -0.00000
 Mulliken charges with hydrogens summed into heavy atoms:
               1
     1  N   -0.073700
     2  C    0.109438
     3  C    0.597883
     4  O   -0.447553
     5  O   -0.186068
 Electronic spatial extent (au):  <R**2>=            429.7633
 Charge=             -0.0000 electrons
 Dipole moment (field-independent basis, Debye):
    X=             -0.1862    Y=             -2.8185    Z=              0.6488  Tot=              2.8982
 Quadrupole moment (field-independent basis, Debye-Ang):
   XX=            -19.7474   YY=            -34.6073   ZZ=            -27.4230
   XY=              3.5222   XZ=             -1.5642   YZ=              1.6481
 Traceless Quadrupole moment (field-independent basis, Debye-Ang):
   XX=              7.5119   YY=             -7.3480   ZZ=             -0.1638
   XY=              3.5222   XZ=             -1.5642   YZ=              1.6481
 Octapole moment (field-independent basis, Debye-Ang**2):
  XXX=             15.7279  YYY=             -3.0333  ZZZ=              1.4413  XYY=             -1.4102
  XXY=             -1.3321  XXZ=              2.3690  XZZ=             -1.2657  YZZ=              0.3320
  YYZ=              0.4265  XYZ=             -2.0466
 Hexadecapole moment (field-independent basis, Debye-Ang**3):
 XXXX=           -222.4269 YYYY=           -137.2298 ZZZZ=            -34.0104 XXXY=             13.9366
 XXXZ=             -1.7936 YYYX=              0.2609 YYYZ=              0.9376 ZZZX=             -3.3096
 ZZZY=              1.7798 XXYY=            -86.4773 XXZZ=            -58.1512 YYZZ=            -26.3691
 XXYZ=              5.3366 YYXZ=             -0.6139 ZZXY=              0.2209
 N-N= 1.762048051395D+02 E-N=-1.018737407229D+03  KE= 2.815168658069D+02
 No NMR shielding tensors so no spin-rotation constants.
 Leave Link  601 at Fri Mar 14 15:41:15 2025, MaxMem=  8589934592 cpu:               3.1 elap:               0.6
 (Enter /home/enzo/gaussian_versions/gdv.j21/gdv/l701.exe)
 ... and contract with generalized density number  0.
 Compute integral first derivatives.
 Leave Link  701 at Fri Mar 14 15:41:16 2025, MaxMem=  8589934592 cpu:               1.5 elap:               0.4
 (Enter /home/enzo/gaussian_versions/gdv.j21/gdv/l702.exe)
 L702 exits ... SP integral derivatives will be done elsewhere.
 Leave Link  702 at Fri Mar 14 15:41:16 2025, MaxMem=  8589934592 cpu:               0.1 elap:               0.1
 (Enter /home/enzo/gaussian_versions/gdv.j21/gdv/l703.exe)
 Integral derivatives from FoFJK, PRISM(SPDF).
 Compute integral first derivatives, UseDBF=F ICtDFT=           0.
 Calling FoFJK, ICntrl=      2127 FMM=F ISym2X=0 I1Cent= 0 IOpClX= 0 NMat=1 NMatS=1 NMatT=0.
 FoFJK:  IHMeth= 1 ICntrl=    2127 DoSepK=F KAlg= 0 I1Cent=           0 FoldK=F
 IRaf=         0 NMat=       1 IRICut=       1 DoRegI=T DoRafI=F ISym2E= 0 IDoP0=0 IntGTp=1.
 FoFCou: FMM=F IPFlag=           0 FMFlag=      100000 FMFlg1=         800
         NFxFlg=           0 DoJE=F BraDBF=F KetDBF=F FulRan=T
         wScrn=  0.000000 ICntrl=      2127 IOpCl=  0 I1Cent=           0 NGrid=           0
         NMat0=    1 NMatS0=      1 NMatT0=    0 NMatD0=    1 NMtDS0=    0 NMtDT0=    0
 Symmetry not used in FoFCou.
 Leave Link  703 at Fri Mar 14 15:41:17 2025, MaxMem=  8589934592 cpu:               4.1 elap:               0.5
 (Enter /home/enzo/gaussian_versions/gdv.j21/gdv/l716.exe)
 Dipole        =-7.32432185D-02-1.10886701D+00 2.55272872D-01
 ***** Axes restored to original set *****
 -------------------------------------------------------------------
 Center     Atomic                   Forces (Hartrees/Bohr)
 Number     Number              X              Y              Z
 -------------------------------------------------------------------
      1        7          -0.019711139    0.003620865   -0.004462518
      2        6          -0.008944132    0.024808936   -0.007517038
      3        6           0.044373830   -0.101759779   -0.002299555
      4        8           0.006868393    0.066021439   -0.000489948
      5        8          -0.007532479    0.015965464    0.004182831
      6        1           0.000533027    0.002494801    0.022405918
      7        1           0.016659556   -0.009593636   -0.011682091
      8        1           0.008863855    0.002984883    0.008018071
      9        1           0.002492158   -0.003419016   -0.007950387
     10        1          -0.043603070   -0.001123957   -0.000205281
 -------------------------------------------------------------------
 Cartesian Forces:  Max     0.101759779 RMS     0.026700990
 Leave Link  716 at Fri Mar 14 15:41:17 2025, MaxMem=  8589934592 cpu:               0.2 elap:               0.2
 (Enter /home/enzo/gaussian_versions/gdv.j21/gdv/l103.exe)

 GradGradGradGradGradGradGradGradGradGradGradGradGradGradGradGradGradGrad
 Berny optimization.
 FormGI is forming the generalized inverse of G from B-inverse, IUseBI=4.
 Internal  Forces:  Max     0.066246562 RMS     0.019020376
 Search for a local minimum.
 Step number   1 out of a maximum of   46
 All quantities printed in internal units (Hartrees-Bohrs-Radians)
 RMS Force = .19020D-01 SwitMx=.10000D-02 MixMth= 1
 Mixed Optimization -- RFO/linear search
 Second derivative matrix not updated -- first step.
 ITU=  0
     Eigenvalues ---    0.00824   0.00929   0.01081   0.01843   0.04588
     Eigenvalues ---    0.05329   0.06670   0.09733   0.13114   0.16000
     Eigenvalues ---    0.16000   0.16000   0.21971   0.24995   0.25000
     Eigenvalues ---    0.32571   0.32620   0.32844   0.37254   0.40546
     Eigenvalues ---    0.40550   0.45646   0.47572   0.80572
 RFO step:  Lambda=-3.47176749D-02 EMin= 8.24282485D-03
 Linear search not attempted -- first point.
 Maximum step size (   0.300) exceeded in Quadratic search.
    -- Step size scaled by   0.883
 Iteration  1 RMS(Cart)=  0.08239997 RMS(Int)=  0.00381305
 Iteration  2 RMS(Cart)=  0.00421290 RMS(Int)=  0.00036709
 Iteration  3 RMS(Cart)=  0.00001039 RMS(Int)=  0.00036697
 Iteration  4 RMS(Cart)=  0.00000000 RMS(Int)=  0.00036697
 Variable       Old X    -DE/DX   Delta X   Delta X   Delta X     New X
                                 (Linear)    (Quad)   (Total)
    R1        2.75466   0.00331   0.00000   0.00717   0.00717   2.76183
    R2        1.97512  -0.02236   0.00000  -0.04484  -0.04484   1.93028
    R3        1.97518  -0.02210   0.00000  -0.04433  -0.04433   1.93085
    R4        2.82626   0.01132   0.00000   0.02752   0.02752   2.85378
    R5        2.09724  -0.00343   0.00000  -0.00840  -0.00840   2.08884
    R6        2.09811  -0.00875   0.00000  -0.02143  -0.02143   2.07668
    R7        2.37609  -0.06625   0.00000  -0.06958  -0.06958   2.30651
    R8        2.62398  -0.03842   0.00000  -0.06643  -0.06643   2.55755
    R9        1.91233  -0.03671   0.00000  -0.06598  -0.06598   1.84635
    A1        1.90302   0.00424   0.00000   0.01723   0.01724   1.92027
    A2        1.89807   0.00020   0.00000  -0.00111  -0.00110   1.89697
    A3        1.88721  -0.00306   0.00000  -0.01813  -0.01810   1.86911
    A4        1.92830   0.00337   0.00000   0.01627   0.01594   1.94424
    A5        1.91933   0.00994   0.00000   0.07027   0.07032   1.98966
    A6        1.91173  -0.00249   0.00000  -0.01332  -0.01307   1.89866
    A7        1.91243  -0.00682   0.00000  -0.02980  -0.03111   1.88133
    A8        1.91263  -0.00173   0.00000  -0.02007  -0.02033   1.89230
    A9        1.87873  -0.00246   0.00000  -0.02463  -0.02527   1.85346
   A10        2.10054   0.02406   0.00000   0.07466   0.07464   2.17518
   A11        2.08431  -0.03826   0.00000  -0.11854  -0.11856   1.96575
   A12        2.09799   0.01421   0.00000   0.04414   0.04413   2.14212
   A13        2.10378  -0.04492   0.00000  -0.20364  -0.20364   1.90014
    D1       -1.41780  -0.00005   0.00000   0.00209   0.00156  -1.41624
    D2        0.69547   0.00013   0.00000   0.02146   0.02204   0.71751
    D3        2.75681   0.00156   0.00000   0.02530   0.02523   2.78204
    D4        2.81125   0.00111   0.00000   0.01473   0.01422   2.82547
    D5       -1.35866   0.00129   0.00000   0.03410   0.03469  -1.32397
    D6        0.70267   0.00272   0.00000   0.03794   0.03789   0.74056
    D7       -0.18822   0.00442   0.00000   0.03999   0.03973  -0.14848
    D8        2.92493   0.00496   0.00000   0.05115   0.05094   2.97586
    D9       -2.30559  -0.00569   0.00000  -0.03859  -0.03797  -2.34356
   D10        0.80756  -0.00514   0.00000  -0.02743  -0.02677   0.78079
   D11        1.91982   0.00235   0.00000   0.02080   0.02037   1.94019
   D12       -1.25022   0.00289   0.00000   0.03196   0.03157  -1.21864
   D13        3.04084   0.00105   0.00000   0.01754   0.01760   3.05844
   D14       -0.12915   0.00176   0.00000   0.02919   0.02913  -0.10002
         Item               Value     Threshold  Converged?
 Maximum Force            0.066247     0.000450     NO 
 RMS     Force            0.019020     0.000300     NO 
 Maximum Displacement     0.314710     0.001800     NO 
 RMS     Displacement     0.083656     0.001200     NO 
 Predicted change in Energy=-1.889619D-02
 Lowest energy point so far.  Saving SCF results.
 GradGradGradGradGradGradGradGradGradGradGradGradGradGradGradGradGradGrad

 Leave Link  103 at Fri Mar 14 15:41:17 2025, MaxMem=  8589934592 cpu:               0.4 elap:               0.3
 (Enter /home/enzo/gaussian_versions/gdv.j21/gdv/l202.exe)
                          Input orientation:                          
 ---------------------------------------------------------------------
 Center     Atomic      Atomic             Coordinates (Angstroms)
 Number     Number       Type             X           Y           Z
 ---------------------------------------------------------------------
      1          7           0       -1.945091   -0.072565   -0.053720
      2          6           0       -0.749358    0.755703    0.088266
      3          6           0        0.508687   -0.077128    0.022866
      4          8           0        0.533254   -1.297428    0.019672
      5          8           0        1.629411    0.677629   -0.054584
      6          1           0       -2.116842   -0.272582   -1.040574
      7          1           0       -2.750511    0.453448    0.290679
      8          1           0       -0.664324    1.556099   -0.669340
      9          1           0       -0.781827    1.259688    1.064275
     10          1           0        2.409224    0.090161   -0.017275
 ---------------------------------------------------------------------
                    Distance matrix (angstroms):
                    1          2          3          4          5
     1  N    0.000000
     2  C    1.461495   0.000000
     3  C    2.454977   1.510153   0.000000
     4  O    2.765478   2.421806   1.220551   0.000000
     5  O    3.652377   2.384332   1.353395   2.260072   0.000000
     6  H    1.021463   2.049796   2.839456   3.032728   3.988670
     7  H    1.021763   2.033948   3.312945   3.731236   4.399224
     8  H    2.161458   1.105365   2.126625   3.170418   2.531966
     9  H    2.092366   1.098931   2.130033   3.059326   2.721159
    10  H    4.357507   3.229663   1.908308   2.333674   0.977046
                    6          7          8          9         10
     6  H    0.000000
     7  H    1.643438   0.000000
     8  H    2.364677   2.547480   0.000000
     9  H    2.925834   2.263668   1.762693   0.000000
    10  H    4.654460   5.181667   3.467111   3.566560   0.000000
 Stoichiometry    C2H5NO2
 Framework group  C1[X(C2H5NO2)]
 Deg. of freedom    24
 Full point group                 C1      NOp   1
 RotChk:  IX=0 Diff= 2.44D-02
 Largest Abelian subgroup         C1      NOp   1
 Largest concise Abelian subgroup C1      NOp   1
                         Standard orientation:                         
 ---------------------------------------------------------------------
 Center     Atomic      Atomic             Coordinates (Angstroms)
 Number     Number       Type             X           Y           Z
 ---------------------------------------------------------------------
      1          7           0       -1.898592    0.183161    0.020067
      2          6           0       -0.731694   -0.690662   -0.083610
      3          6           0        0.554443    0.098939   -0.029352
      4          8           0        0.622342    1.317145   -0.062645
      5          8           0        1.646793   -0.692118    0.083245
      6          1           0       -2.073021    0.419106    0.998479
      7          1           0       -2.718704   -0.324410   -0.317259
      8          1           0       -0.682777   -1.470081    0.698659
      9          1           0       -0.772260   -1.222722   -1.044296
     10          1           0        2.447333   -0.133898    0.036924
 ---------------------------------------------------------------------
 Rotational constants (GHZ):          10.4118640           3.8328056           2.8963227
 Leave Link  202 at Fri Mar 14 15:41:17 2025, MaxMem=  8589934592 cpu:               0.2 elap:               0.1
 (Enter /home/enzo/gaussian_versions/gdv.j21/gdv/l301.exe)
 Standard basis: 6-31G(d) (6D, 7F)
 Ernie: Thresh=  0.10000D-02 Tol=  0.10000D-05 Strict=F.
 There are    85 symmetry adapted cartesian basis functions of A   symmetry.
 There are    85 symmetry adapted basis functions of A   symmetry.
    85 basis functions,   160 primitive gaussians,    85 cartesian basis functions
    20 alpha electrons       20 beta electrons
       nuclear repulsion energy       178.2075245292 Hartrees.
 IExCor=      4002 DFT=T Ex+Corr=B3LYP ScaHFX=  0.200000
 ScaDFX=  0.800000  0.720000  1.000000  0.810000  1.000000  0.000000
 ScaDFX=  0.000000  0.000000  0.000000  0.000000  0.000000  0.000000
 IRadAn=      5 IRanWt=     -1 IRanGd=            0 ICorTp=0 IEmpDi=  4
 NAtoms=   10 NActive=   10 NUniq=   10 SFac= 1.00D+00 NAtFMM=   60 NAOKFM=F Big=F
 Integral buffers will be    131072 words long.
 Raffenetti 2 integral format.
 Two-electron integral symmetry is turned on.
 Leave Link  301 at Fri Mar 14 15:41:17 2025, MaxMem=  8589934592 cpu:               0.4 elap:               0.1
 (Enter /home/enzo/gaussian_versions/gdv.j21/gdv/l302.exe)
 NPDir=0 NMtPBC=     1 NCelOv=     1 NCel=       1 NClECP=     1 NCelD=      1
         NCelK=      1 NCelE2=     1 NClLst=     1 CellRange=     0.0.
 One-electron integrals computed using PRISM.
 One-electron integral symmetry used in STVInt
 NBasis=    85 RedAO= T EigKep=  4.07D-03  NBF=    85
 NBsUse=    85 1.00D-06 EigRej= -1.00D+00 NBFU=    85
 Precomputing XC quadrature grid using
 IXCGrd= 4 IRadAn=           5 IRanWt=          -1 IRanGd=           0 AccXCQ= 0.00D+00.
 Generated NRdTot=       0 NPtTot=      219750 NUsed=           0 NTot=          64
 NSgBfM=    85    85    85    85    85 MxSgAt=    10 MxSgA2=    10 SizInc=   0.000
 NMBTot=     1967 MaxBatPerAtom=       84 MaxMicBPerAtom=      208 NBfPt=            15861321.
 Leave Link  302 at Fri Mar 14 15:41:17 2025, MaxMem=  8589934592 cpu:               0.8 elap:               0.1
 (Enter /home/enzo/gaussian_versions/gdv.j21/gdv/l303.exe)
 DipDrv:  MaxL=1.
 Leave Link  303 at Fri Mar 14 15:41:18 2025, MaxMem=  8589934592 cpu:               0.6 elap:               0.1
 (Enter /home/enzo/gaussian_versions/gdv.j21/gdv/l401.exe)
 Initial guess from the checkpoint file:  "/local/home/enzo/scratch/Gau-2409726.chk"
 B after Tr=     0.000000   -0.000000   -0.000000
         Rot=    0.999888   -0.001121    0.002333    0.014707 Ang=  -1.71 deg.
 AO Guess basis will be translated and rotated to current coordinates.
 JPrj=2 DoOrth=T DoCkMO=T.
 Generating alternative initial guess.
 ExpMin= 1.61D-01 ExpMax= 5.48D+03 ExpMxC= 8.25D+02 IAcc=3 IRadAn=         5 AccDes= 0.00D+00
 Harris functional with IExCor= 4002 and IRadAn=       5 diagonalized for initial guess.
 HarFok:  IExCor=    4002 AccDes= 0.00D+00 IRadAn=         5 IDoV= 1 UseB2=F ITyADJ=14 ICtDFT=  3500011
 FoFCou: FMM=F IPFlag=           0 FMFlag=      100000 FMFlg1=           0
         NFxFlg=           0 DoJE=T BraDBF=F KetDBF=T FulRan=T
         wScrn=  0.000000 ICntrl=       500 IOpCl=  0 I1Cent=   200000004 NGrid=           0
         NMat0=    1 NMatS0=      1 NMatT0=    0 NMatD0=    1 NMtDS0=    0 NMtDT0=    0
 Petite list used in FoFCou.
 Harris En= -284.441033265851    
 Leave Link  401 at Fri Mar 14 15:41:18 2025, MaxMem=  8589934592 cpu:               1.9 elap:               0.2
 (Enter /home/enzo/gaussian_versions/gdv.j21/gdv/l502.exe)
 Keep R1 ints in memory in canonical form, NReq=17617987.
 FoFCou: FMM=F IPFlag=           0 FMFlag=           0 FMFlg1=           0
         NFxFlg=           0 DoJE=F BraDBF=F KetDBF=F FulRan=T
         wScrn=  0.000000 ICntrl=       600 IOpCl=  0 I1Cent=           0 NGrid=           0
         NMat0=    1 NMatS0=   3655 NMatT0=    0 NMatD0=    1 NMtDS0=    0 NMtDT0=    0
 Symmetry not used in FoFCou.
 Two-electron integral symmetry not used.
 Closed shell SCF:
 Using DIIS extrapolation, IDIIS=  1040.
 NGot=  8589934592 LenX=  8583230350 LenY=  8583222684
 Requested convergence on RMS density matrix=1.00D-08 within 128 cycles.
 Requested convergence on MAX density matrix=1.00D-06.
 Requested convergence on             energy=1.00D-06.
 No special actions if energy rises.
 Integral accuracy reduced to 1.0D-05 until final iterations.

 Cycle   1  Pass 0  IDiag  1:
 E= -284.407491509349    
 DIIS: error= 4.35D-03 at cycle   1 NSaved=   1.
 NSaved= 1 IEnMin= 1 EnMin= -284.407491509349     IErMin= 1 ErrMin= 4.35D-03
 ErrMax= 4.35D-03  0.00D+00 EMaxC= 1.00D-01 BMatC= 5.59D-03 BMatP= 5.59D-03
 IDIUse=3 WtCom= 9.57D-01 WtEn= 4.35D-02
 Coeff-Com:  0.100D+01
 Coeff-En:   0.100D+01
 Coeff:      0.100D+01
 Gap=     1.636 Goal=   None    Shift=    0.000
 GapD=    1.636 DampG=2.000 DampE=1.000 DampFc=2.0000 IDamp=-1.
 RMSDP=1.44D-03 MaxDP=1.49D-02              OVMax= 2.26D-02

 Cycle   2  Pass 0  IDiag  1:
 E= -284.414358704585     Delta-E=       -0.006867195236 Rises=F Damp=F
 DIIS: error= 2.70D-03 at cycle   2 NSaved=   2.
 NSaved= 2 IEnMin= 2 EnMin= -284.414358704585     IErMin= 2 ErrMin= 2.70D-03
 ErrMax= 2.70D-03  0.00D+00 EMaxC= 1.00D-01 BMatC= 1.20D-03 BMatP= 5.59D-03
 IDIUse=3 WtCom= 9.73D-01 WtEn= 2.70D-02
 Coeff-Com:  0.224D+00 0.776D+00
 Coeff-En:   0.000D+00 0.100D+01
 Coeff:      0.218D+00 0.782D+00
 Gap=     0.254 Goal=   None    Shift=    0.000
 RMSDP=7.11D-04 MaxDP=1.59D-02 DE=-6.87D-03 OVMax= 2.10D-02

 Cycle   3  Pass 0  IDiag  1:
 E= -284.414068663532     Delta-E=        0.000290041053 Rises=F Damp=F
 DIIS: error= 3.36D-03 at cycle   3 NSaved=   3.
 NSaved= 3 IEnMin= 2 EnMin= -284.414358704585     IErMin= 2 ErrMin= 2.70D-03
 ErrMax= 3.36D-03  0.00D+00 EMaxC= 1.00D-01 BMatC= 1.61D-03 BMatP= 1.20D-03
 IDIUse=3 WtCom= 1.47D-01 WtEn= 8.53D-01
 Coeff-Com:  0.120D-01 0.536D+00 0.452D+00
 Coeff-En:   0.000D+00 0.557D+00 0.443D+00
 Coeff:      0.176D-02 0.554D+00 0.445D+00
 Gap=     0.254 Goal=   None    Shift=    0.000
 RMSDP=4.15D-04 MaxDP=1.05D-02 DE= 2.90D-04 OVMax= 1.55D-02

 Cycle   4  Pass 0  IDiag  1:
 E= -284.415210595308     Delta-E=       -0.001141931776 Rises=F Damp=F
 DIIS: error= 7.43D-04 at cycle   4 NSaved=   4.
 NSaved= 4 IEnMin= 4 EnMin= -284.415210595308     IErMin= 4 ErrMin= 7.43D-04
 ErrMax= 7.43D-04  0.00D+00 EMaxC= 1.00D-01 BMatC= 1.07D-04 BMatP= 1.20D-03
 IDIUse=3 WtCom= 9.93D-01 WtEn= 7.43D-03
 Coeff-Com: -0.170D-01 0.267D+00 0.272D+00 0.478D+00
 Coeff-En:   0.000D+00 0.000D+00 0.000D+00 0.100D+01
 Coeff:     -0.169D-01 0.265D+00 0.270D+00 0.482D+00
 Gap=     0.254 Goal=   None    Shift=    0.000
 RMSDP=9.97D-05 MaxDP=1.93D-03 DE=-1.14D-03 OVMax= 3.44D-03

 Cycle   5  Pass 0  IDiag  1:
 E= -284.415291239525     Delta-E=       -0.000080644217 Rises=F Damp=F
 DIIS: error= 1.83D-04 at cycle   5 NSaved=   5.
 NSaved= 5 IEnMin= 5 EnMin= -284.415291239525     IErMin= 5 ErrMin= 1.83D-04
 ErrMax= 1.83D-04  0.00D+00 EMaxC= 1.00D-01 BMatC= 4.79D-06 BMatP= 1.07D-04
 IDIUse=3 WtCom= 9.98D-01 WtEn= 1.83D-03
 Coeff-Com: -0.926D-02 0.988D-01 0.107D+00 0.250D+00 0.553D+00
 Coeff-En:   0.000D+00 0.000D+00 0.000D+00 0.000D+00 0.100D+01
 Coeff:     -0.924D-02 0.986D-01 0.107D+00 0.250D+00 0.554D+00
 Gap=     0.254 Goal=   None    Shift=    0.000
 RMSDP=2.23D-05 MaxDP=4.25D-04 DE=-8.06D-05 OVMax= 5.59D-04

 Cycle   6  Pass 0  IDiag  1:
 E= -284.415294683657     Delta-E=       -0.000003444132 Rises=F Damp=F
 DIIS: error= 4.89D-05 at cycle   6 NSaved=   6.
 NSaved= 6 IEnMin= 6 EnMin= -284.415294683657     IErMin= 6 ErrMin= 4.89D-05
 ErrMax= 4.89D-05  0.00D+00 EMaxC= 1.00D-01 BMatC= 2.87D-07 BMatP= 4.79D-06
 IDIUse=1 WtCom= 1.00D+00 WtEn= 0.00D+00
 Coeff-Com: -0.285D-02 0.243D-01 0.277D-01 0.780D-01 0.263D+00 0.610D+00
 Coeff:     -0.285D-02 0.243D-01 0.277D-01 0.780D-01 0.263D+00 0.610D+00
 Gap=     0.254 Goal=   None    Shift=    0.000
 RMSDP=6.52D-06 MaxDP=1.06D-04 DE=-3.44D-06 OVMax= 1.32D-04

 Initial convergence to 1.0D-05 achieved.  Increase integral accuracy.
 Cycle   7  Pass 1  IDiag  1:
 E= -284.415300186345     Delta-E=       -0.000005502688 Rises=F Damp=F
 DIIS: error= 1.00D-05 at cycle   1 NSaved=   1.
 NSaved= 1 IEnMin= 1 EnMin= -284.415300186345     IErMin= 1 ErrMin= 1.00D-05
 ErrMax= 1.00D-05  0.00D+00 EMaxC= 1.00D-01 BMatC= 1.60D-08 BMatP= 1.60D-08
 IDIUse=1 WtCom= 1.00D+00 WtEn= 0.00D+00
 Coeff-Com:  0.100D+01
 Coeff:      0.100D+01
 Gap=     0.254 Goal=   None    Shift=    0.000
 RMSDP=6.52D-06 MaxDP=1.06D-04 DE=-5.50D-06 OVMax= 5.03D-05

 Cycle   8  Pass 1  IDiag  1:
 E= -284.415300175994     Delta-E=        0.000000010350 Rises=F Damp=F
 DIIS: error= 1.49D-05 at cycle   2 NSaved=   2.
 NSaved= 2 IEnMin= 1 EnMin= -284.415300186345     IErMin= 1 ErrMin= 1.00D-05
 ErrMax= 1.49D-05  0.00D+00 EMaxC= 1.00D-01 BMatC= 3.12D-08 BMatP= 1.60D-08
 IDIUse=1 WtCom= 1.00D+00 WtEn= 0.00D+00
 Coeff-Com:  0.586D+00 0.414D+00
 Coeff:      0.586D+00 0.414D+00
 Gap=     0.254 Goal=   None    Shift=    0.000
 RMSDP=1.59D-06 MaxDP=3.51D-05 DE= 1.04D-08 OVMax= 3.18D-05

 Cycle   9  Pass 1  IDiag  1:
 E= -284.415300200003     Delta-E=       -0.000000024009 Rises=F Damp=F
 DIIS: error= 1.78D-06 at cycle   3 NSaved=   3.
 NSaved= 3 IEnMin= 3 EnMin= -284.415300200003     IErMin= 3 ErrMin= 1.78D-06
 ErrMax= 1.78D-06  0.00D+00 EMaxC= 1.00D-01 BMatC= 5.07D-10 BMatP= 1.60D-08
 IDIUse=1 WtCom= 1.00D+00 WtEn= 0.00D+00
 Coeff-Com:  0.214D+00 0.183D+00 0.603D+00
 Coeff:      0.214D+00 0.183D+00 0.603D+00
 Gap=     0.254 Goal=   None    Shift=    0.000
 RMSDP=2.79D-07 MaxDP=5.81D-06 DE=-2.40D-08 OVMax= 8.74D-06

 Cycle  10  Pass 1  IDiag  1:
 E= -284.415300200294     Delta-E=       -0.000000000291 Rises=F Damp=F
 DIIS: error= 9.41D-07 at cycle   4 NSaved=   4.
 NSaved= 4 IEnMin= 4 EnMin= -284.415300200294     IErMin= 4 ErrMin= 9.41D-07
 ErrMax= 9.41D-07  0.00D+00 EMaxC= 1.00D-01 BMatC= 1.28D-10 BMatP= 5.07D-10
 IDIUse=1 WtCom= 1.00D+00 WtEn= 0.00D+00
 Coeff-Com:  0.679D-01 0.684D-01 0.367D+00 0.496D+00
 Coeff:      0.679D-01 0.684D-01 0.367D+00 0.496D+00
 Gap=     0.254 Goal=   None    Shift=    0.000
 RMSDP=1.33D-07 MaxDP=3.24D-06 DE=-2.91D-10 OVMax= 5.27D-06

 Cycle  11  Pass 1  IDiag  1:
 E= -284.415300200378     Delta-E=       -0.000000000084 Rises=F Damp=F
 DIIS: error= 3.75D-07 at cycle   5 NSaved=   5.
 NSaved= 5 IEnMin= 5 EnMin= -284.415300200378     IErMin= 5 ErrMin= 3.75D-07
 ErrMax= 3.75D-07  0.00D+00 EMaxC= 1.00D-01 BMatC= 2.35D-11 BMatP= 1.28D-10
 IDIUse=1 WtCom= 1.00D+00 WtEn= 0.00D+00
 Coeff-Com: -0.387D-02 0.363D-02 0.103D+00 0.327D+00 0.570D+00
 Coeff:     -0.387D-02 0.363D-02 0.103D+00 0.327D+00 0.570D+00
 Gap=     0.254 Goal=   None    Shift=    0.000
 RMSDP=5.94D-08 MaxDP=1.32D-06 DE=-8.39D-11 OVMax= 1.85D-06

 Cycle  12  Pass 1  IDiag  1:
 E= -284.415300200396     Delta-E=       -0.000000000018 Rises=F Damp=F
 DIIS: error= 7.89D-08 at cycle   6 NSaved=   6.
 NSaved= 6 IEnMin= 6 EnMin= -284.415300200396     IErMin= 6 ErrMin= 7.89D-08
 ErrMax= 7.89D-08  0.00D+00 EMaxC= 1.00D-01 BMatC= 1.33D-12 BMatP= 2.35D-11
 IDIUse=1 WtCom= 1.00D+00 WtEn= 0.00D+00
 Coeff-Com: -0.875D-02-0.513D-02 0.136D-01 0.111D+00 0.278D+00 0.611D+00
 Coeff:     -0.875D-02-0.513D-02 0.136D-01 0.111D+00 0.278D+00 0.611D+00
 Gap=     0.254 Goal=   None    Shift=    0.000
 RMSDP=1.38D-08 MaxDP=2.42D-07 DE=-1.76D-11 OVMax= 3.86D-07

 Cycle  13  Pass 1  IDiag  1:
 E= -284.415300200397     Delta-E=       -0.000000000001 Rises=F Damp=F
 DIIS: error= 2.31D-08 at cycle   7 NSaved=   7.
 NSaved= 7 IEnMin= 7 EnMin= -284.415300200397     IErMin= 7 ErrMin= 2.31D-08
 ErrMax= 2.31D-08  0.00D+00 EMaxC= 1.00D-01 BMatC= 7.18D-14 BMatP= 1.33D-12
 IDIUse=1 WtCom= 1.00D+00 WtEn= 0.00D+00
 Coeff-Com: -0.338D-02-0.227D-02 0.286D-03 0.300D-01 0.870D-01 0.260D+00
 Coeff-Com:  0.629D+00
 Coeff:     -0.338D-02-0.227D-02 0.286D-03 0.300D-01 0.870D-01 0.260D+00
 Coeff:      0.629D+00
 Gap=     0.254 Goal=   None    Shift=    0.000
 RMSDP=3.87D-09 MaxDP=6.64D-08 DE=-1.14D-12 OVMax= 1.12D-07

 SCF Done:  E(RB3LYP) =  -284.415300200     A.U. after   13 cycles
            NFock= 13  Conv=0.39D-08     -V/T= 2.0091
 KE= 2.818547695289D+02 PE=-1.022814223997D+03 EE= 2.783366297382D+02
 Leave Link  502 at Fri Mar 14 15:41:20 2025, MaxMem=  8589934592 cpu:              18.3 elap:               2.5
 (Enter /home/enzo/gaussian_versions/gdv.j21/gdv/l701.exe)
 ... and contract with generalized density number  0.
 Compute integral first derivatives.
 Leave Link  701 at Fri Mar 14 15:41:21 2025, MaxMem=  8589934592 cpu:               2.9 elap:               0.6
 (Enter /home/enzo/gaussian_versions/gdv.j21/gdv/l702.exe)
 L702 exits ... SP integral derivatives will be done elsewhere.
 Leave Link  702 at Fri Mar 14 15:41:21 2025, MaxMem=  8589934592 cpu:               0.2 elap:               0.2
 (Enter /home/enzo/gaussian_versions/gdv.j21/gdv/l703.exe)
 Integral derivatives from FoFJK, PRISM(SPDF).
 Compute integral first derivatives, UseDBF=F ICtDFT=           0.
 Calling FoFJK, ICntrl=      2127 FMM=F ISym2X=0 I1Cent= 0 IOpClX= 0 NMat=1 NMatS=1 NMatT=0.
 FoFJK:  IHMeth= 1 ICntrl=    2127 DoSepK=F KAlg= 0 I1Cent=           0 FoldK=F
 IRaf=         0 NMat=       1 IRICut=       1 DoRegI=T DoRafI=F ISym2E= 0 IDoP0=0 IntGTp=1.
 FoFCou: FMM=F IPFlag=           0 FMFlag=      100000 FMFlg1=         800
         NFxFlg=           0 DoJE=F BraDBF=F KetDBF=F FulRan=T
         wScrn=  0.000000 ICntrl=      2127 IOpCl=  0 I1Cent=           0 NGrid=           0
         NMat0=    1 NMatS0=      1 NMatT0=    0 NMatD0=    1 NMtDS0=    0 NMtDT0=    0
 Symmetry not used in FoFCou.
 Leave Link  703 at Fri Mar 14 15:41:22 2025, MaxMem=  8589934592 cpu:               4.0 elap:               0.5
 (Enter /home/enzo/gaussian_versions/gdv.j21/gdv/l716.exe)
 Dipole        =-1.29762602D-01-1.03426709D+00 2.74432081D-01
 ***** Axes restored to original set *****
 -------------------------------------------------------------------
 Center     Atomic                   Forces (Hartrees/Bohr)
 Number     Number              X              Y              Z
 -------------------------------------------------------------------
      1        7          -0.001456986    0.004149171    0.001953066
      2        6          -0.007589263    0.006085974   -0.004664941
      3        6           0.003793847   -0.032614968   -0.001235711
      4        8           0.002781487    0.018950320    0.000231947
      5        8           0.000706097    0.009077497    0.002891893
      6        1           0.000643569   -0.000821959    0.003940758
      7        1           0.002383152   -0.002188703   -0.003139385
      8        1           0.002398530    0.000949100    0.002459877
      9        1           0.001915250   -0.001044665   -0.001058189
     10        1          -0.005575684   -0.002541767   -0.001379314
 -------------------------------------------------------------------
 Cartesian Forces:  Max     0.032614968 RMS     0.007686254
 Leave Link  716 at Fri Mar 14 15:41:22 2025, MaxMem=  8589934592 cpu:               0.1 elap:               0.2
 (Enter /home/enzo/gaussian_versions/gdv.j21/gdv/l103.exe)

 GradGradGradGradGradGradGradGradGradGradGradGradGradGradGradGradGradGrad
 Berny optimization.
 Using GEDIIS/GDIIS optimizer.
 FormGI is forming the generalized inverse of G from B-inverse, IUseBI=4.
 Internal  Forces:  Max     0.018890977 RMS     0.004548399
 Search for a local minimum.
 Step number   2 out of a maximum of   46
 All quantities printed in internal units (Hartrees-Bohrs-Radians)
 RMS Force = .45484D-02 SwitMx=.10000D-02 MixMth= 1
 Mixed Optimization -- RFO/linear search
 Update second derivatives using D2CorX and points    1    2
 DE= -1.92D-02 DEPred=-1.89D-02 R= 1.02D+00
 TightC=F SS=  1.41D+00  RLast= 3.21D-01 DXNew= 5.0454D-01 9.6211D-01
 Trust test= 1.02D+00 RLast= 3.21D-01 DXMaxT set to 5.05D-01
 ITU=  1  0
 Use linear search instead of GDIIS.
     Eigenvalues ---    0.00824   0.00928   0.01072   0.01840   0.04555
     Eigenvalues ---    0.05156   0.06608   0.09890   0.13247   0.15939
     Eigenvalues ---    0.16000   0.16616   0.21916   0.23971   0.25259
     Eigenvalues ---    0.32522   0.32613   0.32714   0.37304   0.40519
     Eigenvalues ---    0.40570   0.46050   0.50115   0.76758
 RFO step:  Lambda=-1.12353266D-03 EMin= 8.24073831D-03
 Quartic linear search produced a step of  0.24636.
 Iteration  1 RMS(Cart)=  0.04133907 RMS(Int)=  0.00187163
 Iteration  2 RMS(Cart)=  0.00154989 RMS(Int)=  0.00017713
 Iteration  3 RMS(Cart)=  0.00000471 RMS(Int)=  0.00017707
 Iteration  4 RMS(Cart)=  0.00000000 RMS(Int)=  0.00017707
 Variable       Old X    -DE/DX   Delta X   Delta X   Delta X     New X
                                 (Linear)    (Quad)   (Total)
    R1        2.76183  -0.00220   0.00177  -0.00953  -0.00776   2.75406
    R2        1.93028  -0.00375  -0.01105   0.00210  -0.00894   1.92134
    R3        1.93085  -0.00406  -0.01092   0.00100  -0.00992   1.92093
    R4        2.85378   0.00533   0.00678   0.01150   0.01828   2.87206
    R5        2.08884  -0.00081  -0.00207  -0.00046  -0.00253   2.08631
    R6        2.07668  -0.00148  -0.00528   0.00112  -0.00416   2.07252
    R7        2.30651  -0.01889  -0.01714  -0.00963  -0.02678   2.27973
    R8        2.55755  -0.00047  -0.01637   0.01847   0.00210   2.55965
    R9        1.84635  -0.00297  -0.01625   0.01158  -0.00467   1.84168
    A1        1.92027   0.00126   0.00425   0.00583   0.01001   1.93028
    A2        1.89697   0.00135  -0.00027   0.01343   0.01309   1.91006
    A3        1.86911  -0.00099  -0.00446   0.00441  -0.00019   1.86892
    A4        1.94424   0.00081   0.00393   0.00009   0.00389   1.94812
    A5        1.98966   0.00321   0.01732   0.01187   0.02919   2.01885
    A6        1.89866  -0.00023  -0.00322   0.00241  -0.00076   1.89789
    A7        1.88133  -0.00212  -0.00766  -0.00455  -0.01272   1.86861
    A8        1.89230  -0.00126  -0.00501  -0.01161  -0.01673   1.87557
    A9        1.85346  -0.00067  -0.00623   0.00062  -0.00599   1.84747
   A10        2.17518   0.00853   0.01839   0.01768   0.03593   2.21111
   A11        1.96575  -0.00983  -0.02921  -0.00924  -0.03859   1.92717
   A12        2.14212   0.00130   0.01087  -0.00802   0.00272   2.14484
   A13        1.90014  -0.00974  -0.05017   0.00069  -0.04948   1.85066
    D1       -1.41624   0.00060   0.00039   0.06639   0.06662  -1.34962
    D2        0.71751   0.00080   0.00543   0.06926   0.07492   0.79243
    D3        2.78204   0.00180   0.00622   0.07914   0.08540   2.86744
    D4        2.82547   0.00030   0.00350   0.04998   0.05324   2.87871
    D5       -1.32397   0.00050   0.00855   0.05285   0.06155  -1.26242
    D6        0.74056   0.00150   0.00933   0.06272   0.07203   0.81259
    D7       -0.14848   0.00158   0.00979   0.03754   0.04714  -0.10134
    D8        2.97586   0.00201   0.01255   0.06421   0.07675   3.05261
    D9       -2.34356  -0.00153  -0.00935   0.02567   0.01651  -2.32705
   D10        0.78079  -0.00110  -0.00660   0.05233   0.04611   0.82690
   D11        1.94019   0.00098   0.00502   0.03314   0.03789   1.97808
   D12       -1.21864   0.00142   0.00778   0.05981   0.06749  -1.15115
   D13        3.05844   0.00120   0.00434   0.05086   0.05547   3.11391
   D14       -0.10002   0.00170   0.00718   0.07724   0.08414  -0.01588
         Item               Value     Threshold  Converged?
 Maximum Force            0.018891     0.000450     NO 
 RMS     Force            0.004548     0.000300     NO 
 Maximum Displacement     0.105385     0.001800     NO 
 RMS     Displacement     0.041418     0.001200     NO 
 Predicted change in Energy=-1.718690D-03
 Lowest energy point so far.  Saving SCF results.
 GradGradGradGradGradGradGradGradGradGradGradGradGradGradGradGradGradGrad

 Leave Link  103 at Fri Mar 14 15:41:22 2025, MaxMem=  8589934592 cpu:               1.0 elap:               0.3
 (Enter /home/enzo/gaussian_versions/gdv.j21/gdv/l202.exe)
                          Input orientation:                          
 ---------------------------------------------------------------------
 Center     Atomic      Atomic             Coordinates (Angstroms)
 Number     Number       Type             X           Y           Z
 ---------------------------------------------------------------------
      1          7           0       -1.954862   -0.057061   -0.033639
      2          6           0       -0.750930    0.756429    0.079327
      3          6           0        0.507481   -0.092668    0.006475
      4          8           0        0.563118   -1.297233   -0.029364
      5          8           0        1.609384    0.695033    0.001183
      6          1           0       -2.116198   -0.324716   -1.001147
      7          1           0       -2.760130    0.487339    0.263805
      8          1           0       -0.643971    1.559178   -0.671027
      9          1           0       -0.754160    1.256988    1.055158
     10          1           0        2.372890    0.089737   -0.020506
 ---------------------------------------------------------------------
                    Distance matrix (angstroms):
                    1          2          3          4          5
     1  N    0.000000
     2  C    1.457388   0.000000
     3  C    2.462927   1.519826   0.000000
     4  O    2.806825   2.440505   1.206382   0.000000
     5  O    3.642898   2.362405   1.354507   2.250496   0.000000
     6  H    1.016730   2.049453   2.820078   3.011459   3.990553
     7  H    1.016514   2.035515   3.328649   3.783467   4.382323
     8  H    2.176449   1.104028   2.124488   3.166684   2.505239
     9  H    2.086597   1.096730   2.124393   3.071718   2.648206
    10  H    4.330261   3.195731   1.874500   2.280141   0.974575
                    6          7          8          9         10
     6  H    0.000000
     7  H    1.635294   0.000000
     8  H    2.413605   2.549682   0.000000
     9  H    2.930072   2.289653   1.755898   0.000000
    10  H    4.613604   5.156240   3.418170   3.506847   0.000000
 Stoichiometry    C2H5NO2
 Framework group  C1[X(C2H5NO2)]
 Deg. of freedom    24
 Full point group                 C1      NOp   1
 RotChk:  IX=0 Diff= 5.05D-02
 Largest Abelian subgroup         C1      NOp   1
 Largest concise Abelian subgroup C1      NOp   1
                         Standard orientation:                         
 ---------------------------------------------------------------------
 Center     Atomic      Atomic             Coordinates (Angstroms)
 Number     Number       Type             X           Y           Z
 ---------------------------------------------------------------------
      1          7           0       -1.907118    0.185429   -0.010868
      2          6           0       -0.738230   -0.684036   -0.052210
      3          6           0        0.554766    0.113860   -0.014847
      4          8           0        0.662095    1.314749   -0.056141
      5          8           0        1.621335   -0.717844    0.058550
      6          1           0       -2.069057    0.522290    0.934669
      7          1           0       -2.731356   -0.342583   -0.284979
      8          1           0       -0.675764   -1.439890    0.750075
      9          1           0       -0.750677   -1.246656   -0.993549
     10          1           0        2.410019   -0.145356    0.052928
 ---------------------------------------------------------------------
 Rotational constants (GHZ):          10.3660608           3.8452096           2.8897919
 Leave Link  202 at Fri Mar 14 15:41:22 2025, MaxMem=  8589934592 cpu:               0.1 elap:               0.1
 (Enter /home/enzo/gaussian_versions/gdv.j21/gdv/l301.exe)
 Standard basis: 6-31G(d) (6D, 7F)
 Ernie: Thresh=  0.10000D-02 Tol=  0.10000D-05 Strict=F.
 There are    85 symmetry adapted cartesian basis functions of A   symmetry.
 There are    85 symmetry adapted basis functions of A   symmetry.
    85 basis functions,   160 primitive gaussians,    85 cartesian basis functions
    20 alpha electrons       20 beta electrons
       nuclear repulsion energy       178.5158977847 Hartrees.
 IExCor=      4002 DFT=T Ex+Corr=B3LYP ScaHFX=  0.200000
 ScaDFX=  0.800000  0.720000  1.000000  0.810000  1.000000  0.000000
 ScaDFX=  0.000000  0.000000  0.000000  0.000000  0.000000  0.000000
 IRadAn=      5 IRanWt=     -1 IRanGd=            0 ICorTp=0 IEmpDi=  4
 NAtoms=   10 NActive=   10 NUniq=   10 SFac= 1.00D+00 NAtFMM=   60 NAOKFM=F Big=F
 Integral buffers will be    131072 words long.
 Raffenetti 2 integral format.
 Two-electron integral symmetry is turned on.
 Leave Link  301 at Fri Mar 14 15:41:22 2025, MaxMem=  8589934592 cpu:               0.7 elap:               0.2
 (Enter /home/enzo/gaussian_versions/gdv.j21/gdv/l302.exe)
 NPDir=0 NMtPBC=     1 NCelOv=     1 NCel=       1 NClECP=     1 NCelD=      1
         NCelK=      1 NCelE2=     1 NClLst=     1 CellRange=     0.0.
 One-electron integrals computed using PRISM.
 One-electron integral symmetry used in STVInt
 NBasis=    85 RedAO= T EigKep=  3.91D-03  NBF=    85
 NBsUse=    85 1.00D-06 EigRej= -1.00D+00 NBFU=    85
 Precomputing XC quadrature grid using
 IXCGrd= 4 IRadAn=           5 IRanWt=          -1 IRanGd=           0 AccXCQ= 0.00D+00.
 Generated NRdTot=       0 NPtTot=      219641 NUsed=           0 NTot=          64
 NSgBfM=    85    85    85    85    85 MxSgAt=    10 MxSgA2=    10 SizInc=   0.000
 NMBTot=     1946 MaxBatPerAtom=       84 MaxMicBPerAtom=      200 NBfPt=            15858867.
 Leave Link  302 at Fri Mar 14 15:41:23 2025, MaxMem=  8589934592 cpu:               0.9 elap:               0.1
 (Enter /home/enzo/gaussian_versions/gdv.j21/gdv/l303.exe)
 DipDrv:  MaxL=1.
 Leave Link  303 at Fri Mar 14 15:41:23 2025, MaxMem=  8589934592 cpu:               0.2 elap:               0.1
 (Enter /home/enzo/gaussian_versions/gdv.j21/gdv/l401.exe)
 Initial guess from the checkpoint file:  "/local/home/enzo/scratch/Gau-2409726.chk"
 B after Tr=    -0.000000   -0.000000    0.000000
         Rot=    0.999973    0.004806    0.000548    0.005599 Ang=   0.85 deg.
 AO Guess basis will be translated and rotated to current coordinates.
 JPrj=2 DoOrth=T DoCkMO=T.
 Generating alternative initial guess.
 ExpMin= 1.61D-01 ExpMax= 5.48D+03 ExpMxC= 8.25D+02 IAcc=3 IRadAn=         5 AccDes= 0.00D+00
 Harris functional with IExCor= 4002 and IRadAn=       5 diagonalized for initial guess.
 HarFok:  IExCor=    4002 AccDes= 0.00D+00 IRadAn=         5 IDoV= 1 UseB2=F ITyADJ=14 ICtDFT=  3500011
 FoFCou: FMM=F IPFlag=           0 FMFlag=      100000 FMFlg1=           0
         NFxFlg=           0 DoJE=T BraDBF=F KetDBF=T FulRan=T
         wScrn=  0.000000 ICntrl=       500 IOpCl=  0 I1Cent=   200000004 NGrid=           0
         NMat0=    1 NMatS0=      1 NMatT0=    0 NMatD0=    1 NMtDS0=    0 NMtDT0=    0
 Petite list used in FoFCou.
 Harris En= -284.441502309471    
 Leave Link  401 at Fri Mar 14 15:41:23 2025, MaxMem=  8589934592 cpu:               1.9 elap:               0.3
 (Enter /home/enzo/gaussian_versions/gdv.j21/gdv/l502.exe)
 Keep R1 ints in memory in canonical form, NReq=17617987.
 FoFCou: FMM=F IPFlag=           0 FMFlag=           0 FMFlg1=           0
         NFxFlg=           0 DoJE=F BraDBF=F KetDBF=F FulRan=T
         wScrn=  0.000000 ICntrl=       600 IOpCl=  0 I1Cent=           0 NGrid=           0
         NMat0=    1 NMatS0=   3655 NMatT0=    0 NMatD0=    1 NMtDS0=    0 NMtDT0=    0
 Symmetry not used in FoFCou.
 Two-electron integral symmetry not used.
 Closed shell SCF:
 Using DIIS extrapolation, IDIIS=  1040.
 NGot=  8589934592 LenX=  8583230350 LenY=  8583222684
 Requested convergence on RMS density matrix=1.00D-08 within 128 cycles.
 Requested convergence on MAX density matrix=1.00D-06.
 Requested convergence on             energy=1.00D-06.
 No special actions if energy rises.
 Integral accuracy reduced to 1.0D-05 until final iterations.

 Cycle   1  Pass 0  IDiag  1:
 E= -284.413490040251    
 DIIS: error= 3.61D-03 at cycle   1 NSaved=   1.
 NSaved= 1 IEnMin= 1 EnMin= -284.413490040251     IErMin= 1 ErrMin= 3.61D-03
 ErrMax= 3.61D-03  0.00D+00 EMaxC= 1.00D-01 BMatC= 2.09D-03 BMatP= 2.09D-03
 IDIUse=3 WtCom= 9.64D-01 WtEn= 3.61D-02
 Coeff-Com:  0.100D+01
 Coeff-En:   0.100D+01
 Coeff:      0.100D+01
 Gap=     1.609 Goal=   None    Shift=    0.000
 GapD=    1.609 DampG=2.000 DampE=1.000 DampFc=2.0000 IDamp=-1.
 RMSDP=9.69D-04 MaxDP=1.41D-02              OVMax= 2.04D-02

 Cycle   2  Pass 0  IDiag  1:
 E= -284.416848989477     Delta-E=       -0.003358949227 Rises=F Damp=F
 DIIS: error= 1.46D-03 at cycle   2 NSaved=   2.
 NSaved= 2 IEnMin= 2 EnMin= -284.416848989477     IErMin= 2 ErrMin= 1.46D-03
 ErrMax= 1.46D-03  0.00D+00 EMaxC= 1.00D-01 BMatC= 2.82D-04 BMatP= 2.09D-03
 IDIUse=3 WtCom= 9.85D-01 WtEn= 1.46D-02
 Coeff-Com:  0.116D+00 0.884D+00
 Coeff-En:   0.000D+00 0.100D+01
 Coeff:      0.114D+00 0.886D+00
 Gap=     0.257 Goal=   None    Shift=    0.000
 RMSDP=4.17D-04 MaxDP=9.98D-03 DE=-3.36D-03 OVMax= 1.58D-02

 Cycle   3  Pass 0  IDiag  1:
 E= -284.416443492028     Delta-E=        0.000405497450 Rises=F Damp=F
 DIIS: error= 2.73D-03 at cycle   3 NSaved=   3.
 NSaved= 3 IEnMin= 2 EnMin= -284.416848989477     IErMin= 2 ErrMin= 1.46D-03
 ErrMax= 2.73D-03  0.00D+00 EMaxC= 1.00D-01 BMatC= 8.44D-04 BMatP= 2.82D-04
 IDIUse=3 WtCom= 1.61D-01 WtEn= 8.39D-01
 Coeff-Com: -0.439D-01 0.660D+00 0.383D+00
 Coeff-En:   0.000D+00 0.695D+00 0.305D+00
 Coeff:     -0.706D-02 0.690D+00 0.317D+00
 Gap=     0.257 Goal=   None    Shift=    0.000
 RMSDP=2.32D-04 MaxDP=5.66D-03 DE= 4.05D-04 OVMax= 9.23D-03

 Cycle   4  Pass 0  IDiag  1:
 E= -284.417069573911     Delta-E=       -0.000626081883 Rises=F Damp=F
 DIIS: error= 3.21D-04 at cycle   4 NSaved=   4.
 NSaved= 4 IEnMin= 4 EnMin= -284.417069573911     IErMin= 4 ErrMin= 3.21D-04
 ErrMax= 3.21D-04  0.00D+00 EMaxC= 1.00D-01 BMatC= 1.48D-05 BMatP= 2.82D-04
 IDIUse=3 WtCom= 9.97D-01 WtEn= 3.21D-03
 Coeff-Com: -0.249D-01 0.269D+00 0.770D-01 0.679D+00
 Coeff-En:   0.000D+00 0.000D+00 0.000D+00 0.100D+01
 Coeff:     -0.248D-01 0.268D+00 0.768D-01 0.680D+00
 Gap=     0.257 Goal=   None    Shift=    0.000
 RMSDP=4.37D-05 MaxDP=7.66D-04 DE=-6.26D-04 OVMax= 1.17D-03

 Cycle   5  Pass 0  IDiag  1:
 E= -284.417081145817     Delta-E=       -0.000011571907 Rises=F Damp=F
 DIIS: error= 4.04D-05 at cycle   5 NSaved=   5.
 NSaved= 5 IEnMin= 5 EnMin= -284.417081145817     IErMin= 5 ErrMin= 4.04D-05
 ErrMax= 4.04D-05  0.00D+00 EMaxC= 1.00D-01 BMatC= 3.42D-07 BMatP= 1.48D-05
 IDIUse=1 WtCom= 1.00D+00 WtEn= 0.00D+00
 Coeff-Com: -0.619D-02 0.552D-01 0.362D-02 0.267D+00 0.680D+00
 Coeff:     -0.619D-02 0.552D-01 0.362D-02 0.267D+00 0.680D+00
 Gap=     0.257 Goal=   None    Shift=    0.000
 RMSDP=7.91D-06 MaxDP=1.68D-04 DE=-1.16D-05 OVMax= 1.73D-04

 Initial convergence to 1.0D-05 achieved.  Increase integral accuracy.
 Cycle   6  Pass 1  IDiag  1:
 E= -284.417085936947     Delta-E=       -0.000004791130 Rises=F Damp=F
 DIIS: error= 1.59D-05 at cycle   1 NSaved=   1.
 NSaved= 1 IEnMin= 1 EnMin= -284.417085936947     IErMin= 1 ErrMin= 1.59D-05
 ErrMax= 1.59D-05  0.00D+00 EMaxC= 1.00D-01 BMatC= 5.27D-08 BMatP= 5.27D-08
 IDIUse=1 WtCom= 1.00D+00 WtEn= 0.00D+00
 Coeff-Com:  0.100D+01
 Coeff:      0.100D+01
 Gap=     0.257 Goal=   None    Shift=    0.000
 RMSDP=7.91D-06 MaxDP=1.68D-04 DE=-4.79D-06 OVMax= 1.06D-04

 Cycle   7  Pass 1  IDiag  1:
 E= -284.417085902897     Delta-E=        0.000000034049 Rises=F Damp=F
 DIIS: error= 2.34D-05 at cycle   2 NSaved=   2.
 NSaved= 2 IEnMin= 1 EnMin= -284.417085936947     IErMin= 1 ErrMin= 1.59D-05
 ErrMax= 2.34D-05  0.00D+00 EMaxC= 1.00D-01 BMatC= 1.02D-07 BMatP= 5.27D-08
 IDIUse=1 WtCom= 1.00D+00 WtEn= 0.00D+00
 Coeff-Com:  0.583D+00 0.417D+00
 Coeff:      0.583D+00 0.417D+00
 Gap=     0.257 Goal=   None    Shift=    0.000
 RMSDP=2.96D-06 MaxDP=5.88D-05 DE= 3.40D-08 OVMax= 6.04D-05

 Cycle   8  Pass 1  IDiag  1:
 E= -284.417085981774     Delta-E=       -0.000000078876 Rises=F Damp=F
 DIIS: error= 1.84D-06 at cycle   3 NSaved=   3.
 NSaved= 3 IEnMin= 3 EnMin= -284.417085981774     IErMin= 3 ErrMin= 1.84D-06
 ErrMax= 1.84D-06  0.00D+00 EMaxC= 1.00D-01 BMatC= 5.01D-10 BMatP= 5.27D-08
 IDIUse=1 WtCom= 1.00D+00 WtEn= 0.00D+00
 Coeff-Com:  0.205D+00 0.160D+00 0.635D+00
 Coeff:      0.205D+00 0.160D+00 0.635D+00
 Gap=     0.257 Goal=   None    Shift=    0.000
 RMSDP=3.21D-07 MaxDP=4.19D-06 DE=-7.89D-08 OVMax= 8.11D-06

 Cycle   9  Pass 1  IDiag  1:
 E= -284.417085982191     Delta-E=       -0.000000000417 Rises=F Damp=F
 DIIS: error= 9.14D-07 at cycle   4 NSaved=   4.
 NSaved= 4 IEnMin= 4 EnMin= -284.417085982191     IErMin= 4 ErrMin= 9.14D-07
 ErrMax= 9.14D-07  0.00D+00 EMaxC= 1.00D-01 BMatC= 9.35D-11 BMatP= 5.01D-10
 IDIUse=1 WtCom= 1.00D+00 WtEn= 0.00D+00
 Coeff-Com:  0.111D-01 0.135D-01 0.295D+00 0.680D+00
 Coeff:      0.111D-01 0.135D-01 0.295D+00 0.680D+00
 Gap=     0.257 Goal=   None    Shift=    0.000
 RMSDP=1.43D-07 MaxDP=2.35D-06 DE=-4.17D-10 OVMax= 4.93D-06

 Cycle  10  Pass 1  IDiag  1:
 E= -284.417085982268     Delta-E=       -0.000000000077 Rises=F Damp=F
 DIIS: error= 4.00D-07 at cycle   5 NSaved=   5.
 NSaved= 5 IEnMin= 5 EnMin= -284.417085982268     IErMin= 5 ErrMin= 4.00D-07
 ErrMax= 4.00D-07  0.00D+00 EMaxC= 1.00D-01 BMatC= 2.47D-11 BMatP= 9.35D-11
 IDIUse=1 WtCom= 1.00D+00 WtEn= 0.00D+00
 Coeff-Com: -0.251D-01-0.166D-01 0.780D-01 0.403D+00 0.560D+00
 Coeff:     -0.251D-01-0.166D-01 0.780D-01 0.403D+00 0.560D+00
 Gap=     0.257 Goal=   None    Shift=    0.000
 RMSDP=6.02D-08 MaxDP=1.04D-06 DE=-7.71D-11 OVMax= 1.99D-06

 Cycle  11  Pass 1  IDiag  1:
 E= -284.417085982287     Delta-E=       -0.000000000019 Rises=F Damp=F
 DIIS: error= 2.02D-07 at cycle   6 NSaved=   6.
 NSaved= 6 IEnMin= 6 EnMin= -284.417085982287     IErMin= 6 ErrMin= 2.02D-07
 ErrMax= 2.02D-07  0.00D+00 EMaxC= 1.00D-01 BMatC= 3.88D-12 BMatP= 2.47D-11
 IDIUse=1 WtCom= 1.00D+00 WtEn= 0.00D+00
 Coeff-Com: -0.178D-01-0.123D-01 0.207D-01 0.191D+00 0.352D+00 0.466D+00
 Coeff:     -0.178D-01-0.123D-01 0.207D-01 0.191D+00 0.352D+00 0.466D+00
 Gap=     0.257 Goal=   None    Shift=    0.000
 RMSDP=2.15D-08 MaxDP=5.18D-07 DE=-1.90D-11 OVMax= 7.25D-07

 Cycle  12  Pass 1  IDiag  1:
 E= -284.417085982289     Delta-E=       -0.000000000002 Rises=F Damp=F
 DIIS: error= 4.82D-08 at cycle   7 NSaved=   7.
 NSaved= 7 IEnMin= 7 EnMin= -284.417085982289     IErMin= 7 ErrMin= 4.82D-08
 ErrMax= 4.82D-08  0.00D+00 EMaxC= 1.00D-01 BMatC= 3.58D-13 BMatP= 3.88D-12
 IDIUse=1 WtCom= 1.00D+00 WtEn= 0.00D+00
 Coeff-Com: -0.651D-02-0.459D-02 0.481D-03 0.512D-01 0.119D+00 0.271D+00
 Coeff-Com:  0.569D+00
 Coeff:     -0.651D-02-0.459D-02 0.481D-03 0.512D-01 0.119D+00 0.271D+00
 Coeff:      0.569D+00
 Gap=     0.257 Goal=   None    Shift=    0.000
 RMSDP=7.50D-09 MaxDP=1.37D-07 DE=-2.05D-12 OVMax= 2.15D-07

 SCF Done:  E(RB3LYP) =  -284.417085982     A.U. after   12 cycles
            NFock= 12  Conv=0.75D-08     -V/T= 2.0088
 KE= 2.819268516120D+02 PE=-1.023432835890D+03 EE= 2.785730005110D+02
 Leave Link  502 at Fri Mar 14 15:41:26 2025, MaxMem=  8589934592 cpu:              18.8 elap:               2.6
 (Enter /home/enzo/gaussian_versions/gdv.j21/gdv/l701.exe)
 ... and contract with generalized density number  0.
 Compute integral first derivatives.
 Leave Link  701 at Fri Mar 14 15:41:26 2025, MaxMem=  8589934592 cpu:               2.3 elap:               0.5
 (Enter /home/enzo/gaussian_versions/gdv.j21/gdv/l702.exe)
 L702 exits ... SP integral derivatives will be done elsewhere.
 Leave Link  702 at Fri Mar 14 15:41:26 2025, MaxMem=  8589934592 cpu:               0.4 elap:               0.2
 (Enter /home/enzo/gaussian_versions/gdv.j21/gdv/l703.exe)
 Integral derivatives from FoFJK, PRISM(SPDF).
 Compute integral first derivatives, UseDBF=F ICtDFT=           0.
 Calling FoFJK, ICntrl=      2127 FMM=F ISym2X=0 I1Cent= 0 IOpClX= 0 NMat=1 NMatS=1 NMatT=0.
 FoFJK:  IHMeth= 1 ICntrl=    2127 DoSepK=F KAlg= 0 I1Cent=           0 FoldK=F
 IRaf=         0 NMat=       1 IRICut=       1 DoRegI=T DoRafI=F ISym2E= 0 IDoP0=0 IntGTp=1.
 FoFCou: FMM=F IPFlag=           0 FMFlag=      100000 FMFlg1=         800
         NFxFlg=           0 DoJE=F BraDBF=F KetDBF=F FulRan=T
         wScrn=  0.000000 ICntrl=      2127 IOpCl=  0 I1Cent=           0 NGrid=           0
         NMat0=    1 NMatS0=      1 NMatT0=    0 NMatD0=    1 NMtDS0=    0 NMtDT0=    0
 Symmetry not used in FoFCou.
 Leave Link  703 at Fri Mar 14 15:41:27 2025, MaxMem=  8589934592 cpu:               4.2 elap:               0.5
 (Enter /home/enzo/gaussian_versions/gdv.j21/gdv/l716.exe)
 Dipole        =-1.65788033D-01-9.53717554D-01 3.51122950D-01
 ***** Axes restored to original set *****
 -------------------------------------------------------------------
 Center     Atomic                   Forces (Hartrees/Bohr)
 Number     Number              X              Y              Z
 -------------------------------------------------------------------
      1        7           0.001446774    0.001899543    0.002157648
      2        6          -0.003764246   -0.000212314   -0.002594614
      3        6          -0.002790685   -0.002343173    0.002992589
      4        8           0.000269096   -0.001706716   -0.002002252
      5        8           0.002542669    0.003586890   -0.000101546
      6        1           0.000594972   -0.001307894    0.000051047
      7        1          -0.000299759    0.000364914   -0.001016201
      8        1           0.000270581    0.000658015    0.000400768
      9        1           0.001199416   -0.000387036    0.000202975
     10        1           0.000531181   -0.000552229   -0.000090414
 -------------------------------------------------------------------
 Cartesian Forces:  Max     0.003764246 RMS     0.001693985
 Leave Link  716 at Fri Mar 14 15:41:27 2025, MaxMem=  8589934592 cpu:               0.3 elap:               0.2
 (Enter /home/enzo/gaussian_versions/gdv.j21/gdv/l103.exe)

 GradGradGradGradGradGradGradGradGradGradGradGradGradGradGradGradGradGrad
 Berny optimization.
 Using GEDIIS/GDIIS optimizer.
 FormGI is forming the generalized inverse of G from B-inverse, IUseBI=4.
 Internal  Forces:  Max     0.004265959 RMS     0.001050897
 Search for a local minimum.
 Step number   3 out of a maximum of   46
 All quantities printed in internal units (Hartrees-Bohrs-Radians)
 RMS Force = .10509D-02 SwitMx=.10000D-02 MixMth= 1
 Mixed Optimization -- RFO/linear search
 Update second derivatives using D2CorX and points    1    2    3
 DE= -1.79D-03 DEPred=-1.72D-03 R= 1.04D+00
 TightC=F SS=  1.41D+00  RLast= 2.53D-01 DXNew= 8.4853D-01 7.5899D-01
 Trust test= 1.04D+00 RLast= 2.53D-01 DXMaxT set to 7.59D-01
 ITU=  1  1  0
 Use linear search instead of GDIIS.
     Eigenvalues ---    0.00699   0.00870   0.01125   0.01898   0.04390
     Eigenvalues ---    0.05080   0.06571   0.09787   0.13269   0.15967
     Eigenvalues ---    0.16008   0.17617   0.21929   0.23742   0.25241
     Eigenvalues ---    0.32405   0.32618   0.32669   0.37178   0.40545
     Eigenvalues ---    0.40751   0.45921   0.53063   0.82368
 RFO step:  Lambda=-8.98836429D-04 EMin= 6.99275579D-03
 Quartic linear search produced a step of  0.23194.
 Iteration  1 RMS(Cart)=  0.05204260 RMS(Int)=  0.00284815
 Iteration  2 RMS(Cart)=  0.00265969 RMS(Int)=  0.00048469
 Iteration  3 RMS(Cart)=  0.00000555 RMS(Int)=  0.00048467
 Iteration  4 RMS(Cart)=  0.00000000 RMS(Int)=  0.00048467
 Variable       Old X    -DE/DX   Delta X   Delta X   Delta X     New X
                                 (Linear)    (Quad)   (Total)
    R1        2.75406  -0.00207  -0.00180  -0.00641  -0.00821   2.74585
    R2        1.92134   0.00020  -0.00207  -0.00029  -0.00236   1.91898
    R3        1.92093   0.00014  -0.00230  -0.00047  -0.00277   1.91816
    R4        2.87206   0.00099   0.00424   0.00408   0.00832   2.88038
    R5        2.08631   0.00023  -0.00059   0.00068   0.00009   2.08640
    R6        2.07252   0.00000  -0.00096  -0.00039  -0.00136   2.07116
    R7        2.27973   0.00178  -0.00621   0.00105  -0.00516   2.27457
    R8        2.55965   0.00427   0.00049   0.00928   0.00976   2.56941
    R9        1.84168   0.00076  -0.00108   0.00068  -0.00040   1.84128
    A1        1.93028   0.00031   0.00232   0.00357   0.00585   1.93613
    A2        1.91006   0.00013   0.00304   0.00206   0.00505   1.91512
    A3        1.86892  -0.00005  -0.00004   0.00159   0.00148   1.87040
    A4        1.94812  -0.00025   0.00090  -0.00121  -0.00034   1.94778
    A5        2.01885   0.00097   0.00677   0.01273   0.01948   2.03833
    A6        1.89789   0.00021  -0.00018   0.00036   0.00013   1.89803
    A7        1.86861  -0.00037  -0.00295  -0.00290  -0.00595   1.86265
    A8        1.87557  -0.00049  -0.00388  -0.00877  -0.01269   1.86287
    A9        1.84747  -0.00018  -0.00139  -0.00177  -0.00331   1.84416
   A10        2.21111   0.00091   0.00833   0.00597   0.01264   2.22375
   A11        1.92717  -0.00121  -0.00895  -0.00736  -0.01796   1.90920
   A12        2.14484   0.00032   0.00063   0.00262   0.00161   2.14645
   A13        1.85066  -0.00019  -0.01148  -0.00411  -0.01559   1.83507
    D1       -1.34962   0.00064   0.01545   0.07879   0.09422  -1.25540
    D2        0.79243   0.00069   0.01738   0.08379   0.10120   0.89364
    D3        2.86744   0.00125   0.01981   0.09008   0.10993   2.97737
    D4        2.87871   0.00043   0.01235   0.07345   0.08574   2.96445
    D5       -1.26242   0.00048   0.01428   0.07845   0.09273  -1.16970
    D6        0.81259   0.00105   0.01671   0.08475   0.10146   0.91404
    D7       -0.10134   0.00137   0.01093   0.12325   0.13420   0.03286
    D8        3.05261   0.00031   0.01780   0.01213   0.02985   3.08246
    D9       -2.32705   0.00057   0.00383   0.10994   0.11389  -2.21316
   D10        0.82690  -0.00049   0.01069  -0.00118   0.00954   0.83643
   D11        1.97808   0.00118   0.00879   0.11747   0.12627   2.10435
   D12       -1.15115   0.00012   0.01565   0.00635   0.02192  -1.12923
   D13        3.11391   0.00057   0.01287   0.05411   0.06668  -3.10259
   D14       -0.01588  -0.00044   0.01952  -0.05204  -0.03222  -0.04810
         Item               Value     Threshold  Converged?
 Maximum Force            0.004266     0.000450     NO 
 RMS     Force            0.001051     0.000300     NO 
 Maximum Displacement     0.160105     0.001800     NO 
 RMS     Displacement     0.052171     0.001200     NO 
 Predicted change in Energy=-5.734657D-04
 Lowest energy point so far.  Saving SCF results.
 GradGradGradGradGradGradGradGradGradGradGradGradGradGradGradGradGradGrad

 Leave Link  103 at Fri Mar 14 15:41:27 2025, MaxMem=  8589934592 cpu:               0.4 elap:               0.2
 (Enter /home/enzo/gaussian_versions/gdv.j21/gdv/l202.exe)
                          Input orientation:                          
 ---------------------------------------------------------------------
 Center     Atomic      Atomic             Coordinates (Angstroms)
 Number     Number       Type             X           Y           Z
 ---------------------------------------------------------------------
      1          7           0       -1.961487   -0.042062   -0.005114
      2          6           0       -0.754751    0.762050    0.087182
      3          6           0        0.500377   -0.100654    0.026583
      4          8           0        0.561036   -1.294516   -0.114088
      5          8           0        1.599394    0.699766    0.040790
      6          1           0       -2.085432   -0.403643   -0.945910
      7          1           0       -2.772278    0.531475    0.204633
      8          1           0       -0.629076    1.559100   -0.666411
      9          1           0       -0.742664    1.268964    1.058847
     10          1           0        2.357505    0.092547   -0.036249
 ---------------------------------------------------------------------
                    Distance matrix (angstroms):
                    1          2          3          4          5
     1  N    0.000000
     2  C    1.453041   0.000000
     3  C    2.462765   1.524230   0.000000
     4  O    2.818446   2.449748   1.203650   0.000000
     5  O    3.637622   2.355426   1.359674   2.253738   0.000000
     6  H    1.015480   2.048617   2.779200   2.913653   3.971024
     7  H    1.015047   2.034054   3.337898   3.814028   4.377978
     8  H    2.185487   1.104077   2.123838   3.140788   2.490918
     9  H    2.082386   1.096011   2.118154   3.105937   2.616422
    10  H    4.321201   3.185845   1.868207   2.270970   0.974362
                    6          7          8          9         10
     6  H    0.000000
     7  H    1.633999   0.000000
     8  H    2.459970   2.531412   0.000000
     9  H    2.935931   2.322263   1.753167   0.000000
    10  H    4.562168   5.154159   3.386377   3.492025   0.000000
 Stoichiometry    C2H5NO2
 Framework group  C1[X(C2H5NO2)]
 Deg. of freedom    24
 Full point group                 C1      NOp   1
 RotChk:  IX=0 Diff= 7.04D-02
 Largest Abelian subgroup         C1      NOp   1
 Largest concise Abelian subgroup C1      NOp   1
                         Standard orientation:                         
 ---------------------------------------------------------------------
 Center     Atomic      Atomic             Coordinates (Angstroms)
 Number     Number       Type             X           Y           Z
 ---------------------------------------------------------------------
      1          7           0       -1.908895    0.177469   -0.039259
      2          6           0       -0.740436   -0.686106   -0.022891
      3          6           0        0.553188    0.119723   -0.044176
      4          8           0        0.668550    1.317825   -0.039843
      5          8           0        1.613583   -0.726326    0.047887
      6          1           0       -2.023478    0.649763    0.852374
      7          1           0       -2.743916   -0.378756   -0.193126
      8          1           0       -0.658422   -1.396432    0.818357
      9          1           0       -0.744140   -1.301061   -0.930115
     10          1           0        2.398649   -0.149483    0.065370
 ---------------------------------------------------------------------
 Rotational constants (GHZ):          10.3023937           3.8626590           2.8868091
 Leave Link  202 at Fri Mar 14 15:41:27 2025, MaxMem=  8589934592 cpu:               0.1 elap:               0.1
 (Enter /home/enzo/gaussian_versions/gdv.j21/gdv/l301.exe)
 Standard basis: 6-31G(d) (6D, 7F)
 Ernie: Thresh=  0.10000D-02 Tol=  0.10000D-05 Strict=F.
 There are    85 symmetry adapted cartesian basis functions of A   symmetry.
 There are    85 symmetry adapted basis functions of A   symmetry.
    85 basis functions,   160 primitive gaussians,    85 cartesian basis functions
    20 alpha electrons       20 beta electrons
       nuclear repulsion energy       178.5565491511 Hartrees.
 IExCor=      4002 DFT=T Ex+Corr=B3LYP ScaHFX=  0.200000
 ScaDFX=  0.800000  0.720000  1.000000  0.810000  1.000000  0.000000
 ScaDFX=  0.000000  0.000000  0.000000  0.000000  0.000000  0.000000
 IRadAn=      5 IRanWt=     -1 IRanGd=            0 ICorTp=0 IEmpDi=  4
 NAtoms=   10 NActive=   10 NUniq=   10 SFac= 1.00D+00 NAtFMM=   60 NAOKFM=F Big=F
 Integral buffers will be    131072 words long.
 Raffenetti 2 integral format.
 Two-electron integral symmetry is turned on.
 Leave Link  301 at Fri Mar 14 15:41:27 2025, MaxMem=  8589934592 cpu:               0.5 elap:               0.1
 (Enter /home/enzo/gaussian_versions/gdv.j21/gdv/l302.exe)
 NPDir=0 NMtPBC=     1 NCelOv=     1 NCel=       1 NClECP=     1 NCelD=      1
         NCelK=      1 NCelE2=     1 NClLst=     1 CellRange=     0.0.
 One-electron integrals computed using PRISM.
 One-electron integral symmetry used in STVInt
 NBasis=    85 RedAO= T EigKep=  3.92D-03  NBF=    85
 NBsUse=    85 1.00D-06 EigRej= -1.00D+00 NBFU=    85
 Precomputing XC quadrature grid using
 IXCGrd= 4 IRadAn=           5 IRanWt=          -1 IRanGd=           0 AccXCQ= 0.00D+00.
 Generated NRdTot=       0 NPtTot=      219604 NUsed=           0 NTot=          64
 NSgBfM=    85    85    85    85    85 MxSgAt=    10 MxSgA2=    10 SizInc=   0.000
 NMBTot=     1953 MaxBatPerAtom=       84 MaxMicBPerAtom=      202 NBfPt=            15860334.
 Leave Link  302 at Fri Mar 14 15:41:28 2025, MaxMem=  8589934592 cpu:               1.1 elap:               0.2
 (Enter /home/enzo/gaussian_versions/gdv.j21/gdv/l303.exe)
 DipDrv:  MaxL=1.
 Leave Link  303 at Fri Mar 14 15:41:28 2025, MaxMem=  8589934592 cpu:               0.2 elap:               0.1
 (Enter /home/enzo/gaussian_versions/gdv.j21/gdv/l401.exe)
 Initial guess from the checkpoint file:  "/local/home/enzo/scratch/Gau-2409726.chk"
 B after Tr=    -0.000000   -0.000000   -0.000000
         Rot=    0.999972    0.007383   -0.000601    0.001199 Ang=   0.86 deg.
 AO Guess basis will be translated and rotated to current coordinates.
 JPrj=2 DoOrth=T DoCkMO=T.
 Generating alternative initial guess.
 ExpMin= 1.61D-01 ExpMax= 5.48D+03 ExpMxC= 8.25D+02 IAcc=3 IRadAn=         5 AccDes= 0.00D+00
 Harris functional with IExCor= 4002 and IRadAn=       5 diagonalized for initial guess.
 HarFok:  IExCor=    4002 AccDes= 0.00D+00 IRadAn=         5 IDoV= 1 UseB2=F ITyADJ=14 ICtDFT=  3500011
 FoFCou: FMM=F IPFlag=           0 FMFlag=      100000 FMFlg1=           0
         NFxFlg=           0 DoJE=T BraDBF=F KetDBF=T FulRan=T
         wScrn=  0.000000 ICntrl=       500 IOpCl=  0 I1Cent=   200000004 NGrid=           0
         NMat0=    1 NMatS0=      1 NMatT0=    0 NMatD0=    1 NMtDS0=    0 NMtDT0=    0
 Petite list used in FoFCou.
 Harris En= -284.440755175595    
 Leave Link  401 at Fri Mar 14 15:41:28 2025, MaxMem=  8589934592 cpu:               2.3 elap:               0.3
 (Enter /home/enzo/gaussian_versions/gdv.j21/gdv/l502.exe)
 Keep R1 ints in memory in canonical form, NReq=17617987.
 FoFCou: FMM=F IPFlag=           0 FMFlag=           0 FMFlg1=           0
         NFxFlg=           0 DoJE=F BraDBF=F KetDBF=F FulRan=T
         wScrn=  0.000000 ICntrl=       600 IOpCl=  0 I1Cent=           0 NGrid=           0
         NMat0=    1 NMatS0=   3655 NMatT0=    0 NMatD0=    1 NMtDS0=    0 NMtDT0=    0
 Symmetry not used in FoFCou.
 Two-electron integral symmetry not used.
 Closed shell SCF:
 Using DIIS extrapolation, IDIIS=  1040.
 NGot=  8589934592 LenX=  8583230350 LenY=  8583222684
 Requested convergence on RMS density matrix=1.00D-08 within 128 cycles.
 Requested convergence on MAX density matrix=1.00D-06.
 Requested convergence on             energy=1.00D-06.
 No special actions if energy rises.
 Integral accuracy reduced to 1.0D-05 until final iterations.

 Cycle   1  Pass 0  IDiag  1:
 E= -284.411255899580    
 DIIS: error= 5.46D-03 at cycle   1 NSaved=   1.
 NSaved= 1 IEnMin= 1 EnMin= -284.411255899580     IErMin= 1 ErrMin= 5.46D-03
 ErrMax= 5.46D-03  0.00D+00 EMaxC= 1.00D-01 BMatC= 3.33D-03 BMatP= 3.33D-03
 IDIUse=3 WtCom= 9.45D-01 WtEn= 5.46D-02
 Coeff-Com:  0.100D+01
 Coeff-En:   0.100D+01
 Coeff:      0.100D+01
 Gap=     1.602 Goal=   None    Shift=    0.000
 GapD=    1.602 DampG=2.000 DampE=1.000 DampFc=2.0000 IDamp=-1.
 RMSDP=1.28D-03 MaxDP=1.86D-02              OVMax= 3.00D-02

 Cycle   2  Pass 0  IDiag  1:
 E= -284.417342761659     Delta-E=       -0.006086862079 Rises=F Damp=F
 DIIS: error= 5.54D-04 at cycle   2 NSaved=   2.
 NSaved= 2 IEnMin= 2 EnMin= -284.417342761659     IErMin= 2 ErrMin= 5.54D-04
 ErrMax= 5.54D-04  0.00D+00 EMaxC= 1.00D-01 BMatC= 7.83D-05 BMatP= 3.33D-03
 IDIUse=3 WtCom= 9.94D-01 WtEn= 5.54D-03
 Coeff-Com: -0.538D-01 0.105D+01
 Coeff-En:   0.000D+00 0.100D+01
 Coeff:     -0.535D-01 0.105D+01
 Gap=     0.257 Goal=   None    Shift=    0.000
 RMSDP=2.48D-04 MaxDP=4.44D-03 DE=-6.09D-03 OVMax= 7.62D-03

 Cycle   3  Pass 0  IDiag  1:
 E= -284.417279407443     Delta-E=        0.000063354216 Rises=F Damp=F
 DIIS: error= 1.40D-03 at cycle   3 NSaved=   3.
 NSaved= 3 IEnMin= 2 EnMin= -284.417342761659     IErMin= 2 ErrMin= 5.54D-04
 ErrMax= 1.40D-03  0.00D+00 EMaxC= 1.00D-01 BMatC= 2.23D-04 BMatP= 7.83D-05
 IDIUse=3 WtCom= 2.11D-01 WtEn= 7.89D-01
 Coeff-Com: -0.542D-01 0.700D+00 0.354D+00
 Coeff-En:   0.000D+00 0.640D+00 0.360D+00
 Coeff:     -0.114D-01 0.653D+00 0.359D+00
 Gap=     0.256 Goal=   None    Shift=    0.000
 RMSDP=1.56D-04 MaxDP=3.81D-03 DE= 6.34D-05 OVMax= 6.31D-03

 Cycle   4  Pass 0  IDiag  1:
 E= -284.417440220393     Delta-E=       -0.000160812949 Rises=F Damp=F
 DIIS: error= 2.47D-04 at cycle   4 NSaved=   4.
 NSaved= 4 IEnMin= 4 EnMin= -284.417440220393     IErMin= 4 ErrMin= 2.47D-04
 ErrMax= 2.47D-04  0.00D+00 EMaxC= 1.00D-01 BMatC= 9.77D-06 BMatP= 7.83D-05
 IDIUse=3 WtCom= 9.98D-01 WtEn= 2.47D-03
 Coeff-Com: -0.174D-01 0.160D+00 0.201D+00 0.657D+00
 Coeff-En:   0.000D+00 0.000D+00 0.137D-01 0.986D+00
 Coeff:     -0.173D-01 0.159D+00 0.200D+00 0.658D+00
 Gap=     0.256 Goal=   None    Shift=    0.000
 RMSDP=3.10D-05 MaxDP=6.90D-04 DE=-1.61D-04 OVMax= 1.09D-03

 Cycle   5  Pass 0  IDiag  1:
 E= -284.417447853721     Delta-E=       -0.000007633329 Rises=F Damp=F
 DIIS: error= 3.72D-05 at cycle   5 NSaved=   5.
 NSaved= 5 IEnMin= 5 EnMin= -284.417447853721     IErMin= 5 ErrMin= 3.72D-05
 ErrMax= 3.72D-05  0.00D+00 EMaxC= 1.00D-01 BMatC= 1.81D-07 BMatP= 9.77D-06
 IDIUse=1 WtCom= 1.00D+00 WtEn= 0.00D+00
 Coeff-Com: -0.242D-02 0.105D-01 0.479D-01 0.231D+00 0.713D+00
 Coeff:     -0.242D-02 0.105D-01 0.479D-01 0.231D+00 0.713D+00
 Gap=     0.256 Goal=   None    Shift=    0.000
 RMSDP=6.05D-06 MaxDP=8.97D-05 DE=-7.63D-06 OVMax= 1.25D-04

 Initial convergence to 1.0D-05 achieved.  Increase integral accuracy.
 Cycle   6  Pass 1  IDiag  1:
 E= -284.417450050470     Delta-E=       -0.000002196748 Rises=F Damp=F
 DIIS: error= 1.67D-05 at cycle   1 NSaved=   1.
 NSaved= 1 IEnMin= 1 EnMin= -284.417450050470     IErMin= 1 ErrMin= 1.67D-05
 ErrMax= 1.67D-05  0.00D+00 EMaxC= 1.00D-01 BMatC= 6.39D-08 BMatP= 6.39D-08
 IDIUse=1 WtCom= 1.00D+00 WtEn= 0.00D+00
 Coeff-Com:  0.100D+01
 Coeff:      0.100D+01
 Gap=     0.256 Goal=   None    Shift=    0.000
 RMSDP=6.05D-06 MaxDP=8.97D-05 DE=-2.20D-06 OVMax= 1.01D-04

 Cycle   7  Pass 1  IDiag  1:
 E= -284.417449988278     Delta-E=        0.000000062192 Rises=F Damp=F
 DIIS: error= 2.74D-05 at cycle   2 NSaved=   2.
 NSaved= 2 IEnMin= 1 EnMin= -284.417450050470     IErMin= 1 ErrMin= 1.67D-05
 ErrMax= 2.74D-05  0.00D+00 EMaxC= 1.00D-01 BMatC= 1.51D-07 BMatP= 6.39D-08
 IDIUse=1 WtCom= 1.00D+00 WtEn= 0.00D+00
 Coeff-Com:  0.607D+00 0.393D+00
 Coeff:      0.607D+00 0.393D+00
 Gap=     0.256 Goal=   None    Shift=    0.000
 RMSDP=2.91D-06 MaxDP=6.96D-05 DE= 6.22D-08 OVMax= 6.26D-05

 Cycle   8  Pass 1  IDiag  1:
 E= -284.417450099187     Delta-E=       -0.000000110909 Rises=F Damp=F
 DIIS: error= 1.21D-06 at cycle   3 NSaved=   3.
 NSaved= 3 IEnMin= 3 EnMin= -284.417450099187     IErMin= 3 ErrMin= 1.21D-06
 ErrMax= 1.21D-06  0.00D+00 EMaxC= 1.00D-01 BMatC= 3.69D-10 BMatP= 6.39D-08
 IDIUse=1 WtCom= 1.00D+00 WtEn= 0.00D+00
 Coeff-Com:  0.210D+00 0.144D+00 0.646D+00
 Coeff:      0.210D+00 0.144D+00 0.646D+00
 Gap=     0.256 Goal=   None    Shift=    0.000
 RMSDP=2.80D-07 MaxDP=4.08D-06 DE=-1.11D-07 OVMax= 5.04D-06

 Cycle   9  Pass 1  IDiag  1:
 E= -284.417450099431     Delta-E=       -0.000000000244 Rises=F Damp=F
 DIIS: error= 7.59D-07 at cycle   4 NSaved=   4.
 NSaved= 4 IEnMin= 4 EnMin= -284.417450099431     IErMin= 4 ErrMin= 7.59D-07
 ErrMax= 7.59D-07  0.00D+00 EMaxC= 1.00D-01 BMatC= 9.11D-11 BMatP= 3.69D-10
 IDIUse=1 WtCom= 1.00D+00 WtEn= 0.00D+00
 Coeff-Com:  0.464D-01 0.345D-01 0.347D+00 0.572D+00
 Coeff:      0.464D-01 0.345D-01 0.347D+00 0.572D+00
 Gap=     0.256 Goal=   None    Shift=    0.000
 RMSDP=1.20D-07 MaxDP=2.34D-06 DE=-2.44D-10 OVMax= 3.16D-06

 Cycle  10  Pass 1  IDiag  1:
 E= -284.417450099499     Delta-E=       -0.000000000067 Rises=F Damp=F
 DIIS: error= 3.12D-07 at cycle   5 NSaved=   5.
 NSaved= 5 IEnMin= 5 EnMin= -284.417450099499     IErMin= 5 ErrMin= 3.12D-07
 ErrMax= 3.12D-07  0.00D+00 EMaxC= 1.00D-01 BMatC= 1.59D-11 BMatP= 9.11D-11
 IDIUse=1 WtCom= 1.00D+00 WtEn= 0.00D+00
 Coeff-Com: -0.499D-02-0.160D-02 0.115D+00 0.340D+00 0.551D+00
 Coeff:     -0.499D-02-0.160D-02 0.115D+00 0.340D+00 0.551D+00
 Gap=     0.256 Goal=   None    Shift=    0.000
 RMSDP=4.92D-08 MaxDP=1.13D-06 DE=-6.71D-11 OVMax= 1.94D-06

 Cycle  11  Pass 1  IDiag  1:
 E= -284.417450099508     Delta-E=       -0.000000000009 Rises=F Damp=F
 DIIS: error= 1.57D-07 at cycle   6 NSaved=   6.
 NSaved= 6 IEnMin= 6 EnMin= -284.417450099508     IErMin= 6 ErrMin= 1.57D-07
 ErrMax= 1.57D-07  0.00D+00 EMaxC= 1.00D-01 BMatC= 3.71D-12 BMatP= 1.59D-11
 IDIUse=1 WtCom= 1.00D+00 WtEn= 0.00D+00
 Coeff-Com: -0.126D-01-0.783D-02 0.148D-01 0.128D+00 0.377D+00 0.501D+00
 Coeff:     -0.126D-01-0.783D-02 0.148D-01 0.128D+00 0.377D+00 0.501D+00
 Gap=     0.256 Goal=   None    Shift=    0.000
 RMSDP=1.90D-08 MaxDP=3.26D-07 DE=-9.15D-12 OVMax= 6.05D-07

 Cycle  12  Pass 1  IDiag  1:
 E= -284.417450099511     Delta-E=       -0.000000000003 Rises=F Damp=F
 DIIS: error= 2.09D-08 at cycle   7 NSaved=   7.
 NSaved= 7 IEnMin= 7 EnMin= -284.417450099511     IErMin= 7 ErrMin= 2.09D-08
 ErrMax= 2.09D-08  0.00D+00 EMaxC= 1.00D-01 BMatC= 6.46D-14 BMatP= 3.71D-12
 IDIUse=1 WtCom= 1.00D+00 WtEn= 0.00D+00
 Coeff-Com: -0.577D-02-0.365D-02 0.169D-02 0.440D-01 0.152D+00 0.226D+00
 Coeff-Com:  0.586D+00
 Coeff:     -0.577D-02-0.365D-02 0.169D-02 0.440D-01 0.152D+00 0.226D+00
 Coeff:      0.586D+00
 Gap=     0.256 Goal=   None    Shift=    0.000
 RMSDP=3.13D-09 MaxDP=5.37D-08 DE=-3.07D-12 OVMax= 5.44D-08

 SCF Done:  E(RB3LYP) =  -284.417450100     A.U. after   12 cycles
            NFock= 12  Conv=0.31D-08     -V/T= 2.0088
 KE= 2.819333716562D+02 PE=-1.023486547924D+03 EE= 2.785791770170D+02
 Leave Link  502 at Fri Mar 14 15:41:30 2025, MaxMem=  8589934592 cpu:              17.1 elap:               2.2
 (Enter /home/enzo/gaussian_versions/gdv.j21/gdv/l701.exe)
 ... and contract with generalized density number  0.
 Compute integral first derivatives.
 Leave Link  701 at Fri Mar 14 15:41:31 2025, MaxMem=  8589934592 cpu:               3.6 elap:               0.6
 (Enter /home/enzo/gaussian_versions/gdv.j21/gdv/l702.exe)
 L702 exits ... SP integral derivatives will be done elsewhere.
 Leave Link  702 at Fri Mar 14 15:41:31 2025, MaxMem=  8589934592 cpu:               0.2 elap:               0.2
 (Enter /home/enzo/gaussian_versions/gdv.j21/gdv/l703.exe)
 Integral derivatives from FoFJK, PRISM(SPDF).
 Compute integral first derivatives, UseDBF=F ICtDFT=           0.
 Calling FoFJK, ICntrl=      2127 FMM=F ISym2X=0 I1Cent= 0 IOpClX= 0 NMat=1 NMatS=1 NMatT=0.
 FoFJK:  IHMeth= 1 ICntrl=    2127 DoSepK=F KAlg= 0 I1Cent=           0 FoldK=F
 IRaf=         0 NMat=       1 IRICut=       1 DoRegI=T DoRafI=F ISym2E= 0 IDoP0=0 IntGTp=1.
 FoFCou: FMM=F IPFlag=           0 FMFlag=      100000 FMFlg1=         800
         NFxFlg=           0 DoJE=F BraDBF=F KetDBF=F FulRan=T
         wScrn=  0.000000 ICntrl=      2127 IOpCl=  0 I1Cent=           0 NGrid=           0
         NMat0=    1 NMatS0=      1 NMatT0=    0 NMatD0=    1 NMtDS0=    0 NMtDT0=    0
 Symmetry not used in FoFCou.
 Leave Link  703 at Fri Mar 14 15:41:32 2025, MaxMem=  8589934592 cpu:               3.8 elap:               0.5
 (Enter /home/enzo/gaussian_versions/gdv.j21/gdv/l716.exe)
 Dipole        =-1.54041507D-01-8.81401097D-01 4.09333953D-01
 ***** Axes restored to original set *****
 -------------------------------------------------------------------
 Center     Atomic                   Forces (Hartrees/Bohr)
 Number     Number              X              Y              Z
 -------------------------------------------------------------------
      1        7           0.001103373    0.000707909    0.001739747
      2        6          -0.000112591   -0.003217006    0.004100664
      3        6          -0.003541750    0.009330054   -0.009903240
      4        8          -0.000377660   -0.005783592    0.002169197
      5        8           0.001411674   -0.001553861    0.003323711
      6        1           0.000955108   -0.001421814   -0.000995121
      7        1          -0.001108290    0.001096723   -0.000389732
      8        1          -0.000208381   -0.000367219   -0.000814767
      9        1          -0.000240977    0.000867311    0.000608182
     10        1           0.002119495    0.000341493    0.000161357
 -------------------------------------------------------------------
 Cartesian Forces:  Max     0.009903240 RMS     0.003143815
 Leave Link  716 at Fri Mar 14 15:41:32 2025, MaxMem=  8589934592 cpu:               0.1 elap:               0.2
 (Enter /home/enzo/gaussian_versions/gdv.j21/gdv/l103.exe)

 GradGradGradGradGradGradGradGradGradGradGradGradGradGradGradGradGradGrad
 Berny optimization.
 Using GEDIIS/GDIIS optimizer.
 FormGI is forming the generalized inverse of G from B-inverse, IUseBI=4.
 Internal  Forces:  Max     0.005464115 RMS     0.001754853
 Search for a local minimum.
 Step number   4 out of a maximum of   46
 All quantities printed in internal units (Hartrees-Bohrs-Radians)
 RMS Force = .17549D-02 SwitMx=.10000D-02 MixMth= 1
 Mixed Optimization -- RFO/linear search
 Update second derivatives using D2CorX and points    2    3    4
 DE= -3.64D-04 DEPred=-5.73D-04 R= 6.35D-01
 TightC=F SS=  1.41D+00  RLast= 3.36D-01 DXNew= 1.2765D+00 1.0083D+00
 Trust test= 6.35D-01 RLast= 3.36D-01 DXMaxT set to 1.01D+00
 ITU=  1  1  1  0
 Use linear search instead of GDIIS.
     Eigenvalues ---    0.00228   0.00863   0.01889   0.03098   0.04322
     Eigenvalues ---    0.05523   0.06575   0.09977   0.13179   0.16002
     Eigenvalues ---    0.16034   0.18116   0.21901   0.25008   0.27755
     Eigenvalues ---    0.32614   0.32649   0.33000   0.37045   0.40550
     Eigenvalues ---    0.41235   0.45942   0.53145   0.88682
 RFO step:  Lambda=-1.41486682D-03 EMin= 2.28132139D-03
 Quartic linear search produced a step of -0.23287.
 Iteration  1 RMS(Cart)=  0.08285360 RMS(Int)=  0.00508275
 Iteration  2 RMS(Cart)=  0.00617020 RMS(Int)=  0.00036135
 Iteration  3 RMS(Cart)=  0.00003037 RMS(Int)=  0.00036075
 Iteration  4 RMS(Cart)=  0.00000001 RMS(Int)=  0.00036075
 Variable       Old X    -DE/DX   Delta X   Delta X   Delta X     New X
                                 (Linear)    (Quad)   (Total)
    R1        2.74585  -0.00102   0.00191  -0.01402  -0.01211   2.73374
    R2        1.91898   0.00131   0.00055  -0.00304  -0.00249   1.91649
    R3        1.91816   0.00142   0.00065  -0.00361  -0.00296   1.91520
    R4        2.88038  -0.00147  -0.00194   0.01201   0.01007   2.89045
    R5        2.08640   0.00027  -0.00002   0.00006   0.00004   2.08644
    R6        2.07116   0.00094   0.00032  -0.00091  -0.00060   2.07056
    R7        2.27457   0.00546   0.00120  -0.00822  -0.00701   2.26756
    R8        2.56941   0.00218  -0.00227   0.01592   0.01364   2.58305
    R9        1.84128   0.00142   0.00009   0.00037   0.00046   1.84174
    A1        1.93613  -0.00062  -0.00136   0.00771   0.00631   1.94244
    A2        1.91512  -0.00006  -0.00118   0.00939   0.00817   1.92329
    A3        1.87040   0.00046  -0.00034   0.00401   0.00360   1.87399
    A4        1.94778  -0.00114   0.00008  -0.00343  -0.00332   1.94447
    A5        2.03833   0.00027  -0.00454   0.02954   0.02498   2.06331
    A6        1.89803  -0.00007  -0.00003   0.00163   0.00155   1.89957
    A7        1.86265  -0.00040   0.00139  -0.01631  -0.01492   1.84774
    A8        1.86287   0.00152   0.00296  -0.01064  -0.00770   1.85517
    A9        1.84416   0.00004   0.00077  -0.00413  -0.00352   1.84064
   A10        2.22375  -0.00234  -0.00294   0.02189   0.01780   2.24155
   A11        1.90920   0.00354   0.00418  -0.01981  -0.01678   1.89242
   A12        2.14645  -0.00089  -0.00038   0.00424   0.00272   2.14917
   A13        1.83507   0.00294   0.00363  -0.02109  -0.01746   1.81761
    D1       -1.25540   0.00155  -0.02194   0.17188   0.14996  -1.10544
    D2        0.89364   0.00022  -0.02357   0.17015   0.14656   1.04020
    D3        2.97737   0.00040  -0.02560   0.18592   0.16038   3.13775
    D4        2.96445   0.00139  -0.01997   0.15632   0.13634   3.10079
    D5       -1.16970   0.00006  -0.02159   0.15459   0.13294  -1.03676
    D6        0.91404   0.00024  -0.02363   0.17037   0.14676   1.06080
    D7        0.03286  -0.00159  -0.03125   0.10620   0.07479   0.10765
    D8        3.08246   0.00216  -0.00695   0.18276   0.17596  -3.02476
    D9       -2.21316  -0.00083  -0.02652   0.08287   0.05622  -2.15694
   D10        0.83643   0.00291  -0.00222   0.15943   0.15740   0.99383
   D11        2.10435  -0.00137  -0.02940   0.09971   0.07013   2.17448
   D12       -1.12923   0.00237  -0.00510   0.17627   0.17130  -0.95794
   D13       -3.10259  -0.00192  -0.01553  -0.00543  -0.02044  -3.12303
   D14       -0.04810   0.00152   0.00750   0.06826   0.07524   0.02715
         Item               Value     Threshold  Converged?
 Maximum Force            0.005464     0.000450     NO 
 RMS     Force            0.001755     0.000300     NO 
 Maximum Displacement     0.255492     0.001800     NO 
 RMS     Displacement     0.083597     0.001200     NO 
 Predicted change in Energy=-9.473757D-04
 Lowest energy point so far.  Saving SCF results.
 GradGradGradGradGradGradGradGradGradGradGradGradGradGradGradGradGradGrad

 Leave Link  103 at Fri Mar 14 15:41:32 2025, MaxMem=  8589934592 cpu:               0.5 elap:               0.2
 (Enter /home/enzo/gaussian_versions/gdv.j21/gdv/l202.exe)
                          Input orientation:                          
 ---------------------------------------------------------------------
 Center     Atomic      Atomic             Coordinates (Angstroms)
 Number     Number       Type             X           Y           Z
 ---------------------------------------------------------------------
      1          7           0       -1.965955   -0.022223    0.043753
      2          6           0       -0.759658    0.775869    0.069196
      3          6           0        0.490428   -0.097853   -0.046741
      4          8           0        0.558994   -1.278584   -0.249288
      5          8           0        1.589591    0.694417    0.133664
      6          1           0       -2.068276   -0.506934   -0.841184
      7          1           0       -2.779968    0.570205    0.160166
      8          1           0       -0.643595    1.570887   -0.688106
      9          1           0       -0.691412    1.283108    1.038009
     10          1           0        2.342473    0.084136    0.030795
 ---------------------------------------------------------------------
                    Distance matrix (angstroms):
                    1          2          3          4          5
     1  N    0.000000
     2  C    1.446634   0.000000
     3  C    2.459212   1.529558   0.000000
     4  O    2.835433   2.461921   1.199939   0.000000
     5  O    3.628162   2.351545   1.366893   2.258654   0.000000
     6  H    1.014163   2.046180   2.710249   2.801487   3.971594
     7  H    1.013479   2.032787   3.344339   3.838533   4.371404
     8  H    2.195964   1.104098   2.117086   3.123823   2.535868
     9  H    2.077713   1.095695   2.116715   3.127765   2.523365
    10  H    4.309760   3.178552   1.862580   2.261914   0.974606
                    6          7          8          9         10
     6  H    0.000000
     7  H    1.633841   0.000000
     8  H    2.523983   2.506995   0.000000
     9  H    2.937919   2.375059   1.750593   0.000000
    10  H    4.534801   5.147077   3.412309   3.414158   0.000000
 Stoichiometry    C2H5NO2
 Framework group  C1[X(C2H5NO2)]
 Deg. of freedom    24
 Full point group                 C1      NOp   1
 RotChk:  IX=0 Diff= 1.10D-01
 Largest Abelian subgroup         C1      NOp   1
 Largest concise Abelian subgroup C1      NOp   1
                         Standard orientation:                         
 ---------------------------------------------------------------------
 Center     Atomic      Atomic             Coordinates (Angstroms)
 Number     Number       Type             X           Y           Z
 ---------------------------------------------------------------------
      1          7           0       -1.908179    0.161015   -0.105596
      2          6           0       -0.745136   -0.686920    0.039620
      3          6           0        0.548318    0.128768    0.005326
      4          8           0        0.677499    1.321462   -0.020095
      5          8           0        1.605450   -0.737706   -0.004262
      6          1           0       -1.989422    0.810573    0.669002
      7          1           0       -2.751457   -0.400986   -0.118946
      8          1           0       -0.674552   -1.327217    0.936319
      9          1           0       -0.698682   -1.372889   -0.813512
     10          1           0        2.388682   -0.157717   -0.008519
 ---------------------------------------------------------------------
 Rotational constants (GHZ):          10.2150983           3.8825193           2.8831844
 Leave Link  202 at Fri Mar 14 15:41:32 2025, MaxMem=  8589934592 cpu:               0.2 elap:               0.1
 (Enter /home/enzo/gaussian_versions/gdv.j21/gdv/l301.exe)
 Standard basis: 6-31G(d) (6D, 7F)
 Ernie: Thresh=  0.10000D-02 Tol=  0.10000D-05 Strict=F.
 There are    85 symmetry adapted cartesian basis functions of A   symmetry.
 There are    85 symmetry adapted basis functions of A   symmetry.
    85 basis functions,   160 primitive gaussians,    85 cartesian basis functions
    20 alpha electrons       20 beta electrons
       nuclear repulsion energy       178.5861922298 Hartrees.
 IExCor=      4002 DFT=T Ex+Corr=B3LYP ScaHFX=  0.200000
 ScaDFX=  0.800000  0.720000  1.000000  0.810000  1.000000  0.000000
 ScaDFX=  0.000000  0.000000  0.000000  0.000000  0.000000  0.000000
 IRadAn=      5 IRanWt=     -1 IRanGd=            0 ICorTp=0 IEmpDi=  4
 NAtoms=   10 NActive=   10 NUniq=   10 SFac= 1.00D+00 NAtFMM=   60 NAOKFM=F Big=F
 Integral buffers will be    131072 words long.
 Raffenetti 2 integral format.
 Two-electron integral symmetry is turned on.
 Leave Link  301 at Fri Mar 14 15:41:32 2025, MaxMem=  8589934592 cpu:               0.3 elap:               0.1
 (Enter /home/enzo/gaussian_versions/gdv.j21/gdv/l302.exe)
 NPDir=0 NMtPBC=     1 NCelOv=     1 NCel=       1 NClECP=     1 NCelD=      1
         NCelK=      1 NCelE2=     1 NClLst=     1 CellRange=     0.0.
 One-electron integrals computed using PRISM.
 One-electron integral symmetry used in STVInt
 NBasis=    85 RedAO= T EigKep=  3.83D-03  NBF=    85
 NBsUse=    85 1.00D-06 EigRej= -1.00D+00 NBFU=    85
 Precomputing XC quadrature grid using
 IXCGrd= 4 IRadAn=           5 IRanWt=          -1 IRanGd=           0 AccXCQ= 0.00D+00.
 Generated NRdTot=       0 NPtTot=      219609 NUsed=           0 NTot=          64
 NSgBfM=    85    85    85    85    85 MxSgAt=    10 MxSgA2=    10 SizInc=   0.000
 NMBTot=     1959 MaxBatPerAtom=       84 MaxMicBPerAtom=      203 NBfPt=            15862944.
 Leave Link  302 at Fri Mar 14 15:41:33 2025, MaxMem=  8589934592 cpu:               1.0 elap:               0.2
 (Enter /home/enzo/gaussian_versions/gdv.j21/gdv/l303.exe)
 DipDrv:  MaxL=1.
 Leave Link  303 at Fri Mar 14 15:41:33 2025, MaxMem=  8589934592 cpu:               0.3 elap:               0.2
 (Enter /home/enzo/gaussian_versions/gdv.j21/gdv/l401.exe)
 Initial guess from the checkpoint file:  "/local/home/enzo/scratch/Gau-2409726.chk"
 B after Tr=     0.000000    0.000000   -0.000000
         Rot=    0.999957    0.009103    0.000406    0.001508 Ang=   1.06 deg.
 AO Guess basis will be translated and rotated to current coordinates.
 JPrj=2 DoOrth=T DoCkMO=T.
 Generating alternative initial guess.
 ExpMin= 1.61D-01 ExpMax= 5.48D+03 ExpMxC= 8.25D+02 IAcc=3 IRadAn=         5 AccDes= 0.00D+00
 Harris functional with IExCor= 4002 and IRadAn=       5 diagonalized for initial guess.
 HarFok:  IExCor=    4002 AccDes= 0.00D+00 IRadAn=         5 IDoV= 1 UseB2=F ITyADJ=14 ICtDFT=  3500011
 FoFCou: FMM=F IPFlag=           0 FMFlag=      100000 FMFlg1=           0
         NFxFlg=           0 DoJE=T BraDBF=F KetDBF=T FulRan=T
         wScrn=  0.000000 ICntrl=       500 IOpCl=  0 I1Cent=   200000004 NGrid=           0
         NMat0=    1 NMatS0=      1 NMatT0=    0 NMatD0=    1 NMtDS0=    0 NMtDT0=    0
 Petite list used in FoFCou.
 Harris En= -284.439990714222    
 Leave Link  401 at Fri Mar 14 15:41:33 2025, MaxMem=  8589934592 cpu:               3.0 elap:               0.4
 (Enter /home/enzo/gaussian_versions/gdv.j21/gdv/l502.exe)
 Keep R1 ints in memory in canonical form, NReq=17617987.
 FoFCou: FMM=F IPFlag=           0 FMFlag=           0 FMFlg1=           0
         NFxFlg=           0 DoJE=F BraDBF=F KetDBF=F FulRan=T
         wScrn=  0.000000 ICntrl=       600 IOpCl=  0 I1Cent=           0 NGrid=           0
         NMat0=    1 NMatS0=   3655 NMatT0=    0 NMatD0=    1 NMtDS0=    0 NMtDT0=    0
 Symmetry not used in FoFCou.
 Two-electron integral symmetry not used.
 Closed shell SCF:
 Using DIIS extrapolation, IDIIS=  1040.
 NGot=  8589934592 LenX=  8583230350 LenY=  8583222684
 Requested convergence on RMS density matrix=1.00D-08 within 128 cycles.
 Requested convergence on MAX density matrix=1.00D-06.
 Requested convergence on             energy=1.00D-06.
 No special actions if energy rises.
 Integral accuracy reduced to 1.0D-05 until final iterations.

 Cycle   1  Pass 0  IDiag  1:
 E= -284.405550951070    
 DIIS: error= 8.12D-03 at cycle   1 NSaved=   1.
 NSaved= 1 IEnMin= 1 EnMin= -284.405550951070     IErMin= 1 ErrMin= 8.12D-03
 ErrMax= 8.12D-03  0.00D+00 EMaxC= 1.00D-01 BMatC= 6.38D-03 BMatP= 6.38D-03
 IDIUse=3 WtCom= 9.19D-01 WtEn= 8.12D-02
 Coeff-Com:  0.100D+01
 Coeff-En:   0.100D+01
 Coeff:      0.100D+01
 Gap=     1.599 Goal=   None    Shift=    0.000
 GapD=    1.599 DampG=2.000 DampE=1.000 DampFc=2.0000 IDamp=-1.
 RMSDP=1.72D-03 MaxDP=2.37D-02              OVMax= 4.24D-02

 Cycle   2  Pass 0  IDiag  1:
 E= -284.417671483105     Delta-E=       -0.012120532034 Rises=F Damp=F
 DIIS: error= 1.20D-03 at cycle   2 NSaved=   2.
 NSaved= 2 IEnMin= 2 EnMin= -284.417671483105     IErMin= 2 ErrMin= 1.20D-03
 ErrMax= 1.20D-03  0.00D+00 EMaxC= 1.00D-01 BMatC= 2.31D-04 BMatP= 6.38D-03
 IDIUse=3 WtCom= 9.88D-01 WtEn= 1.20D-02
 Coeff-Com: -0.317D-01 0.103D+01
 Coeff-En:   0.000D+00 0.100D+01
 Coeff:     -0.313D-01 0.103D+01
 Gap=     0.258 Goal=   None    Shift=    0.000
 RMSDP=4.31D-04 MaxDP=8.05D-03 DE=-1.21D-02 OVMax= 1.44D-02

 Cycle   3  Pass 0  IDiag  1:
 E= -284.417321305174     Delta-E=        0.000350177931 Rises=F Damp=F
 DIIS: error= 2.59D-03 at cycle   3 NSaved=   3.
 NSaved= 3 IEnMin= 2 EnMin= -284.417671483105     IErMin= 2 ErrMin= 1.20D-03
 ErrMax= 2.59D-03  0.00D+00 EMaxC= 1.00D-01 BMatC= 8.26D-04 BMatP= 2.31D-04
 IDIUse=3 WtCom= 1.64D-01 WtEn= 8.36D-01
 Coeff-Com: -0.564D-01 0.710D+00 0.347D+00
 Coeff-En:   0.000D+00 0.701D+00 0.299D+00
 Coeff:     -0.925D-02 0.703D+00 0.307D+00
 Gap=     0.256 Goal=   None    Shift=    0.000
 RMSDP=2.49D-04 MaxDP=5.86D-03 DE= 3.50D-04 OVMax= 1.01D-02

 Cycle   4  Pass 0  IDiag  1:
 E= -284.417939520614     Delta-E=       -0.000618215440 Rises=F Damp=F
 DIIS: error= 1.39D-04 at cycle   4 NSaved=   4.
 NSaved= 4 IEnMin= 4 EnMin= -284.417939520614     IErMin= 4 ErrMin= 1.39D-04
 ErrMax= 1.39D-04  0.00D+00 EMaxC= 1.00D-01 BMatC= 4.69D-06 BMatP= 2.31D-04
 IDIUse=3 WtCom= 9.99D-01 WtEn= 1.39D-03
 Coeff-Com: -0.231D-01 0.226D+00 0.107D+00 0.690D+00
 Coeff-En:   0.000D+00 0.000D+00 0.000D+00 0.100D+01
 Coeff:     -0.231D-01 0.226D+00 0.106D+00 0.691D+00
 Gap=     0.255 Goal=   None    Shift=    0.000
 RMSDP=3.39D-05 MaxDP=5.85D-04 DE=-6.18D-04 OVMax= 7.34D-04

 Cycle   5  Pass 0  IDiag  1:
 E= -284.417942941143     Delta-E=       -0.000003420529 Rises=F Damp=F
 DIIS: error= 8.20D-05 at cycle   5 NSaved=   5.
 NSaved= 5 IEnMin= 5 EnMin= -284.417942941143     IErMin= 5 ErrMin= 8.20D-05
 ErrMax= 8.20D-05  0.00D+00 EMaxC= 1.00D-01 BMatC= 1.74D-06 BMatP= 4.69D-06
 IDIUse=1 WtCom= 1.00D+00 WtEn= 0.00D+00
 Coeff-Com: -0.471D-02 0.262D-01 0.117D-01 0.383D+00 0.584D+00
 Coeff:     -0.471D-02 0.262D-01 0.117D-01 0.383D+00 0.584D+00
 Gap=     0.255 Goal=   None    Shift=    0.000
 RMSDP=1.33D-05 MaxDP=2.47D-04 DE=-3.42D-06 OVMax= 2.76D-04

 Cycle   6  Pass 0  IDiag  1:
 E= -284.417944316408     Delta-E=       -0.000001375265 Rises=F Damp=F
 DIIS: error= 2.09D-05 at cycle   6 NSaved=   6.
 NSaved= 6 IEnMin= 6 EnMin= -284.417944316408     IErMin= 6 ErrMin= 2.09D-05
 ErrMax= 2.09D-05  0.00D+00 EMaxC= 1.00D-01 BMatC= 7.41D-08 BMatP= 1.74D-06
 IDIUse=1 WtCom= 1.00D+00 WtEn= 0.00D+00
 Coeff-Com:  0.362D-03-0.108D-01-0.548D-02 0.781D-01 0.222D+00 0.715D+00
 Coeff:      0.362D-03-0.108D-01-0.548D-02 0.781D-01 0.222D+00 0.715D+00
 Gap=     0.255 Goal=   None    Shift=    0.000
 RMSDP=4.15D-06 MaxDP=5.97D-05 DE=-1.38D-06 OVMax= 1.03D-04

 Initial convergence to 1.0D-05 achieved.  Increase integral accuracy.
 Cycle   7  Pass 1  IDiag  1:
 E= -284.417945365434     Delta-E=       -0.000001049026 Rises=F Damp=F
 DIIS: error= 8.68D-06 at cycle   1 NSaved=   1.
 NSaved= 1 IEnMin= 1 EnMin= -284.417945365434     IErMin= 1 ErrMin= 8.68D-06
 ErrMax= 8.68D-06  0.00D+00 EMaxC= 1.00D-01 BMatC= 1.33D-08 BMatP= 1.33D-08
 IDIUse=1 WtCom= 1.00D+00 WtEn= 0.00D+00
 Coeff-Com:  0.100D+01
 Coeff:      0.100D+01
 Gap=     0.255 Goal=   None    Shift=    0.000
 RMSDP=4.15D-06 MaxDP=5.97D-05 DE=-1.05D-06 OVMax= 5.62D-05

 Cycle   8  Pass 1  IDiag  1:
 E= -284.417945356284     Delta-E=        0.000000009150 Rises=F Damp=F
 DIIS: error= 1.32D-05 at cycle   2 NSaved=   2.
 NSaved= 2 IEnMin= 1 EnMin= -284.417945365434     IErMin= 1 ErrMin= 8.68D-06
 ErrMax= 1.32D-05  0.00D+00 EMaxC= 1.00D-01 BMatC= 2.72D-08 BMatP= 1.33D-08
 IDIUse=1 WtCom= 1.00D+00 WtEn= 0.00D+00
 Coeff-Com:  0.590D+00 0.410D+00
 Coeff:      0.590D+00 0.410D+00
 Gap=     0.255 Goal=   None    Shift=    0.000
 RMSDP=1.53D-06 MaxDP=2.30D-05 DE= 9.15D-09 OVMax= 2.72D-05

 Cycle   9  Pass 1  IDiag  1:
 E= -284.417945376743     Delta-E=       -0.000000020459 Rises=F Damp=F
 DIIS: error= 1.48D-06 at cycle   3 NSaved=   3.
 NSaved= 3 IEnMin= 3 EnMin= -284.417945376743     IErMin= 3 ErrMin= 1.48D-06
 ErrMax= 1.48D-06  0.00D+00 EMaxC= 1.00D-01 BMatC= 2.92D-10 BMatP= 1.33D-08
 IDIUse=1 WtCom= 1.00D+00 WtEn= 0.00D+00
 Coeff-Com:  0.254D+00 0.194D+00 0.552D+00
 Coeff:      0.254D+00 0.194D+00 0.552D+00
 Gap=     0.255 Goal=   None    Shift=    0.000
 RMSDP=2.04D-07 MaxDP=4.55D-06 DE=-2.05D-08 OVMax= 4.90D-06

 Cycle  10  Pass 1  IDiag  1:
 E= -284.417945376949     Delta-E=       -0.000000000205 Rises=F Damp=F
 DIIS: error= 6.67D-07 at cycle   4 NSaved=   4.
 NSaved= 4 IEnMin= 4 EnMin= -284.417945376949     IErMin= 4 ErrMin= 6.67D-07
 ErrMax= 6.67D-07  0.00D+00 EMaxC= 1.00D-01 BMatC= 6.56D-11 BMatP= 2.92D-10
 IDIUse=1 WtCom= 1.00D+00 WtEn= 0.00D+00
 Coeff-Com:  0.377D-01 0.358D-01 0.323D+00 0.603D+00
 Coeff:      0.377D-01 0.358D-01 0.323D+00 0.603D+00
 Gap=     0.255 Goal=   None    Shift=    0.000
 RMSDP=1.10D-07 MaxDP=2.35D-06 DE=-2.05D-10 OVMax= 3.78D-06

 Cycle  11  Pass 1  IDiag  1:
 E= -284.417945376994     Delta-E=       -0.000000000045 Rises=F Damp=F
 DIIS: error= 3.83D-07 at cycle   5 NSaved=   5.
 NSaved= 5 IEnMin= 5 EnMin= -284.417945376994     IErMin= 5 ErrMin= 3.83D-07
 ErrMax= 3.83D-07  0.00D+00 EMaxC= 1.00D-01 BMatC= 1.82D-11 BMatP= 6.56D-11
 IDIUse=1 WtCom= 1.00D+00 WtEn= 0.00D+00
 Coeff-Com: -0.247D-01-0.145D-01 0.104D+00 0.406D+00 0.529D+00
 Coeff:     -0.247D-01-0.145D-01 0.104D+00 0.406D+00 0.529D+00
 Gap=     0.255 Goal=   None    Shift=    0.000
 RMSDP=5.11D-08 MaxDP=8.61D-07 DE=-4.54D-11 OVMax= 1.65D-06

 Cycle  12  Pass 1  IDiag  1:
 E= -284.417945377008     Delta-E=       -0.000000000015 Rises=F Damp=F
 DIIS: error= 7.10D-08 at cycle   6 NSaved=   6.
 NSaved= 6 IEnMin= 6 EnMin= -284.417945377008     IErMin= 6 ErrMin= 7.10D-08
 ErrMax= 7.10D-08  0.00D+00 EMaxC= 1.00D-01 BMatC= 8.94D-13 BMatP= 1.82D-11
 IDIUse=1 WtCom= 1.00D+00 WtEn= 0.00D+00
 Coeff-Com: -0.165D-01-0.112D-01 0.137D-01 0.133D+00 0.249D+00 0.631D+00
 Coeff:     -0.165D-01-0.112D-01 0.137D-01 0.133D+00 0.249D+00 0.631D+00
 Gap=     0.255 Goal=   None    Shift=    0.000
 RMSDP=1.22D-08 MaxDP=1.95D-07 DE=-1.46D-11 OVMax= 4.36D-07

 Cycle  13  Pass 1  IDiag  1:
 E= -284.417945377010     Delta-E=       -0.000000000002 Rises=F Damp=F
 DIIS: error= 2.37D-08 at cycle   7 NSaved=   7.
 NSaved= 7 IEnMin= 7 EnMin= -284.417945377010     IErMin= 7 ErrMin= 2.37D-08
 ErrMax= 2.37D-08  0.00D+00 EMaxC= 1.00D-01 BMatC= 1.07D-13 BMatP= 8.94D-13
 IDIUse=1 WtCom= 1.00D+00 WtEn= 0.00D+00
 Coeff-Com: -0.591D-02-0.422D-02-0.408D-02 0.277D-01 0.718D-01 0.316D+00
 Coeff-Com:  0.599D+00
 Coeff:     -0.591D-02-0.422D-02-0.408D-02 0.277D-01 0.718D-01 0.316D+00
 Coeff:      0.599D+00
 Gap=     0.255 Goal=   None    Shift=    0.000
 RMSDP=3.66D-09 MaxDP=6.79D-08 DE=-1.65D-12 OVMax= 1.05D-07

 SCF Done:  E(RB3LYP) =  -284.417945377     A.U. after   13 cycles
            NFock= 13  Conv=0.37D-08     -V/T= 2.0088
 KE= 2.819410688050D+02 PE=-1.023507072186D+03 EE= 2.785618657744D+02
 Leave Link  502 at Fri Mar 14 15:41:35 2025, MaxMem=  8589934592 cpu:              15.8 elap:               1.7
 (Enter /home/enzo/gaussian_versions/gdv.j21/gdv/l701.exe)
 ... and contract with generalized density number  0.
 Compute integral first derivatives.
 Leave Link  701 at Fri Mar 14 15:41:35 2025, MaxMem=  8589934592 cpu:               1.8 elap:               0.5
 (Enter /home/enzo/gaussian_versions/gdv.j21/gdv/l702.exe)
 L702 exits ... SP integral derivatives will be done elsewhere.
 Leave Link  702 at Fri Mar 14 15:41:36 2025, MaxMem=  8589934592 cpu:               0.4 elap:               0.2
 (Enter /home/enzo/gaussian_versions/gdv.j21/gdv/l703.exe)
 Integral derivatives from FoFJK, PRISM(SPDF).
 Compute integral first derivatives, UseDBF=F ICtDFT=           0.
 Calling FoFJK, ICntrl=      2127 FMM=F ISym2X=0 I1Cent= 0 IOpClX= 0 NMat=1 NMatS=1 NMatT=0.
 FoFJK:  IHMeth= 1 ICntrl=    2127 DoSepK=F KAlg= 0 I1Cent=           0 FoldK=F
 IRaf=         0 NMat=       1 IRICut=       1 DoRegI=T DoRafI=F ISym2E= 0 IDoP0=0 IntGTp=1.
 FoFCou: FMM=F IPFlag=           0 FMFlag=      100000 FMFlg1=         800
         NFxFlg=           0 DoJE=F BraDBF=F KetDBF=F FulRan=T
         wScrn=  0.000000 ICntrl=      2127 IOpCl=  0 I1Cent=           0 NGrid=           0
         NMat0=    1 NMatS0=      1 NMatT0=    0 NMatD0=    1 NMtDS0=    0 NMtDT0=    0
 Symmetry not used in FoFCou.
 Leave Link  703 at Fri Mar 14 15:41:36 2025, MaxMem=  8589934592 cpu:               3.7 elap:               0.5
 (Enter /home/enzo/gaussian_versions/gdv.j21/gdv/l716.exe)
 Dipole        =-1.48662136D-01-7.62839615D-01 4.85372665D-01
 ***** Axes restored to original set *****
 -------------------------------------------------------------------
 Center     Atomic                   Forces (Hartrees/Bohr)
 Number     Number              X              Y              Z
 -------------------------------------------------------------------
      1        7          -0.000786139   -0.001209417    0.000681029
      2        6           0.006073434   -0.005529117    0.001912913
      3        6          -0.002646499    0.020752791    0.008172019
      4        8          -0.001602428   -0.009743208   -0.004450852
      5        8          -0.001075708   -0.006998645   -0.003008613
      6        1           0.001075555   -0.001530429   -0.002207233
      7        1          -0.002063759    0.001880616   -0.000036281
      8        1          -0.002656587    0.000178069   -0.002371324
      9        1           0.000196400    0.000732252    0.000505603
     10        1           0.003485732    0.001467089    0.000802738
 -------------------------------------------------------------------
 Cartesian Forces:  Max     0.020752791 RMS     0.005161658
 Leave Link  716 at Fri Mar 14 15:41:36 2025, MaxMem=  8589934592 cpu:               0.1 elap:               0.1
 (Enter /home/enzo/gaussian_versions/gdv.j21/gdv/l103.exe)

 GradGradGradGradGradGradGradGradGradGradGradGradGradGradGradGradGradGrad
 Berny optimization.
 Using GEDIIS/GDIIS optimizer.
 FormGI is forming the generalized inverse of G from B-inverse, IUseBI=4.
 Internal  Forces:  Max     0.010246882 RMS     0.003061973
 Search for a local minimum.
 Step number   5 out of a maximum of   46
 All quantities printed in internal units (Hartrees-Bohrs-Radians)
 RMS Force = .30620D-02 SwitMx=.10000D-02 MixMth= 1
 Mixed Optimization -- RFO/linear search
 Update second derivatives using D2CorX and points    4    5
 DE= -4.95D-04 DEPred=-9.47D-04 R= 5.23D-01
 TightC=F SS=  1.41D+00  RLast= 4.85D-01 DXNew= 1.6958D+00 1.4536D+00
 Trust test= 5.23D-01 RLast= 4.85D-01 DXMaxT set to 1.45D+00
 ITU=  1  1  1  1  0
 Use linear search instead of GDIIS.
     Eigenvalues ---    0.00290   0.00864   0.01894   0.04186   0.04371
     Eigenvalues ---    0.05179   0.06522   0.10027   0.13798   0.16004
     Eigenvalues ---    0.16023   0.18191   0.21857   0.25158   0.28135
     Eigenvalues ---    0.32615   0.32662   0.33581   0.37255   0.40549
     Eigenvalues ---    0.41299   0.46127   0.52631   0.85995
 RFO step:  Lambda=-8.01175993D-04 EMin= 2.89838925D-03
 Quartic linear search produced a step of -0.26076.
 Iteration  1 RMS(Cart)=  0.02352272 RMS(Int)=  0.00039388
 Iteration  2 RMS(Cart)=  0.00039212 RMS(Int)=  0.00010060
 Iteration  3 RMS(Cart)=  0.00000006 RMS(Int)=  0.00010060
 Variable       Old X    -DE/DX   Delta X   Delta X   Delta X     New X
                                 (Linear)    (Quad)   (Total)
    R1        2.73374   0.00198   0.00316   0.00177   0.00493   2.73867
    R2        1.91649   0.00255   0.00065   0.00274   0.00339   1.91988
    R3        1.91520   0.00275   0.00077   0.00306   0.00384   1.91904
    R4        2.89045  -0.00475  -0.00263  -0.00794  -0.01057   2.87988
    R5        2.08644   0.00148  -0.00001   0.00279   0.00278   2.08922
    R6        2.07056   0.00080   0.00016   0.00130   0.00145   2.07202
    R7        2.26756   0.01025   0.00183   0.00579   0.00762   2.27517
    R8        2.58305  -0.00156  -0.00356  -0.00224  -0.00580   2.57726
    R9        1.84174   0.00169  -0.00012   0.00094   0.00082   1.84255
    A1        1.94244  -0.00153  -0.00165  -0.00590  -0.00755   1.93490
    A2        1.92329  -0.00014  -0.00213   0.00065  -0.00148   1.92181
    A3        1.87399   0.00078  -0.00094   0.00237   0.00143   1.87543
    A4        1.94447  -0.00156   0.00087  -0.00663  -0.00586   1.93861
    A5        2.06331  -0.00245  -0.00651  -0.01123  -0.01778   2.04553
    A6        1.89957   0.00119  -0.00040   0.00864   0.00828   1.90785
    A7        1.84774   0.00194   0.00389  -0.00156   0.00217   1.84991
    A8        1.85517   0.00090   0.00201   0.01035   0.01235   1.86752
    A9        1.84064   0.00039   0.00092   0.00302   0.00399   1.84463
   A10        2.24155  -0.00657  -0.00464  -0.01333  -0.01765   2.22390
   A11        1.89242   0.00799   0.00437   0.01614   0.02083   1.91326
   A12        2.14917  -0.00141  -0.00071  -0.00284  -0.00323   2.14594
   A13        1.81761   0.00636   0.00455   0.01462   0.01917   1.83678
    D1       -1.10544   0.00088  -0.03910   0.07851   0.03935  -1.06609
    D2        1.04020   0.00020  -0.03822   0.06125   0.02312   1.06331
    D3        3.13775  -0.00004  -0.04182   0.06443   0.02258  -3.12285
    D4        3.10079   0.00097  -0.03555   0.07889   0.04328  -3.13911
    D5       -1.03676   0.00028  -0.03466   0.06163   0.02705  -1.00971
    D6        1.06080   0.00005  -0.03827   0.06481   0.02651   1.08731
    D7        0.10765  -0.00009  -0.01950   0.04337   0.02387   0.13152
    D8       -3.02476  -0.00194  -0.04588   0.04661   0.00071  -3.02405
    D9       -2.15694   0.00268  -0.01466   0.06352   0.04889  -2.10805
   D10        0.99383   0.00084  -0.04104   0.06677   0.02573   1.01957
   D11        2.17448   0.00103  -0.01829   0.05642   0.03813   2.21260
   D12       -0.95794  -0.00081  -0.04467   0.05966   0.01497  -0.94296
   D13       -3.12303   0.00046   0.00533  -0.00030   0.00502  -3.11802
   D14        0.02715  -0.00123  -0.01962   0.00281  -0.01680   0.01035
         Item               Value     Threshold  Converged?
 Maximum Force            0.010247     0.000450     NO 
 RMS     Force            0.003062     0.000300     NO 
 Maximum Displacement     0.056578     0.001800     NO 
 RMS     Displacement     0.023612     0.001200     NO 
 Predicted change in Energy=-4.894940D-04
 Lowest energy point so far.  Saving SCF results.
 GradGradGradGradGradGradGradGradGradGradGradGradGradGradGradGradGradGrad

 Leave Link  103 at Fri Mar 14 15:41:36 2025, MaxMem=  8589934592 cpu:               0.8 elap:               0.2
 (Enter /home/enzo/gaussian_versions/gdv.j21/gdv/l202.exe)
                          Input orientation:                          
 ---------------------------------------------------------------------
 Center     Atomic      Atomic             Coordinates (Angstroms)
 Number     Number       Type             X           Y           Z
 ---------------------------------------------------------------------
      1          7           0       -1.963172   -0.023499    0.052990
      2          6           0       -0.759679    0.783373    0.082301
      3          6           0        0.485972   -0.085851   -0.041298
      4          8           0        0.534397   -1.265806   -0.275612
      5          8           0        1.599280    0.680992    0.139028
      6          1           0       -2.038336   -0.529321   -0.824885
      7          1           0       -2.783382    0.569773    0.133884
      8          1           0       -0.659795    1.570061   -0.688040
      9          1           0       -0.694286    1.302119    1.046075
     10          1           0        2.351622    0.071184    0.025823
 ---------------------------------------------------------------------
                    Distance matrix (angstroms):
                    1          2          3          4          5
     1  N    0.000000
     2  C    1.449241   0.000000
     3  C    2.451752   1.523966   0.000000
     4  O    2.808765   2.449871   1.203969   0.000000
     5  O    3.632462   2.361861   1.363826   2.257416   0.000000
     6  H    1.015957   2.044778   2.680076   2.731861   3.953004
     7  H    1.015510   2.035598   3.339043   3.813751   4.384076
     8  H    2.188002   1.105567   2.114971   3.104566   2.564742
     9  H    2.086517   1.096464   2.121756   3.138591   2.543418
    10  H    4.315918   3.192271   1.873449   2.276117   0.975038
                    6          7          8          9         10
     6  H    0.000000
     7  H    1.637785   0.000000
     8  H    2.515255   2.487118   0.000000
     9  H    2.942980   2.394315   1.755032   0.000000
    10  H    4.511767   5.160284   3.438730   3.440010   0.000000
 Stoichiometry    C2H5NO2
 Framework group  C1[X(C2H5NO2)]
 Deg. of freedom    24
 Full point group                 C1      NOp   1
 RotChk:  IX=0 Diff= 2.35D-02
 Largest Abelian subgroup         C1      NOp   1
 Largest concise Abelian subgroup C1      NOp   1
                         Standard orientation:                         
 ---------------------------------------------------------------------
 Center     Atomic      Atomic             Coordinates (Angstroms)
 Number     Number       Type             X           Y           Z
 ---------------------------------------------------------------------
      1          7           0       -1.903254    0.154437   -0.112377
      2          6           0       -0.740314   -0.696628    0.041111
      3          6           0        0.545749    0.119886   -0.001571
      4          8           0        0.650790    1.319183   -0.015510
      5          8           0        1.620985   -0.719086   -0.005256
      6          1           0       -1.956245    0.833978    0.641005
      7          1           0       -2.751091   -0.403550   -0.079469
      8          1           0       -0.680969   -1.310624    0.958589
      9          1           0       -0.697466   -1.406121   -0.793765
     10          1           0        2.401746   -0.135066   -0.010840
 ---------------------------------------------------------------------
 Rotational constants (GHZ):          10.2896301           3.8891456           2.8922120
 Leave Link  202 at Fri Mar 14 15:41:37 2025, MaxMem=  8589934592 cpu:               0.2 elap:               0.2
 (Enter /home/enzo/gaussian_versions/gdv.j21/gdv/l301.exe)
 Standard basis: 6-31G(d) (6D, 7F)
 Ernie: Thresh=  0.10000D-02 Tol=  0.10000D-05 Strict=F.
 There are    85 symmetry adapted cartesian basis functions of A   symmetry.
 There are    85 symmetry adapted basis functions of A   symmetry.
    85 basis functions,   160 primitive gaussians,    85 cartesian basis functions
    20 alpha electrons       20 beta electrons
       nuclear repulsion energy       178.6819250901 Hartrees.
 IExCor=      4002 DFT=T Ex+Corr=B3LYP ScaHFX=  0.200000
 ScaDFX=  0.800000  0.720000  1.000000  0.810000  1.000000  0.000000
 ScaDFX=  0.000000  0.000000  0.000000  0.000000  0.000000  0.000000
 IRadAn=      5 IRanWt=     -1 IRanGd=            0 ICorTp=0 IEmpDi=  4
 NAtoms=   10 NActive=   10 NUniq=   10 SFac= 1.00D+00 NAtFMM=   60 NAOKFM=F Big=F
 Integral buffers will be    131072 words long.
 Raffenetti 2 integral format.
 Two-electron integral symmetry is turned on.
 Leave Link  301 at Fri Mar 14 15:41:37 2025, MaxMem=  8589934592 cpu:               0.3 elap:               0.1
 (Enter /home/enzo/gaussian_versions/gdv.j21/gdv/l302.exe)
 NPDir=0 NMtPBC=     1 NCelOv=     1 NCel=       1 NClECP=     1 NCelD=      1
         NCelK=      1 NCelE2=     1 NClLst=     1 CellRange=     0.0.
 One-electron integrals computed using PRISM.
 One-electron integral symmetry used in STVInt
 NBasis=    85 RedAO= T EigKep=  3.89D-03  NBF=    85
 NBsUse=    85 1.00D-06 EigRej= -1.00D+00 NBFU=    85
 Precomputing XC quadrature grid using
 IXCGrd= 4 IRadAn=           5 IRanWt=          -1 IRanGd=           0 AccXCQ= 0.00D+00.
 Generated NRdTot=       0 NPtTot=      219556 NUsed=           0 NTot=          64
 NSgBfM=    85    85    85    85    85 MxSgAt=    10 MxSgA2=    10 SizInc=   0.000
 NMBTot=     1970 MaxBatPerAtom=       84 MaxMicBPerAtom=      204 NBfPt=            15864422.
 Leave Link  302 at Fri Mar 14 15:41:37 2025, MaxMem=  8589934592 cpu:               0.9 elap:               0.3
 (Enter /home/enzo/gaussian_versions/gdv.j21/gdv/l303.exe)
 DipDrv:  MaxL=1.
 Leave Link  303 at Fri Mar 14 15:41:37 2025, MaxMem=  8589934592 cpu:               1.0 elap:               0.2
 (Enter /home/enzo/gaussian_versions/gdv.j21/gdv/l401.exe)
 Initial guess from the checkpoint file:  "/local/home/enzo/scratch/Gau-2409726.chk"
 B after Tr=     0.000000    0.000000    0.000000
         Rot=    0.999991    0.002147   -0.000201   -0.003612 Ang=   0.48 deg.
 AO Guess basis will be translated and rotated to current coordinates.
 JPrj=2 DoOrth=T DoCkMO=T.
 Generating alternative initial guess.
 ExpMin= 1.61D-01 ExpMax= 5.48D+03 ExpMxC= 8.25D+02 IAcc=3 IRadAn=         5 AccDes= 0.00D+00
 Harris functional with IExCor= 4002 and IRadAn=       5 diagonalized for initial guess.
 HarFok:  IExCor=    4002 AccDes= 0.00D+00 IRadAn=         5 IDoV= 1 UseB2=F ITyADJ=14 ICtDFT=  3500011
 FoFCou: FMM=F IPFlag=           0 FMFlag=      100000 FMFlg1=           0
         NFxFlg=           0 DoJE=T BraDBF=F KetDBF=T FulRan=T
         wScrn=  0.000000 ICntrl=       500 IOpCl=  0 I1Cent=   200000004 NGrid=           0
         NMat0=    1 NMatS0=      1 NMatT0=    0 NMatD0=    1 NMtDS0=    0 NMtDT0=    0
 Petite list used in FoFCou.
 Harris En= -284.440688438543    
 Leave Link  401 at Fri Mar 14 15:41:38 2025, MaxMem=  8589934592 cpu:               2.2 elap:               0.4
 (Enter /home/enzo/gaussian_versions/gdv.j21/gdv/l502.exe)
 Keep R1 ints in memory in canonical form, NReq=17617987.
 FoFCou: FMM=F IPFlag=           0 FMFlag=           0 FMFlg1=           0
         NFxFlg=           0 DoJE=F BraDBF=F KetDBF=F FulRan=T
         wScrn=  0.000000 ICntrl=       600 IOpCl=  0 I1Cent=           0 NGrid=           0
         NMat0=    1 NMatS0=   3655 NMatT0=    0 NMatD0=    1 NMtDS0=    0 NMtDT0=    0
 Symmetry not used in FoFCou.
 Two-electron integral symmetry not used.
 Closed shell SCF:
 Using DIIS extrapolation, IDIIS=  1040.
 NGot=  8589934592 LenX=  8583230350 LenY=  8583222684
 Requested convergence on RMS density matrix=1.00D-08 within 128 cycles.
 Requested convergence on MAX density matrix=1.00D-06.
 Requested convergence on             energy=1.00D-06.
 No special actions if energy rises.
 Integral accuracy reduced to 1.0D-05 until final iterations.

 Cycle   1  Pass 0  IDiag  1:
 E= -284.417794493342    
 DIIS: error= 1.82D-03 at cycle   1 NSaved=   1.
 NSaved= 1 IEnMin= 1 EnMin= -284.417794493342     IErMin= 1 ErrMin= 1.82D-03
 ErrMax= 1.82D-03  0.00D+00 EMaxC= 1.00D-01 BMatC= 5.09D-04 BMatP= 5.09D-04
 IDIUse=3 WtCom= 9.82D-01 WtEn= 1.82D-02
 Coeff-Com:  0.100D+01
 Coeff-En:   0.100D+01
 Coeff:      0.100D+01
 Gap=     1.592 Goal=   None    Shift=    0.000
 GapD=    1.592 DampG=2.000 DampE=1.000 DampFc=2.0000 IDamp=-1.
 RMSDP=4.75D-04 MaxDP=6.71D-03              OVMax= 9.13D-03

 Cycle   2  Pass 0  IDiag  1:
 E= -284.418673198341     Delta-E=       -0.000878704999 Rises=F Damp=F
 DIIS: error= 4.27D-04 at cycle   2 NSaved=   2.
 NSaved= 2 IEnMin= 2 EnMin= -284.418673198341     IErMin= 2 ErrMin= 4.27D-04
 ErrMax= 4.27D-04  0.00D+00 EMaxC= 1.00D-01 BMatC= 3.66D-05 BMatP= 5.09D-04
 IDIUse=3 WtCom= 9.96D-01 WtEn= 4.27D-03
 Coeff-Com:  0.379D-01 0.962D+00
 Coeff-En:   0.000D+00 0.100D+01
 Coeff:      0.377D-01 0.962D+00
 Gap=     0.254 Goal=   None    Shift=    0.000
 RMSDP=1.50D-04 MaxDP=3.41D-03 DE=-8.79D-04 OVMax= 5.22D-03

 Cycle   3  Pass 0  IDiag  1:
 E= -284.418616570373     Delta-E=        0.000056627968 Rises=F Damp=F
 DIIS: error= 8.87D-04 at cycle   3 NSaved=   3.
 NSaved= 3 IEnMin= 2 EnMin= -284.418673198341     IErMin= 2 ErrMin= 4.27D-04
 ErrMax= 8.87D-04  0.00D+00 EMaxC= 1.00D-01 BMatC= 1.19D-04 BMatP= 3.66D-05
 IDIUse=3 WtCom= 2.51D-01 WtEn= 7.49D-01
 Coeff-Com: -0.470D-01 0.677D+00 0.370D+00
 Coeff-En:   0.000D+00 0.708D+00 0.292D+00
 Coeff:     -0.118D-01 0.700D+00 0.311D+00
 Gap=     0.254 Goal=   None    Shift=    0.000
 RMSDP=8.93D-05 MaxDP=2.20D-03 DE= 5.66D-05 OVMax= 3.48D-03

 Cycle   4  Pass 0  IDiag  1:
 E= -284.418705339890     Delta-E=       -0.000088769518 Rises=F Damp=F
 DIIS: error= 7.78D-05 at cycle   4 NSaved=   4.
 NSaved= 4 IEnMin= 4 EnMin= -284.418705339890     IErMin= 4 ErrMin= 7.78D-05
 ErrMax= 7.78D-05  0.00D+00 EMaxC= 1.00D-01 BMatC= 1.28D-06 BMatP= 3.66D-05
 IDIUse=1 WtCom= 1.00D+00 WtEn= 0.00D+00
 Coeff-Com: -0.242D-01 0.265D+00 0.991D-01 0.660D+00
 Coeff:     -0.242D-01 0.265D+00 0.991D-01 0.660D+00
 Gap=     0.254 Goal=   None    Shift=    0.000
 RMSDP=1.31D-05 MaxDP=2.87D-04 DE=-8.88D-05 OVMax= 2.96D-04

 Cycle   5  Pass 0  IDiag  1:
 E= -284.418706288731     Delta-E=       -0.000000948841 Rises=F Damp=F
 DIIS: error= 3.34D-05 at cycle   5 NSaved=   5.
 NSaved= 5 IEnMin= 5 EnMin= -284.418706288731     IErMin= 5 ErrMin= 3.34D-05
 ErrMax= 3.34D-05  0.00D+00 EMaxC= 1.00D-01 BMatC= 1.42D-07 BMatP= 1.28D-06
 IDIUse=1 WtCom= 1.00D+00 WtEn= 0.00D+00
 Coeff-Com: -0.744D-02 0.646D-01 0.153D-01 0.328D+00 0.599D+00
 Coeff:     -0.744D-02 0.646D-01 0.153D-01 0.328D+00 0.599D+00
 Gap=     0.254 Goal=   None    Shift=    0.000
 RMSDP=4.27D-06 MaxDP=1.01D-04 DE=-9.49D-07 OVMax= 1.03D-04

 Initial convergence to 1.0D-05 achieved.  Increase integral accuracy.
 Cycle   6  Pass 1  IDiag  1:
 E= -284.418708196866     Delta-E=       -0.000001908135 Rises=F Damp=F
 DIIS: error= 4.81D-06 at cycle   1 NSaved=   1.
 NSaved= 1 IEnMin= 1 EnMin= -284.418708196866     IErMin= 1 ErrMin= 4.81D-06
 ErrMax= 4.81D-06  0.00D+00 EMaxC= 1.00D-01 BMatC= 4.91D-09 BMatP= 4.91D-09
 IDIUse=1 WtCom= 1.00D+00 WtEn= 0.00D+00
 Coeff-Com:  0.100D+01
 Coeff:      0.100D+01
 Gap=     0.254 Goal=   None    Shift=    0.000
 RMSDP=4.27D-06 MaxDP=1.01D-04 DE=-1.91D-06 OVMax= 3.72D-05

 Cycle   7  Pass 1  IDiag  1:
 E= -284.418708196296     Delta-E=        0.000000000570 Rises=F Damp=F
 DIIS: error= 7.19D-06 at cycle   2 NSaved=   2.
 NSaved= 2 IEnMin= 1 EnMin= -284.418708196866     IErMin= 1 ErrMin= 4.81D-06
 ErrMax= 7.19D-06  0.00D+00 EMaxC= 1.00D-01 BMatC= 6.47D-09 BMatP= 4.91D-09
 IDIUse=1 WtCom= 1.00D+00 WtEn= 0.00D+00
 Coeff-Com:  0.536D+00 0.464D+00
 Coeff:      0.536D+00 0.464D+00
 Gap=     0.254 Goal=   None    Shift=    0.000
 RMSDP=8.48D-07 MaxDP=1.98D-05 DE= 5.70D-10 OVMax= 2.00D-05

 Cycle   8  Pass 1  IDiag  1:
 E= -284.418708201578     Delta-E=       -0.000000005282 Rises=F Damp=F
 DIIS: error= 8.82D-07 at cycle   3 NSaved=   3.
 NSaved= 3 IEnMin= 3 EnMin= -284.418708201578     IErMin= 3 ErrMin= 8.82D-07
 ErrMax= 8.82D-07  0.00D+00 EMaxC= 1.00D-01 BMatC= 1.21D-10 BMatP= 4.91D-09
 IDIUse=1 WtCom= 1.00D+00 WtEn= 0.00D+00
 Coeff-Com:  0.166D+00 0.187D+00 0.647D+00
 Coeff:      0.166D+00 0.187D+00 0.647D+00
 Gap=     0.254 Goal=   None    Shift=    0.000
 RMSDP=1.37D-07 MaxDP=2.47D-06 DE=-5.28D-09 OVMax= 2.53D-06

 Cycle   9  Pass 1  IDiag  1:
 E= -284.418708201683     Delta-E=       -0.000000000104 Rises=F Damp=F
 DIIS: error= 2.15D-07 at cycle   4 NSaved=   4.
 NSaved= 4 IEnMin= 4 EnMin= -284.418708201683     IErMin= 4 ErrMin= 2.15D-07
 ErrMax= 2.15D-07  0.00D+00 EMaxC= 1.00D-01 BMatC= 5.49D-12 BMatP= 1.21D-10
 IDIUse=1 WtCom= 1.00D+00 WtEn= 0.00D+00
 Coeff-Com: -0.681D-02 0.436D-02 0.161D+00 0.842D+00
 Coeff:     -0.681D-02 0.436D-02 0.161D+00 0.842D+00
 Gap=     0.254 Goal=   None    Shift=    0.000
 RMSDP=4.55D-08 MaxDP=7.49D-07 DE=-1.04D-10 OVMax= 1.26D-06

 Cycle  10  Pass 1  IDiag  1:
 E= -284.418708201686     Delta-E=       -0.000000000004 Rises=F Damp=F
 DIIS: error= 2.06D-07 at cycle   5 NSaved=   5.
 NSaved= 5 IEnMin= 5 EnMin= -284.418708201686     IErMin= 5 ErrMin= 2.06D-07
 ErrMax= 2.06D-07  0.00D+00 EMaxC= 1.00D-01 BMatC= 5.46D-12 BMatP= 5.49D-12
 IDIUse=1 WtCom= 1.00D+00 WtEn= 0.00D+00
 Coeff-Com: -0.174D-01-0.112D-01 0.604D-01 0.577D+00 0.392D+00
 Coeff:     -0.174D-01-0.112D-01 0.604D-01 0.577D+00 0.392D+00
 Gap=     0.254 Goal=   None    Shift=    0.000
 RMSDP=2.25D-08 MaxDP=5.52D-07 DE=-3.75D-12 OVMax= 8.71D-07

 Cycle  11  Pass 1  IDiag  1:
 E= -284.418708201688     Delta-E=       -0.000000000002 Rises=F Damp=F
 DIIS: error= 3.32D-08 at cycle   6 NSaved=   6.
 NSaved= 6 IEnMin= 6 EnMin= -284.418708201688     IErMin= 6 ErrMin= 3.32D-08
 ErrMax= 3.32D-08  0.00D+00 EMaxC= 1.00D-01 BMatC= 1.89D-13 BMatP= 5.46D-12
 IDIUse=1 WtCom= 1.00D+00 WtEn= 0.00D+00
 Coeff-Com: -0.845D-02-0.655D-02 0.125D-01 0.214D+00 0.206D+00 0.582D+00
 Coeff:     -0.845D-02-0.655D-02 0.125D-01 0.214D+00 0.206D+00 0.582D+00
 Gap=     0.254 Goal=   None    Shift=    0.000
 RMSDP=5.94D-09 MaxDP=1.02D-07 DE=-2.05D-12 OVMax= 1.58D-07

 SCF Done:  E(RB3LYP) =  -284.418708202     A.U. after   11 cycles
            NFock= 11  Conv=0.59D-08     -V/T= 2.0089
 KE= 2.819225348146D+02 PE=-1.023689182608D+03 EE= 2.786660145020D+02
 Leave Link  502 at Fri Mar 14 15:41:39 2025, MaxMem=  8589934592 cpu:              11.8 elap:               1.4
 (Enter /home/enzo/gaussian_versions/gdv.j21/gdv/l701.exe)
 ... and contract with generalized density number  0.
 Compute integral first derivatives.
 Leave Link  701 at Fri Mar 14 15:41:40 2025, MaxMem=  8589934592 cpu:               2.8 elap:               0.5
 (Enter /home/enzo/gaussian_versions/gdv.j21/gdv/l702.exe)
 L702 exits ... SP integral derivatives will be done elsewhere.
 Leave Link  702 at Fri Mar 14 15:41:40 2025, MaxMem=  8589934592 cpu:               0.2 elap:               0.2
 (Enter /home/enzo/gaussian_versions/gdv.j21/gdv/l703.exe)
 Integral derivatives from FoFJK, PRISM(SPDF).
 Compute integral first derivatives, UseDBF=F ICtDFT=           0.
 Calling FoFJK, ICntrl=      2127 FMM=F ISym2X=0 I1Cent= 0 IOpClX= 0 NMat=1 NMatS=1 NMatT=0.
 FoFJK:  IHMeth= 1 ICntrl=    2127 DoSepK=F KAlg= 0 I1Cent=           0 FoldK=F
 IRaf=         0 NMat=       1 IRICut=       1 DoRegI=T DoRafI=F ISym2E= 0 IDoP0=0 IntGTp=1.
 FoFCou: FMM=F IPFlag=           0 FMFlag=      100000 FMFlg1=         800
         NFxFlg=           0 DoJE=F BraDBF=F KetDBF=F FulRan=T
         wScrn=  0.000000 ICntrl=      2127 IOpCl=  0 I1Cent=           0 NGrid=           0
         NMat0=    1 NMatS0=      1 NMatT0=    0 NMatD0=    1 NMtDS0=    0 NMtDT0=    0
 Symmetry not used in FoFCou.
 Leave Link  703 at Fri Mar 14 15:41:40 2025, MaxMem=  8589934592 cpu:               3.6 elap:               0.5
 (Enter /home/enzo/gaussian_versions/gdv.j21/gdv/l716.exe)
 Dipole        =-1.08694662D-01-7.60145738D-01 4.98586239D-01
 ***** Axes restored to original set *****
 -------------------------------------------------------------------
 Center     Atomic                   Forces (Hartrees/Bohr)
 Number     Number              X              Y              Z
 -------------------------------------------------------------------
      1        7          -0.001064985   -0.000636530    0.000921755
      2        6           0.003725405   -0.002837952    0.000551038
      3        6           0.000234307    0.010817649    0.004363044
      4        8          -0.001552025   -0.004903028   -0.002795567
      5        8          -0.001659420   -0.003418160   -0.001273107
      6        1           0.001048667   -0.000912757   -0.000709137
      7        1          -0.000668001    0.000946941   -0.000375552
      8        1          -0.001377467    0.000163740   -0.001093037
      9        1          -0.000079155    0.000287338    0.000051250
     10        1           0.001392673    0.000492758    0.000359313
 -------------------------------------------------------------------
 Cartesian Forces:  Max     0.010817649 RMS     0.002711096
 Leave Link  716 at Fri Mar 14 15:41:40 2025, MaxMem=  8589934592 cpu:               0.1 elap:               0.2
 (Enter /home/enzo/gaussian_versions/gdv.j21/gdv/l103.exe)

 GradGradGradGradGradGradGradGradGradGradGradGradGradGradGradGradGradGrad
 Berny optimization.
 Using GEDIIS/GDIIS optimizer.
 FormGI is forming the generalized inverse of G from B-inverse, IUseBI=4.
 Internal  Forces:  Max     0.005286767 RMS     0.001609397
 Search for a local minimum.
 Step number   6 out of a maximum of   46
 All quantities printed in internal units (Hartrees-Bohrs-Radians)
 RMS Force = .16094D-02 SwitMx=.10000D-02 MixMth= 1
 Mixed Optimization -- RFO/linear search
 Update second derivatives using D2CorX and points    4    5    6
 DE= -7.63D-04 DEPred=-4.89D-04 R= 1.56D+00
 TightC=F SS=  1.41D+00  RLast= 1.16D-01 DXNew= 2.4447D+00 3.4920D-01
 Trust test= 1.56D+00 RLast= 1.16D-01 DXMaxT set to 1.45D+00
 ITU=  1  1  1  1  1  0
 Use linear search instead of GDIIS.
     Eigenvalues ---    0.00130   0.00865   0.01879   0.04246   0.04341
     Eigenvalues ---    0.05303   0.06522   0.09413   0.13780   0.15473
     Eigenvalues ---    0.16006   0.18198   0.20175   0.22498   0.26608
     Eigenvalues ---    0.31961   0.32638   0.32781   0.37164   0.40549
     Eigenvalues ---    0.40889   0.45787   0.54034   0.82066
 RFO step:  Lambda=-1.19565238D-03 EMin= 1.30221309D-03
 Quartic linear search produced a step of  1.42118.
 Iteration  1 RMS(Cart)=  0.12416180 RMS(Int)=  0.02400574
 Iteration  2 RMS(Cart)=  0.02792506 RMS(Int)=  0.00075046
 Iteration  3 RMS(Cart)=  0.00065970 RMS(Int)=  0.00030946
 Iteration  4 RMS(Cart)=  0.00000037 RMS(Int)=  0.00030946
 Variable       Old X    -DE/DX   Delta X   Delta X   Delta X     New X
                                 (Linear)    (Quad)   (Total)
    R1        2.73867   0.00091   0.00700  -0.00442   0.00258   2.74125
    R2        1.91988   0.00099   0.00482  -0.00037   0.00445   1.92433
    R3        1.91904   0.00106   0.00545  -0.00050   0.00495   1.92399
    R4        2.87988  -0.00305  -0.01502  -0.00903  -0.02405   2.85583
    R5        2.08922   0.00075   0.00395   0.00364   0.00758   2.09680
    R6        2.07202   0.00018   0.00207  -0.00106   0.00100   2.07302
    R7        2.27517   0.00529   0.01082   0.00175   0.01258   2.28775
    R8        2.57726  -0.00198  -0.00824  -0.00304  -0.01128   2.56598
    R9        1.84255   0.00072   0.00116   0.00038   0.00154   1.84409
    A1        1.93490  -0.00110  -0.01073  -0.00953  -0.02029   1.91461
    A2        1.92181  -0.00033  -0.00210   0.00122  -0.00091   1.92090
    A3        1.87543   0.00066   0.00204   0.00826   0.01024   1.88567
    A4        1.93861  -0.00138  -0.00832  -0.01661  -0.02541   1.91320
    A5        2.04553  -0.00081  -0.02527   0.00597  -0.01983   2.02570
    A6        1.90785   0.00037   0.01176   0.00500   0.01703   1.92488
    A7        1.84991   0.00099   0.00308  -0.00864  -0.00651   1.84340
    A8        1.86752   0.00096   0.01755   0.01454   0.03217   1.89968
    A9        1.84463   0.00010   0.00567   0.00154   0.00729   1.85192
   A10        2.22390  -0.00397  -0.02509  -0.01291  -0.03837   2.18553
   A11        1.91326   0.00377   0.02961   0.00589   0.03511   1.94837
   A12        2.14594   0.00019  -0.00459   0.00690   0.00190   2.14784
   A13        1.83678   0.00243   0.02724  -0.00557   0.02167   1.85846
    D1       -1.06609   0.00073   0.05592   0.21024   0.26585  -0.80023
    D2        1.06331   0.00028   0.03285   0.18900   0.22224   1.28556
    D3       -3.12285   0.00015   0.03209   0.19923   0.23129  -2.89156
    D4       -3.13911   0.00081   0.06151   0.20519   0.26637  -2.87274
    D5       -1.00971   0.00036   0.03845   0.18396   0.22276  -0.78695
    D6        1.08731   0.00023   0.03768   0.19419   0.23181   1.31912
    D7        0.13152   0.00033   0.03392   0.17513   0.20900   0.34052
    D8       -3.02405  -0.00057   0.00101   0.16512   0.16647  -2.85757
    D9       -2.10805   0.00157   0.06948   0.18491   0.25414  -1.85391
   D10        1.01957   0.00067   0.03657   0.17489   0.21162   1.23118
   D11        2.21260   0.00059   0.05418   0.18070   0.23459   2.44719
   D12       -0.94296  -0.00031   0.02128   0.17068   0.19206  -0.75090
   D13       -3.11802   0.00025   0.00713   0.02258   0.03029  -3.08772
   D14        0.01035  -0.00065  -0.02387   0.01291  -0.01155  -0.00120
         Item               Value     Threshold  Converged?
 Maximum Force            0.005287     0.000450     NO 
 RMS     Force            0.001609     0.000300     NO 
 Maximum Displacement     0.438269     0.001800     NO 
 RMS     Displacement     0.144082     0.001200     NO 
 Predicted change in Energy=-1.239034D-03
 Lowest energy point so far.  Saving SCF results.
 GradGradGradGradGradGradGradGradGradGradGradGradGradGradGradGradGradGrad

 Leave Link  103 at Fri Mar 14 15:41:41 2025, MaxMem=  8589934592 cpu:               0.4 elap:               0.2
 (Enter /home/enzo/gaussian_versions/gdv.j21/gdv/l202.exe)
                          Input orientation:                          
 ---------------------------------------------------------------------
 Center     Atomic      Atomic             Coordinates (Angstroms)
 Number     Number       Type             X           Y           Z
 ---------------------------------------------------------------------
      1          7           0       -1.951753   -0.003595    0.125936
      2          6           0       -0.761394    0.825123    0.102977
      3          6           0        0.460346   -0.046512   -0.074361
      4          8           0        0.454624   -1.176974   -0.507534
      5          8           0        1.600037    0.617366    0.248352
      6          1           0       -1.911244   -0.683588   -0.630982
      7          1           0       -2.780494    0.571734   -0.011077
      8          1           0       -0.709225    1.581104   -0.707541
      9          1           0       -0.666606    1.380840    1.044037
     10          1           0        2.338331    0.007528    0.060458
 ---------------------------------------------------------------------
                    Distance matrix (angstroms):
                    1          2          3          4          5
     1  N    0.000000
     2  C    1.450605   0.000000
     3  C    2.420782   1.511240   0.000000
     4  O    2.751136   2.420705   1.210626   0.000000
     5  O    3.607740   2.375006   1.357856   2.258980   0.000000
     6  H    1.018311   2.033977   2.517962   2.419917   3.846401
     7  H    1.018130   2.038131   3.299891   3.710854   4.388443
     8  H    2.179410   1.109580   2.101891   3.000256   2.678659
     9  H    2.100279   1.096996   2.134987   3.194830   2.520650
    10  H    4.290599   3.206021   1.883593   2.296522   0.975852
                    6          7          8          9         10
     6  H    0.000000
     7  H    1.647942   0.000000
     8  H    2.565061   2.407082   0.000000
     9  H    2.935417   2.497286   1.763504   0.000000
    10  H    4.360576   5.150322   3.514764   3.447182   0.000000
 Stoichiometry    C2H5NO2
 Framework group  C1[X(C2H5NO2)]
 Deg. of freedom    24
 Full point group                 C1      NOp   1
 RotChk:  IX=0 Diff= 1.83D-01
 Largest Abelian subgroup         C1      NOp   1
 Largest concise Abelian subgroup C1      NOp   1
                         Standard orientation:                         
 ---------------------------------------------------------------------
 Center     Atomic      Atomic             Coordinates (Angstroms)
 Number     Number       Type             X           Y           Z
 ---------------------------------------------------------------------
      1          7           0       -1.877337    0.112690   -0.196805
      2          6           0       -0.728982   -0.717571    0.113364
      3          6           0        0.534923    0.103925    0.005961
      4          8           0        0.586824    1.312963    0.039862
      5          8           0        1.639052   -0.683226   -0.065203
      6          1           0       -1.799767    1.002441    0.292361
      7          1           0       -2.732626   -0.344222    0.113515
      8          1           0       -0.709973   -1.163574    1.129182
      9          1           0       -0.666230   -1.557778   -0.589142
     10          1           0        2.407304   -0.081719   -0.081494
 ---------------------------------------------------------------------
 Rotational constants (GHZ):          10.3332100           3.9606899           2.9467984
 Leave Link  202 at Fri Mar 14 15:41:41 2025, MaxMem=  8589934592 cpu:               0.3 elap:               0.1
 (Enter /home/enzo/gaussian_versions/gdv.j21/gdv/l301.exe)
 Standard basis: 6-31G(d) (6D, 7F)
 Ernie: Thresh=  0.10000D-02 Tol=  0.10000D-05 Strict=F.
 There are    85 symmetry adapted cartesian basis functions of A   symmetry.
 There are    85 symmetry adapted basis functions of A   symmetry.
    85 basis functions,   160 primitive gaussians,    85 cartesian basis functions
    20 alpha electrons       20 beta electrons
       nuclear repulsion energy       179.4367053981 Hartrees.
 IExCor=      4002 DFT=T Ex+Corr=B3LYP ScaHFX=  0.200000
 ScaDFX=  0.800000  0.720000  1.000000  0.810000  1.000000  0.000000
 ScaDFX=  0.000000  0.000000  0.000000  0.000000  0.000000  0.000000
 IRadAn=      5 IRanWt=     -1 IRanGd=            0 ICorTp=0 IEmpDi=  4
 NAtoms=   10 NActive=   10 NUniq=   10 SFac= 1.00D+00 NAtFMM=   60 NAOKFM=F Big=F
 Integral buffers will be    131072 words long.
 Raffenetti 2 integral format.
 Two-electron integral symmetry is turned on.
 Leave Link  301 at Fri Mar 14 15:41:41 2025, MaxMem=  8589934592 cpu:               0.6 elap:               0.2
 (Enter /home/enzo/gaussian_versions/gdv.j21/gdv/l302.exe)
 NPDir=0 NMtPBC=     1 NCelOv=     1 NCel=       1 NClECP=     1 NCelD=      1
         NCelK=      1 NCelE2=     1 NClLst=     1 CellRange=     0.0.
 One-electron integrals computed using PRISM.
 One-electron integral symmetry used in STVInt
 NBasis=    85 RedAO= T EigKep=  3.88D-03  NBF=    85
 NBsUse=    85 1.00D-06 EigRej= -1.00D+00 NBFU=    85
 Precomputing XC quadrature grid using
 IXCGrd= 4 IRadAn=           5 IRanWt=          -1 IRanGd=           0 AccXCQ= 0.00D+00.
 Generated NRdTot=       0 NPtTot=      219506 NUsed=           0 NTot=          64
 NSgBfM=    85    85    85    85    85 MxSgAt=    10 MxSgA2=    10 SizInc=   0.000
 NMBTot=     1946 MaxBatPerAtom=       84 MaxMicBPerAtom=      204 NBfPt=            15878598.
 Leave Link  302 at Fri Mar 14 15:41:41 2025, MaxMem=  8589934592 cpu:               1.1 elap:               0.3
 (Enter /home/enzo/gaussian_versions/gdv.j21/gdv/l303.exe)
 DipDrv:  MaxL=1.
 Leave Link  303 at Fri Mar 14 15:41:41 2025, MaxMem=  8589934592 cpu:               0.2 elap:               0.2
 (Enter /home/enzo/gaussian_versions/gdv.j21/gdv/l401.exe)
 Initial guess from the checkpoint file:  "/local/home/enzo/scratch/Gau-2409726.chk"
 B after Tr=    -0.000000   -0.000000   -0.000000
         Rot=    0.999891    0.013031    0.000172   -0.006949 Ang=   1.69 deg.
 AO Guess basis will be translated and rotated to current coordinates.
 JPrj=2 DoOrth=T DoCkMO=T.
 Generating alternative initial guess.
 ExpMin= 1.61D-01 ExpMax= 5.48D+03 ExpMxC= 8.25D+02 IAcc=3 IRadAn=         5 AccDes= 0.00D+00
 Harris functional with IExCor= 4002 and IRadAn=       5 diagonalized for initial guess.
 HarFok:  IExCor=    4002 AccDes= 0.00D+00 IRadAn=         5 IDoV= 1 UseB2=F ITyADJ=14 ICtDFT=  3500011
 FoFCou: FMM=F IPFlag=           0 FMFlag=      100000 FMFlg1=           0
         NFxFlg=           0 DoJE=T BraDBF=F KetDBF=T FulRan=T
         wScrn=  0.000000 ICntrl=       500 IOpCl=  0 I1Cent=   200000004 NGrid=           0
         NMat0=    1 NMatS0=      1 NMatT0=    0 NMatD0=    1 NMtDS0=    0 NMtDT0=    0
 Petite list used in FoFCou.
 Harris En= -284.440091324695    
 Leave Link  401 at Fri Mar 14 15:41:42 2025, MaxMem=  8589934592 cpu:               2.3 elap:               0.3
 (Enter /home/enzo/gaussian_versions/gdv.j21/gdv/l502.exe)
 Keep R1 ints in memory in canonical form, NReq=17617987.
 FoFCou: FMM=F IPFlag=           0 FMFlag=           0 FMFlg1=           0
         NFxFlg=           0 DoJE=F BraDBF=F KetDBF=F FulRan=T
         wScrn=  0.000000 ICntrl=       600 IOpCl=  0 I1Cent=           0 NGrid=           0
         NMat0=    1 NMatS0=   3655 NMatT0=    0 NMatD0=    1 NMtDS0=    0 NMtDT0=    0
 Symmetry not used in FoFCou.
 Two-electron integral symmetry not used.
 Closed shell SCF:
 Using DIIS extrapolation, IDIIS=  1040.
 NGot=  8589934592 LenX=  8583230350 LenY=  8583222684
 Requested convergence on RMS density matrix=1.00D-08 within 128 cycles.
 Requested convergence on MAX density matrix=1.00D-06.
 Requested convergence on             energy=1.00D-06.
 No special actions if energy rises.
 Integral accuracy reduced to 1.0D-05 until final iterations.

 Cycle   1  Pass 0  IDiag  1:
 E= -284.386329905059    
 DIIS: error= 1.42D-02 at cycle   1 NSaved=   1.
 NSaved= 1 IEnMin= 1 EnMin= -284.386329905059     IErMin= 1 ErrMin= 1.42D-02
 ErrMax= 1.42D-02  0.00D+00 EMaxC= 1.00D-01 BMatC= 1.74D-02 BMatP= 1.74D-02
 IDIUse=3 WtCom= 8.58D-01 WtEn= 1.42D-01
 Coeff-Com:  0.100D+01
 Coeff-En:   0.100D+01
 Coeff:      0.100D+01
 Recover alternate guess density for next cycle.
 RMSDP=5.35D-03 MaxDP=8.03D-02              OVMax= 0.00D+00

 Cycle   2  Pass 0  IDiag  1:
 E= -284.254913863617     Delta-E=        0.131416041443 Rises=F Damp=F
 Switch densities from cycles 1 and 2 for lowest energy.
 DIIS: error= 3.85D-02 at cycle   2 NSaved=   2.
 NSaved= 2 IEnMin= 1 EnMin= -284.386329905059     IErMin= 1 ErrMin= 1.42D-02
 ErrMax= 3.85D-02  0.00D+00 EMaxC= 1.00D+00 BMatC= 2.07D-01 BMatP= 1.74D-02
 IDIUse=1 WtCom= 1.00D+00 WtEn= 0.00D+00
 Coeff-Com:  0.937D+00 0.626D-01
 Coeff:      0.937D+00 0.626D-01
 Gap=     0.232 Goal=   None    Shift=    0.000
 RMSDP=2.92D-03 MaxDP=4.78D-02 DE= 1.31D-01 OVMax= 8.77D-02

 Cycle   3  Pass 0  IDiag  1:
 E= -284.417235765069     Delta-E=       -0.162321901453 Rises=F Damp=F
 DIIS: error= 4.52D-03 at cycle   3 NSaved=   3.
 NSaved= 3 IEnMin= 3 EnMin= -284.417235765069     IErMin= 3 ErrMin= 4.52D-03
 ErrMax= 4.52D-03  0.00D+00 EMaxC= 1.00D+00 BMatC= 3.19D-03 BMatP= 1.74D-02
 IDIUse=1 WtCom= 1.00D+00 WtEn= 0.00D+00
 Coeff-Com: -0.259D-01 0.105D+00 0.921D+00
 Coeff:     -0.259D-01 0.105D+00 0.921D+00
 Gap=     0.252 Goal=   None    Shift=    0.000
 RMSDP=7.04D-04 MaxDP=1.30D-02 DE=-1.62D-01 OVMax= 1.72D-02

 Cycle   4  Pass 0  IDiag  1:
 E= -284.419459729670     Delta-E=       -0.002223964601 Rises=F Damp=F
 DIIS: error= 1.34D-03 at cycle   4 NSaved=   4.
 NSaved= 4 IEnMin= 4 EnMin= -284.419459729670     IErMin= 4 ErrMin= 1.34D-03
 ErrMax= 1.34D-03  0.00D+00 EMaxC= 1.00D+00 BMatC= 5.36D-04 BMatP= 3.19D-03
 IDIUse=1 WtCom= 1.00D+00 WtEn= 0.00D+00
 Coeff-Com: -0.348D-01 0.471D-01 0.473D+00 0.514D+00
 Coeff:     -0.348D-01 0.471D-01 0.473D+00 0.514D+00
 Gap=     0.246 Goal=   None    Shift=    0.000
 RMSDP=2.56D-04 MaxDP=3.57D-03 DE=-2.22D-03 OVMax= 6.84D-03

 Cycle   5  Pass 0  IDiag  1:
 E= -284.419860613962     Delta-E=       -0.000400884291 Rises=F Damp=F
 DIIS: error= 6.66D-04 at cycle   5 NSaved=   5.
 NSaved= 5 IEnMin= 5 EnMin= -284.419860613962     IErMin= 5 ErrMin= 6.66D-04
 ErrMax= 6.66D-04  0.00D+00 EMaxC= 1.00D+00 BMatC= 5.48D-05 BMatP= 5.36D-04
 IDIUse=1 WtCom= 1.00D+00 WtEn= 0.00D+00
 Coeff-Com: -0.141D-01 0.130D-01 0.143D+00 0.277D+00 0.581D+00
 Coeff:     -0.141D-01 0.130D-01 0.143D+00 0.277D+00 0.581D+00
 Gap=     0.246 Goal=   None    Shift=    0.000
 RMSDP=9.40D-05 MaxDP=1.77D-03 DE=-4.01D-04 OVMax= 3.61D-03

 Cycle   6  Pass 0  IDiag  1:
 E= -284.419892120744     Delta-E=       -0.000031506782 Rises=F Damp=F
 DIIS: error= 3.57D-04 at cycle   6 NSaved=   6.
 NSaved= 6 IEnMin= 6 EnMin= -284.419892120744     IErMin= 6 ErrMin= 3.57D-04
 ErrMax= 3.57D-04  0.00D+00 EMaxC= 1.00D+00 BMatC= 1.48D-05 BMatP= 5.48D-05
 IDIUse=1 WtCom= 1.00D+00 WtEn= 0.00D+00
 Coeff-Com: -0.385D-02 0.183D-02 0.304D-01 0.112D+00 0.385D+00 0.475D+00
 Coeff:     -0.385D-02 0.183D-02 0.304D-01 0.112D+00 0.385D+00 0.475D+00
 Gap=     0.247 Goal=   None    Shift=    0.000
 RMSDP=3.72D-05 MaxDP=7.83D-04 DE=-3.15D-05 OVMax= 1.34D-03

 Cycle   7  Pass 0  IDiag  1:
 E= -284.419903474263     Delta-E=       -0.000011353519 Rises=F Damp=F
 DIIS: error= 3.12D-05 at cycle   7 NSaved=   7.
 NSaved= 7 IEnMin= 7 EnMin= -284.419903474263     IErMin= 7 ErrMin= 3.12D-05
 ErrMax= 3.12D-05  0.00D+00 EMaxC= 1.00D+00 BMatC= 2.42D-07 BMatP= 1.48D-05
 IDIUse=1 WtCom= 1.00D+00 WtEn= 0.00D+00
 Coeff-Com: -0.521D-03-0.720D-04 0.192D-02 0.247D-01 0.113D+00 0.187D+00
 Coeff-Com:  0.674D+00
 Coeff:     -0.521D-03-0.720D-04 0.192D-02 0.247D-01 0.113D+00 0.187D+00
 Coeff:      0.674D+00
 Gap=     0.247 Goal=   None    Shift=    0.000
 RMSDP=5.87D-06 MaxDP=8.02D-05 DE=-1.14D-05 OVMax= 1.17D-04

 Initial convergence to 1.0D-05 achieved.  Increase integral accuracy.
 Cycle   8  Pass 1  IDiag  1:
 E= -284.419905356367     Delta-E=       -0.000001882104 Rises=F Damp=F
 DIIS: error= 1.56D-05 at cycle   1 NSaved=   1.
 NSaved= 1 IEnMin= 1 EnMin= -284.419905356367     IErMin= 1 ErrMin= 1.56D-05
 ErrMax= 1.56D-05  0.00D+00 EMaxC= 1.00D+00 BMatC= 2.32D-08 BMatP= 2.32D-08
 IDIUse=1 WtCom= 1.00D+00 WtEn= 0.00D+00
 Coeff-Com:  0.100D+01
 Coeff:      0.100D+01
 Gap=     0.247 Goal=   None    Shift=    0.000
 RMSDP=5.87D-06 MaxDP=8.02D-05 DE=-1.88D-06 OVMax= 7.65D-05

 Cycle   9  Pass 1  IDiag  1:
 E= -284.419905338550     Delta-E=        0.000000017817 Rises=F Damp=F
 DIIS: error= 2.58D-05 at cycle   2 NSaved=   2.
 NSaved= 2 IEnMin= 1 EnMin= -284.419905356367     IErMin= 1 ErrMin= 1.56D-05
 ErrMax= 2.58D-05  0.00D+00 EMaxC= 1.00D+00 BMatC= 4.81D-08 BMatP= 2.32D-08
 IDIUse=1 WtCom= 1.00D+00 WtEn= 0.00D+00
 Coeff-Com:  0.593D+00 0.407D+00
 Coeff:      0.593D+00 0.407D+00
 Gap=     0.247 Goal=   None    Shift=    0.000
 RMSDP=1.93D-06 MaxDP=4.20D-05 DE= 1.78D-08 OVMax= 4.25D-05

 Cycle  10  Pass 1  IDiag  1:
 E= -284.419905376464     Delta-E=       -0.000000037914 Rises=F Damp=F
 DIIS: error= 3.55D-06 at cycle   3 NSaved=   3.
 NSaved= 3 IEnMin= 3 EnMin= -284.419905376464     IErMin= 3 ErrMin= 3.55D-06
 ErrMax= 3.55D-06  0.00D+00 EMaxC= 1.00D+00 BMatC= 1.53D-09 BMatP= 2.32D-08
 IDIUse=1 WtCom= 1.00D+00 WtEn= 0.00D+00
 Coeff-Com:  0.315D+00 0.239D+00 0.446D+00
 Coeff:      0.315D+00 0.239D+00 0.446D+00
 Gap=     0.247 Goal=   None    Shift=    0.000
 RMSDP=4.68D-07 MaxDP=1.14D-05 DE=-3.79D-08 OVMax= 1.57D-05

 Cycle  11  Pass 1  IDiag  1:
 E= -284.419905377540     Delta-E=       -0.000000001075 Rises=F Damp=F
 DIIS: error= 1.04D-06 at cycle   4 NSaved=   4.
 NSaved= 4 IEnMin= 4 EnMin= -284.419905377540     IErMin= 4 ErrMin= 1.04D-06
 ErrMax= 1.04D-06  0.00D+00 EMaxC= 1.00D+00 BMatC= 1.31D-10 BMatP= 1.53D-09
 IDIUse=1 WtCom= 1.00D+00 WtEn= 0.00D+00
 Coeff-Com:  0.113D+00 0.901D-01 0.260D+00 0.537D+00
 Coeff:      0.113D+00 0.901D-01 0.260D+00 0.537D+00
 Gap=     0.247 Goal=   None    Shift=    0.000
 RMSDP=1.35D-07 MaxDP=2.63D-06 DE=-1.08D-09 OVMax= 4.77D-06

 Cycle  12  Pass 1  IDiag  1:
 E= -284.419905377630     Delta-E=       -0.000000000091 Rises=F Damp=F
 DIIS: error= 3.41D-07 at cycle   5 NSaved=   5.
 NSaved= 5 IEnMin= 5 EnMin= -284.419905377630     IErMin= 5 ErrMin= 3.41D-07
 ErrMax= 3.41D-07  0.00D+00 EMaxC= 1.00D+00 BMatC= 2.01D-11 BMatP= 1.31D-10
 IDIUse=1 WtCom= 1.00D+00 WtEn= 0.00D+00
 Coeff-Com: -0.171D-01-0.993D-02 0.418D-01 0.316D+00 0.669D+00
 Coeff:     -0.171D-01-0.993D-02 0.418D-01 0.316D+00 0.669D+00
 Gap=     0.247 Goal=   None    Shift=    0.000
 RMSDP=4.87D-08 MaxDP=1.14D-06 DE=-9.08D-11 OVMax= 1.42D-06

 Cycle  13  Pass 1  IDiag  1:
 E= -284.419905377646     Delta-E=       -0.000000000015 Rises=F Damp=F
 DIIS: error= 4.37D-08 at cycle   6 NSaved=   6.
 NSaved= 6 IEnMin= 6 EnMin= -284.419905377646     IErMin= 6 ErrMin= 4.37D-08
 ErrMax= 4.37D-08  0.00D+00 EMaxC= 1.00D+00 BMatC= 5.57D-13 BMatP= 2.01D-11
 IDIUse=1 WtCom= 1.00D+00 WtEn= 0.00D+00
 Coeff-Com: -0.125D-01-0.855D-02 0.302D-02 0.963D-01 0.253D+00 0.669D+00
 Coeff:     -0.125D-01-0.855D-02 0.302D-02 0.963D-01 0.253D+00 0.669D+00
 Gap=     0.247 Goal=   None    Shift=    0.000
 RMSDP=1.10D-08 MaxDP=1.73D-07 DE=-1.51D-11 OVMax= 3.27D-07

 Cycle  14  Pass 1  IDiag  1:
 E= -284.419905377648     Delta-E=       -0.000000000002 Rises=F Damp=F
 DIIS: error= 2.58D-08 at cycle   7 NSaved=   7.
 NSaved= 7 IEnMin= 7 EnMin= -284.419905377648     IErMin= 7 ErrMin= 2.58D-08
 ErrMax= 2.58D-08  0.00D+00 EMaxC= 1.00D+00 BMatC= 1.17D-13 BMatP= 5.57D-13
 IDIUse=1 WtCom= 1.00D+00 WtEn= 0.00D+00
 Coeff-Com: -0.463D-02-0.336D-02-0.247D-02 0.191D-01 0.616D-01 0.353D+00
 Coeff-Com:  0.577D+00
 Coeff:     -0.463D-02-0.336D-02-0.247D-02 0.191D-01 0.616D-01 0.353D+00
 Coeff:      0.577D+00
 Gap=     0.247 Goal=   None    Shift=    0.000
 RMSDP=3.65D-09 MaxDP=7.62D-08 DE=-2.16D-12 OVMax= 9.49D-08

 SCF Done:  E(RB3LYP) =  -284.419905378     A.U. after   14 cycles
            NFock= 14  Conv=0.37D-08     -V/T= 2.0089
 KE= 2.819152615679D+02 PE=-1.025139416196D+03 EE= 2.793675438526D+02
 Leave Link  502 at Fri Mar 14 15:41:43 2025, MaxMem=  8589934592 cpu:              13.1 elap:               1.4
 (Enter /home/enzo/gaussian_versions/gdv.j21/gdv/l701.exe)
 ... and contract with generalized density number  0.
 Compute integral first derivatives.
 Leave Link  701 at Fri Mar 14 15:41:44 2025, MaxMem=  8589934592 cpu:               1.9 elap:               0.5
 (Enter /home/enzo/gaussian_versions/gdv.j21/gdv/l702.exe)
 L702 exits ... SP integral derivatives will be done elsewhere.
 Leave Link  702 at Fri Mar 14 15:41:44 2025, MaxMem=  8589934592 cpu:               0.2 elap:               0.2
 (Enter /home/enzo/gaussian_versions/gdv.j21/gdv/l703.exe)
 Integral derivatives from FoFJK, PRISM(SPDF).
 Compute integral first derivatives, UseDBF=F ICtDFT=           0.
 Calling FoFJK, ICntrl=      2127 FMM=F ISym2X=0 I1Cent= 0 IOpClX= 0 NMat=1 NMatS=1 NMatT=0.
 FoFJK:  IHMeth= 1 ICntrl=    2127 DoSepK=F KAlg= 0 I1Cent=           0 FoldK=F
 IRaf=         0 NMat=       1 IRICut=       1 DoRegI=T DoRafI=F ISym2E= 0 IDoP0=0 IntGTp=1.
 FoFCou: FMM=F IPFlag=           0 FMFlag=      100000 FMFlg1=         800
         NFxFlg=           0 DoJE=F BraDBF=F KetDBF=F FulRan=T
         wScrn=  0.000000 ICntrl=      2127 IOpCl=  0 I1Cent=           0 NGrid=           0
         NMat0=    1 NMatS0=      1 NMatT0=    0 NMatD0=    1 NMtDS0=    0 NMtDT0=    0
 Symmetry not used in FoFCou.
 Leave Link  703 at Fri Mar 14 15:41:44 2025, MaxMem=  8589934592 cpu:               3.7 elap:               0.5
 (Enter /home/enzo/gaussian_versions/gdv.j21/gdv/l716.exe)
 Dipole        = 3.87754025D-02-5.98646161D-01 5.58281897D-01
 ***** Axes restored to original set *****
 -------------------------------------------------------------------
 Center     Atomic                   Forces (Hartrees/Bohr)
 Number     Number              X              Y              Z
 -------------------------------------------------------------------
      1        7          -0.004076102    0.000486270    0.000133198
      2        6           0.000493973    0.001374647    0.000130568
      3        6           0.004902275    0.000087368   -0.001317853
      4        8           0.000074030    0.000540952    0.000547700
      5        8          -0.001989098   -0.000954363    0.000340849
      6        1           0.000522262    0.000576105    0.000420093
      7        1           0.000737064   -0.001212339   -0.000152702
      8        1          -0.000351901   -0.000560881    0.000680629
      9        1           0.000335536   -0.000069325   -0.000574015
     10        1          -0.000648040   -0.000268435   -0.000208467
 -------------------------------------------------------------------
 Cartesian Forces:  Max     0.004902275 RMS     0.001354982
 Leave Link  716 at Fri Mar 14 15:41:45 2025, MaxMem=  8589934592 cpu:               0.2 elap:               0.2
 (Enter /home/enzo/gaussian_versions/gdv.j21/gdv/l103.exe)

 GradGradGradGradGradGradGradGradGradGradGradGradGradGradGradGradGradGrad
 Berny optimization.
 Using GEDIIS/GDIIS optimizer.
 FormGI is forming the generalized inverse of G from B-inverse, IUseBI=4.
 Internal  Forces:  Max     0.002780087 RMS     0.000928289
 Search for a local minimum.
 Step number   7 out of a maximum of   46
 All quantities printed in internal units (Hartrees-Bohrs-Radians)
 RMS Force = .92829D-03 SwitMx=.10000D-02 MixMth= 2
 Mixed Optimization -- En-DIIS/RFO-DIIS
 Update second derivatives using D2CorX and points    6    7
 DE= -1.20D-03 DEPred=-1.24D-03 R= 9.66D-01
 TightC=F SS=  1.41D+00  RLast= 7.93D-01 DXNew= 2.4447D+00 2.3788D+00
 Trust test= 9.66D-01 RLast= 7.93D-01 DXMaxT set to 2.38D+00
 ITU=  1  1  1  1  1  1  0
 Use linear search instead of GDIIS.
     Eigenvalues ---    0.00153   0.00864   0.01878   0.04329   0.04479
     Eigenvalues ---    0.05422   0.06538   0.09135   0.13625   0.15163
     Eigenvalues ---    0.16134   0.18391   0.20430   0.22298   0.26502
     Eigenvalues ---    0.32548   0.32760   0.32869   0.37469   0.40560
     Eigenvalues ---    0.41062   0.45707   0.54295   0.82843
 RFO step:  Lambda=-1.81148623D-04 EMin= 1.52763385D-03
 Quartic linear search produced a step of  0.12354.
 Iteration  1 RMS(Cart)=  0.04391960 RMS(Int)=  0.00133097
 Iteration  2 RMS(Cart)=  0.00142786 RMS(Int)=  0.00003027
 Iteration  3 RMS(Cart)=  0.00000154 RMS(Int)=  0.00003025
 Iteration  4 RMS(Cart)=  0.00000000 RMS(Int)=  0.00003025
 Variable       Old X    -DE/DX   Delta X   Delta X   Delta X     New X
                                 (Linear)    (Quad)   (Total)
    R1        2.74125   0.00240   0.00032   0.00597   0.00629   2.74754
    R2        1.92433  -0.00068   0.00055  -0.00122  -0.00067   1.92366
    R3        1.92399  -0.00126   0.00061  -0.00284  -0.00223   1.92176
    R4        2.85583   0.00231  -0.00297   0.00732   0.00435   2.86018
    R5        2.09680  -0.00090   0.00094  -0.00207  -0.00114   2.09566
    R6        2.07302  -0.00050   0.00012  -0.00149  -0.00136   2.07166
    R7        2.28775  -0.00070   0.00155  -0.00040   0.00115   2.28890
    R8        2.56598  -0.00278  -0.00139  -0.00448  -0.00588   2.56010
    R9        1.84409  -0.00028   0.00019   0.00004   0.00023   1.84432
    A1        1.91461  -0.00110  -0.00251  -0.00861  -0.01111   1.90350
    A2        1.92090   0.00103  -0.00011   0.00836   0.00826   1.92916
    A3        1.88567  -0.00006   0.00127  -0.00032   0.00096   1.88663
    A4        1.91320   0.00156  -0.00314   0.00692   0.00372   1.91692
    A5        2.02570  -0.00058  -0.00245  -0.00467  -0.00717   2.01853
    A6        1.92488  -0.00015   0.00210   0.00415   0.00627   1.93115
    A7        1.84340  -0.00039  -0.00080  -0.00230  -0.00320   1.84020
    A8        1.89968  -0.00061   0.00397  -0.00258   0.00137   1.90106
    A9        1.85192   0.00008   0.00090  -0.00206  -0.00114   1.85078
   A10        2.18553   0.00013  -0.00474  -0.00038  -0.00516   2.18037
   A11        1.94837  -0.00002   0.00434   0.00216   0.00646   1.95483
   A12        2.14784  -0.00009   0.00023  -0.00120  -0.00101   2.14683
   A13        1.85846  -0.00124   0.00268  -0.00499  -0.00231   1.85615
    D1       -0.80023   0.00004   0.03284   0.04671   0.07952  -0.72071
    D2        1.28556   0.00033   0.02746   0.04577   0.07326   1.35882
    D3       -2.89156  -0.00010   0.02857   0.04295   0.07150  -2.82006
    D4       -2.87274   0.00015   0.03291   0.04729   0.08018  -2.79256
    D5       -0.78695   0.00044   0.02752   0.04635   0.07392  -0.71303
    D6        1.31912   0.00001   0.02864   0.04353   0.07216   1.39128
    D7        0.34052  -0.00022   0.02582   0.03513   0.06095   0.40147
    D8       -2.85757   0.00033   0.02057   0.04636   0.06696  -2.79061
    D9       -1.85391  -0.00021   0.03140   0.03814   0.06952  -1.78439
   D10        1.23118   0.00034   0.02614   0.04938   0.07553   1.30671
   D11        2.44719   0.00017   0.02898   0.04282   0.07178   2.51897
   D12       -0.75090   0.00072   0.02373   0.05406   0.07779  -0.67311
   D13       -3.08772  -0.00022   0.00374   0.00118   0.00497  -3.08275
   D14       -0.00120   0.00033  -0.00143   0.01216   0.01068   0.00948
         Item               Value     Threshold  Converged?
 Maximum Force            0.002780     0.000450     NO 
 RMS     Force            0.000928     0.000300     NO 
 Maximum Displacement     0.136950     0.001800     NO 
 RMS     Displacement     0.044125     0.001200     NO 
 Predicted change in Energy=-1.364271D-04
 Lowest energy point so far.  Saving SCF results.
 GradGradGradGradGradGradGradGradGradGradGradGradGradGradGradGradGradGrad

 Leave Link  103 at Fri Mar 14 15:41:45 2025, MaxMem=  8589934592 cpu:               0.3 elap:               0.2
 (Enter /home/enzo/gaussian_versions/gdv.j21/gdv/l202.exe)
                          Input orientation:                          
 ---------------------------------------------------------------------
 Center     Atomic      Atomic             Coordinates (Angstroms)
 Number     Number       Type             X           Y           Z
 ---------------------------------------------------------------------
      1          7           0       -1.956764    0.007059    0.147426
      2          6           0       -0.762723    0.835477    0.103693
      3          6           0        0.459565   -0.035430   -0.092112
      4          8           0        0.450215   -1.144016   -0.580005
      5          8           0        1.597458    0.594064    0.287722
      6          1           0       -1.884753   -0.717780   -0.563673
      7          1           0       -2.784426    0.563504   -0.051397
      8          1           0       -0.726710    1.582976   -0.714708
      9          1           0       -0.650450    1.401292    1.035931
     10          1           0        2.331209   -0.014122    0.077387
 ---------------------------------------------------------------------
                    Distance matrix (angstroms):
                    1          2          3          4          5
     1  N    0.000000
     2  C    1.453933   0.000000
     3  C    2.428545   1.513541   0.000000
     4  O    2.765443   2.420135   1.211235   0.000000
     5  O    3.605100   2.379622   1.354746   2.256111   0.000000
     6  H    1.017958   2.029023   2.486724   2.373608   3.817276
     7  H    1.016950   2.045802   3.299069   3.695666   4.395093
     8  H    2.177113   1.108978   2.100979   2.973177   2.717456
     9  H    2.107078   1.096275   2.137471   3.209564   2.502903
    10  H    4.288597   3.208571   1.879424   2.290626   0.975973
                    6          7          8          9         10
     6  H    0.000000
     7  H    1.647278   0.000000
     8  H    2.580184   2.390292   0.000000
     9  H    2.927917   2.537326   1.761692   0.000000
    10  H    4.322086   5.149753   3.539634   3.436931   0.000000
 Stoichiometry    C2H5NO2
 Framework group  C1[X(C2H5NO2)]
 Deg. of freedom    24
 Full point group                 C1      NOp   1
 RotChk:  IX=0 Diff= 5.95D-02
 Largest Abelian subgroup         C1      NOp   1
 Largest concise Abelian subgroup C1      NOp   1
                         Standard orientation:                         
 ---------------------------------------------------------------------
 Center     Atomic      Atomic             Coordinates (Angstroms)
 Number     Number       Type             X           Y           Z
 ---------------------------------------------------------------------
      1          7           0       -1.879833    0.102417   -0.224117
      2          6           0       -0.732872   -0.713717    0.139652
      3          6           0        0.536840    0.100702    0.015718
      4          8           0        0.591984    1.309935    0.058185
      5          8           0        1.635625   -0.684903   -0.088358
      6          1           0       -1.762946    1.034146    0.168895
      7          1           0       -2.735389   -0.295402    0.155291
      8          1           0       -0.732124   -1.105544    1.177102
      9          1           0       -0.658607   -1.589831   -0.515122
     10          1           0        2.403210   -0.082454   -0.108189
 ---------------------------------------------------------------------
 Rotational constants (GHZ):          10.3054706           3.9501868           2.9494479
 Leave Link  202 at Fri Mar 14 15:41:45 2025, MaxMem=  8589934592 cpu:               1.0 elap:               0.3
 (Enter /home/enzo/gaussian_versions/gdv.j21/gdv/l301.exe)
 Standard basis: 6-31G(d) (6D, 7F)
 Ernie: Thresh=  0.10000D-02 Tol=  0.10000D-05 Strict=F.
 There are    85 symmetry adapted cartesian basis functions of A   symmetry.
 There are    85 symmetry adapted basis functions of A   symmetry.
    85 basis functions,   160 primitive gaussians,    85 cartesian basis functions
    20 alpha electrons       20 beta electrons
       nuclear repulsion energy       179.4024337190 Hartrees.
 IExCor=      4002 DFT=T Ex+Corr=B3LYP ScaHFX=  0.200000
 ScaDFX=  0.800000  0.720000  1.000000  0.810000  1.000000  0.000000
 ScaDFX=  0.000000  0.000000  0.000000  0.000000  0.000000  0.000000
 IRadAn=      5 IRanWt=     -1 IRanGd=            0 ICorTp=0 IEmpDi=  4
 NAtoms=   10 NActive=   10 NUniq=   10 SFac= 1.00D+00 NAtFMM=   60 NAOKFM=F Big=F
 Integral buffers will be    131072 words long.
 Raffenetti 2 integral format.
 Two-electron integral symmetry is turned on.
 Leave Link  301 at Fri Mar 14 15:41:45 2025, MaxMem=  8589934592 cpu:               0.6 elap:               0.2
 (Enter /home/enzo/gaussian_versions/gdv.j21/gdv/l302.exe)
 NPDir=0 NMtPBC=     1 NCelOv=     1 NCel=       1 NClECP=     1 NCelD=      1
         NCelK=      1 NCelE2=     1 NClLst=     1 CellRange=     0.0.
 One-electron integrals computed using PRISM.
 One-electron integral symmetry used in STVInt
 NBasis=    85 RedAO= T EigKep=  3.86D-03  NBF=    85
 NBsUse=    85 1.00D-06 EigRej= -1.00D+00 NBFU=    85
 Precomputing XC quadrature grid using
 IXCGrd= 4 IRadAn=           5 IRanWt=          -1 IRanGd=           0 AccXCQ= 0.00D+00.
 Generated NRdTot=       0 NPtTot=      219352 NUsed=           0 NTot=          64
 NSgBfM=    85    85    85    85    85 MxSgAt=    10 MxSgA2=    10 SizInc=   0.000
 NMBTot=     1931 MaxBatPerAtom=       84 MaxMicBPerAtom=      200 NBfPt=            15877274.
 Leave Link  302 at Fri Mar 14 15:41:46 2025, MaxMem=  8589934592 cpu:               1.2 elap:               0.2
 (Enter /home/enzo/gaussian_versions/gdv.j21/gdv/l303.exe)
 DipDrv:  MaxL=1.
 Leave Link  303 at Fri Mar 14 15:41:46 2025, MaxMem=  8589934592 cpu:               0.3 elap:               0.1
 (Enter /home/enzo/gaussian_versions/gdv.j21/gdv/l401.exe)
 Initial guess from the checkpoint file:  "/local/home/enzo/scratch/Gau-2409726.chk"
 B after Tr=     0.000000    0.000000    0.000000
         Rot=    0.999990    0.004181    0.000222    0.001453 Ang=   0.51 deg.
 AO Guess basis will be translated and rotated to current coordinates.
 JPrj=2 DoOrth=T DoCkMO=T.
 Generating alternative initial guess.
 ExpMin= 1.61D-01 ExpMax= 5.48D+03 ExpMxC= 8.25D+02 IAcc=3 IRadAn=         5 AccDes= 0.00D+00
 Harris functional with IExCor= 4002 and IRadAn=       5 diagonalized for initial guess.
 HarFok:  IExCor=    4002 AccDes= 0.00D+00 IRadAn=         5 IDoV= 1 UseB2=F ITyADJ=14 ICtDFT=  3500011
 FoFCou: FMM=F IPFlag=           0 FMFlag=      100000 FMFlg1=           0
         NFxFlg=           0 DoJE=T BraDBF=F KetDBF=T FulRan=T
         wScrn=  0.000000 ICntrl=       500 IOpCl=  0 I1Cent=   200000004 NGrid=           0
         NMat0=    1 NMatS0=      1 NMatT0=    0 NMatD0=    1 NMtDS0=    0 NMtDT0=    0
 Petite list used in FoFCou.
 Harris En= -284.439947547600    
 Leave Link  401 at Fri Mar 14 15:41:46 2025, MaxMem=  8589934592 cpu:               2.6 elap:               0.4
 (Enter /home/enzo/gaussian_versions/gdv.j21/gdv/l502.exe)
 Keep R1 ints in memory in canonical form, NReq=17617987.
 FoFCou: FMM=F IPFlag=           0 FMFlag=           0 FMFlg1=           0
         NFxFlg=           0 DoJE=F BraDBF=F KetDBF=F FulRan=T
         wScrn=  0.000000 ICntrl=       600 IOpCl=  0 I1Cent=           0 NGrid=           0
         NMat0=    1 NMatS0=   3655 NMatT0=    0 NMatD0=    1 NMtDS0=    0 NMtDT0=    0
 Symmetry not used in FoFCou.
 Two-electron integral symmetry not used.
 Closed shell SCF:
 Using DIIS extrapolation, IDIIS=  1040.
 NGot=  8589934592 LenX=  8583230350 LenY=  8583222684
 Requested convergence on RMS density matrix=1.00D-08 within 128 cycles.
 Requested convergence on MAX density matrix=1.00D-06.
 Requested convergence on             energy=1.00D-06.
 No special actions if energy rises.
 Integral accuracy reduced to 1.0D-05 until final iterations.

 Cycle   1  Pass 0  IDiag  1:
 E= -284.416842021174    
 DIIS: error= 4.17D-03 at cycle   1 NSaved=   1.
 NSaved= 1 IEnMin= 1 EnMin= -284.416842021174     IErMin= 1 ErrMin= 4.17D-03
 ErrMax= 4.17D-03  0.00D+00 EMaxC= 1.00D-01 BMatC= 1.64D-03 BMatP= 1.64D-03
 IDIUse=3 WtCom= 9.58D-01 WtEn= 4.17D-02
 Coeff-Com:  0.100D+01
 Coeff-En:   0.100D+01
 Coeff:      0.100D+01
 Gap=     1.557 Goal=   None    Shift=    0.000
 GapD=    1.557 DampG=2.000 DampE=1.000 DampFc=2.0000 IDamp=-1.
 RMSDP=8.72D-04 MaxDP=1.52D-02              OVMax= 2.28D-02

 Cycle   2  Pass 0  IDiag  1:
 E= -284.419981367375     Delta-E=       -0.003139346201 Rises=F Damp=F
 DIIS: error= 3.05D-04 at cycle   2 NSaved=   2.
 NSaved= 2 IEnMin= 2 EnMin= -284.419981367375     IErMin= 2 ErrMin= 3.05D-04
 ErrMax= 3.05D-04  0.00D+00 EMaxC= 1.00D-01 BMatC= 2.18D-05 BMatP= 1.64D-03
 IDIUse=3 WtCom= 9.97D-01 WtEn= 3.05D-03
 Coeff-Com: -0.720D-01 0.107D+01
 Coeff-En:   0.000D+00 0.100D+01
 Coeff:     -0.718D-01 0.107D+01
 Gap=     0.246 Goal=   None    Shift=    0.000
 RMSDP=1.50D-04 MaxDP=2.73D-03 DE=-3.14D-03 OVMax= 4.31D-03

 Cycle   3  Pass 0  IDiag  1:
 E= -284.420005337764     Delta-E=       -0.000023970389 Rises=F Damp=F
 DIIS: error= 4.49D-04 at cycle   3 NSaved=   3.
 NSaved= 3 IEnMin= 3 EnMin= -284.420005337764     IErMin= 2 ErrMin= 3.05D-04
 ErrMax= 4.49D-04  0.00D+00 EMaxC= 1.00D-01 BMatC= 2.42D-05 BMatP= 2.18D-05
 IDIUse=3 WtCom= 3.21D-01 WtEn= 6.79D-01
 Coeff-Com: -0.496D-01 0.620D+00 0.430D+00
 Coeff-En:   0.000D+00 0.347D-02 0.997D+00
 Coeff:     -0.159D-01 0.201D+00 0.815D+00
 Gap=     0.244 Goal=   None    Shift=    0.000
 RMSDP=1.10D-04 MaxDP=2.39D-03 DE=-2.40D-05 OVMax= 3.98D-03

 Cycle   4  Pass 0  IDiag  1:
 E= -284.419986918572     Delta-E=        0.000018419193 Rises=F Damp=F
 DIIS: error= 6.58D-04 at cycle   4 NSaved=   4.
 NSaved= 4 IEnMin= 3 EnMin= -284.420005337764     IErMin= 2 ErrMin= 3.05D-04
 ErrMax= 6.58D-04  0.00D+00 EMaxC= 1.00D-01 BMatC= 4.96D-05 BMatP= 2.18D-05
 IDIUse=3 WtCom= 2.80D-01 WtEn= 7.20D-01
 Coeff-Com: -0.199D-01 0.211D+00 0.520D+00 0.288D+00
 Coeff-En:   0.000D+00 0.000D+00 0.628D+00 0.372D+00
 Coeff:     -0.559D-02 0.593D-01 0.598D+00 0.349D+00
 Gap=     0.245 Goal=   None    Shift=    0.000
 RMSDP=5.98D-05 MaxDP=1.45D-03 DE= 1.84D-05 OVMax= 2.40D-03

 Cycle   5  Pass 0  IDiag  1:
 E= -284.420024173050     Delta-E=       -0.000037254478 Rises=F Damp=F
 DIIS: error= 7.50D-05 at cycle   5 NSaved=   5.
 NSaved= 5 IEnMin= 5 EnMin= -284.420024173050     IErMin= 5 ErrMin= 7.50D-05
 ErrMax= 7.50D-05  0.00D+00 EMaxC= 1.00D-01 BMatC= 8.45D-07 BMatP= 2.18D-05
 IDIUse=1 WtCom= 1.00D+00 WtEn= 0.00D+00
 Coeff-Com: -0.433D-02 0.328D-01 0.320D+00 0.184D+00 0.468D+00
 Coeff:     -0.433D-02 0.328D-01 0.320D+00 0.184D+00 0.468D+00
 Gap=     0.245 Goal=   None    Shift=    0.000
 RMSDP=9.55D-06 MaxDP=2.32D-04 DE=-3.73D-05 OVMax= 2.25D-04

 Initial convergence to 1.0D-05 achieved.  Increase integral accuracy.
 Cycle   6  Pass 1  IDiag  1:
 E= -284.420029234585     Delta-E=       -0.000005061535 Rises=F Damp=F
 DIIS: error= 1.08D-05 at cycle   1 NSaved=   1.
 NSaved= 1 IEnMin= 1 EnMin= -284.420029234585     IErMin= 1 ErrMin= 1.08D-05
 ErrMax= 1.08D-05  0.00D+00 EMaxC= 1.00D-01 BMatC= 1.72D-08 BMatP= 1.72D-08
 IDIUse=1 WtCom= 1.00D+00 WtEn= 0.00D+00
 Coeff-Com:  0.100D+01
 Coeff:      0.100D+01
 Gap=     0.245 Goal=   None    Shift=    0.000
 RMSDP=9.55D-06 MaxDP=2.32D-04 DE=-5.06D-06 OVMax= 6.72D-05

 Cycle   7  Pass 1  IDiag  1:
 E= -284.420029218382     Delta-E=        0.000000016202 Rises=F Damp=F
 DIIS: error= 1.54D-05 at cycle   2 NSaved=   2.
 NSaved= 2 IEnMin= 1 EnMin= -284.420029234585     IErMin= 1 ErrMin= 1.08D-05
 ErrMax= 1.54D-05  0.00D+00 EMaxC= 1.00D-01 BMatC= 4.05D-08 BMatP= 1.72D-08
 IDIUse=1 WtCom= 1.00D+00 WtEn= 0.00D+00
 Coeff-Com:  0.610D+00 0.390D+00
 Coeff:      0.610D+00 0.390D+00
 Gap=     0.245 Goal=   None    Shift=    0.000
 RMSDP=2.00D-06 MaxDP=4.07D-05 DE= 1.62D-08 OVMax= 5.86D-05

 Cycle   8  Pass 1  IDiag  1:
 E= -284.420029249337     Delta-E=       -0.000000030955 Rises=F Damp=F
 DIIS: error= 3.24D-06 at cycle   3 NSaved=   3.
 NSaved= 3 IEnMin= 3 EnMin= -284.420029249337     IErMin= 3 ErrMin= 3.24D-06
 ErrMax= 3.24D-06  0.00D+00 EMaxC= 1.00D-01 BMatC= 1.64D-09 BMatP= 1.72D-08
 IDIUse=1 WtCom= 1.00D+00 WtEn= 0.00D+00
 Coeff-Com:  0.318D+00 0.233D+00 0.448D+00
 Coeff:      0.318D+00 0.233D+00 0.448D+00
 Gap=     0.245 Goal=   None    Shift=    0.000
 RMSDP=4.27D-07 MaxDP=9.85D-06 DE=-3.10D-08 OVMax= 1.63D-05

 Cycle   9  Pass 1  IDiag  1:
 E= -284.420029250469     Delta-E=       -0.000000001132 Rises=F Damp=F
 DIIS: error= 1.04D-06 at cycle   4 NSaved=   4.
 NSaved= 4 IEnMin= 4 EnMin= -284.420029250469     IErMin= 4 ErrMin= 1.04D-06
 ErrMax= 1.04D-06  0.00D+00 EMaxC= 1.00D-01 BMatC= 1.46D-10 BMatP= 1.64D-09
 IDIUse=1 WtCom= 1.00D+00 WtEn= 0.00D+00
 Coeff-Com:  0.750D-01 0.628D-01 0.253D+00 0.610D+00
 Coeff:      0.750D-01 0.628D-01 0.253D+00 0.610D+00
 Gap=     0.245 Goal=   None    Shift=    0.000
 RMSDP=1.34D-07 MaxDP=2.32D-06 DE=-1.13D-09 OVMax= 4.22D-06

 Cycle  10  Pass 1  IDiag  1:
 E= -284.420029250591     Delta-E=       -0.000000000122 Rises=F Damp=F
 DIIS: error= 1.66D-07 at cycle   5 NSaved=   5.
 NSaved= 5 IEnMin= 5 EnMin= -284.420029250591     IErMin= 5 ErrMin= 1.66D-07
 ErrMax= 1.66D-07  0.00D+00 EMaxC= 1.00D-01 BMatC= 4.99D-12 BMatP= 1.46D-10
 IDIUse=1 WtCom= 1.00D+00 WtEn= 0.00D+00
 Coeff-Com: -0.176D-01-0.110D-01 0.125D-01 0.175D+00 0.841D+00
 Coeff:     -0.176D-01-0.110D-01 0.125D-01 0.175D+00 0.841D+00
 Gap=     0.245 Goal=   None    Shift=    0.000
 RMSDP=4.58D-08 MaxDP=5.58D-07 DE=-1.22D-10 OVMax= 1.64D-06

 Cycle  11  Pass 1  IDiag  1:
 E= -284.420029250596     Delta-E=       -0.000000000005 Rises=F Damp=F
 DIIS: error= 9.65D-08 at cycle   6 NSaved=   6.
 NSaved= 6 IEnMin= 6 EnMin= -284.420029250596     IErMin= 6 ErrMin= 9.65D-08
 ErrMax= 9.65D-08  0.00D+00 EMaxC= 1.00D-01 BMatC= 1.00D-12 BMatP= 4.99D-12
 IDIUse=1 WtCom= 1.00D+00 WtEn= 0.00D+00
 Coeff-Com: -0.131D-01-0.891D-02-0.758D-02 0.573D-01 0.431D+00 0.542D+00
 Coeff:     -0.131D-01-0.891D-02-0.758D-02 0.573D-01 0.431D+00 0.542D+00
 Gap=     0.245 Goal=   None    Shift=    0.000
 RMSDP=1.15D-08 MaxDP=1.84D-07 DE=-4.83D-12 OVMax= 2.81D-07

 Cycle  12  Pass 1  IDiag  1:
 E= -284.420029250598     Delta-E=       -0.000000000001 Rises=F Damp=F
 DIIS: error= 2.48D-08 at cycle   7 NSaved=   7.
 NSaved= 7 IEnMin= 7 EnMin= -284.420029250598     IErMin= 7 ErrMin= 2.48D-08
 ErrMax= 2.48D-08  0.00D+00 EMaxC= 1.00D-01 BMatC= 8.41D-14 BMatP= 1.00D-12
 IDIUse=1 WtCom= 1.00D+00 WtEn= 0.00D+00
 Coeff-Com: -0.480D-02-0.338D-02-0.552D-02 0.984D-02 0.127D+00 0.266D+00
 Coeff-Com:  0.611D+00
 Coeff:     -0.480D-02-0.338D-02-0.552D-02 0.984D-02 0.127D+00 0.266D+00
 Coeff:      0.611D+00
 Gap=     0.245 Goal=   None    Shift=    0.000
 RMSDP=3.46D-09 MaxDP=7.14D-08 DE=-1.19D-12 OVMax= 1.13D-07

 SCF Done:  E(RB3LYP) =  -284.420029251     A.U. after   12 cycles
            NFock= 12  Conv=0.35D-08     -V/T= 2.0089
 KE= 2.819132458953D+02 PE=-1.025045318864D+03 EE= 2.793096099995D+02
 Leave Link  502 at Fri Mar 14 15:41:47 2025, MaxMem=  8589934592 cpu:              12.2 elap:               1.3
 (Enter /home/enzo/gaussian_versions/gdv.j21/gdv/l701.exe)
 ... and contract with generalized density number  0.
 Compute integral first derivatives.
 Leave Link  701 at Fri Mar 14 15:41:48 2025, MaxMem=  8589934592 cpu:               2.1 elap:               0.4
 (Enter /home/enzo/gaussian_versions/gdv.j21/gdv/l702.exe)
 L702 exits ... SP integral derivatives will be done elsewhere.
 Leave Link  702 at Fri Mar 14 15:41:48 2025, MaxMem=  8589934592 cpu:               0.3 elap:               0.2
 (Enter /home/enzo/gaussian_versions/gdv.j21/gdv/l703.exe)
 Integral derivatives from FoFJK, PRISM(SPDF).
 Compute integral first derivatives, UseDBF=F ICtDFT=           0.
 Calling FoFJK, ICntrl=      2127 FMM=F ISym2X=0 I1Cent= 0 IOpClX= 0 NMat=1 NMatS=1 NMatT=0.
 FoFJK:  IHMeth= 1 ICntrl=    2127 DoSepK=F KAlg= 0 I1Cent=           0 FoldK=F
 IRaf=         0 NMat=       1 IRICut=       1 DoRegI=T DoRafI=F ISym2E= 0 IDoP0=0 IntGTp=1.
 FoFCou: FMM=F IPFlag=           0 FMFlag=      100000 FMFlg1=         800
         NFxFlg=           0 DoJE=F BraDBF=F KetDBF=F FulRan=T
         wScrn=  0.000000 ICntrl=      2127 IOpCl=  0 I1Cent=           0 NGrid=           0
         NMat0=    1 NMatS0=      1 NMatT0=    0 NMatD0=    1 NMtDS0=    0 NMtDT0=    0
 Symmetry not used in FoFCou.
 Leave Link  703 at Fri Mar 14 15:41:49 2025, MaxMem=  8589934592 cpu:               3.4 elap:               0.4
 (Enter /home/enzo/gaussian_versions/gdv.j21/gdv/l716.exe)
 Dipole        = 7.00831928D-02-5.42920223D-01 5.67241327D-01
 ***** Axes restored to original set *****
 -------------------------------------------------------------------
 Center     Atomic                   Forces (Hartrees/Bohr)
 Number     Number              X              Y              Z
 -------------------------------------------------------------------
      1        7          -0.000825879   -0.000288326    0.000405183
      2        6          -0.000028697    0.001528923   -0.000006063
      3        6           0.002112670   -0.000628884   -0.000775821
      4        8          -0.000145953    0.000190766    0.000460022
      5        8          -0.001241804   -0.000006427    0.000094426
      6        1          -0.000013837    0.000227258   -0.000204644
      7        1           0.000584174   -0.000273754   -0.000198240
      8        1          -0.000204271   -0.000459196    0.000404761
      9        1           0.000186262   -0.000145902   -0.000085207
     10        1          -0.000422666   -0.000144459   -0.000094419
 -------------------------------------------------------------------
 Cartesian Forces:  Max     0.002112670 RMS     0.000626798
 Leave Link  716 at Fri Mar 14 15:41:49 2025, MaxMem=  8589934592 cpu:               0.2 elap:               0.2
 (Enter /home/enzo/gaussian_versions/gdv.j21/gdv/l103.exe)

 GradGradGradGradGradGradGradGradGradGradGradGradGradGradGradGradGradGrad
 Berny optimization.
 Using GEDIIS/GDIIS optimizer.
 FormGI is forming the generalized inverse of G from B-inverse, IUseBI=4.
 Internal  Forces:  Max     0.001468370 RMS     0.000398263
 Search for a local minimum.
 Step number   8 out of a maximum of   46
 All quantities printed in internal units (Hartrees-Bohrs-Radians)
 RMS Force = .39826D-03 SwitMx=.10000D-02 MixMth= 2
 Mixed Optimization -- En-DIIS/RFO-DIIS
 Swapping is turned off.
 Update second derivatives using D2CorX and points    7    8
 DE= -1.24D-04 DEPred=-1.36D-04 R= 9.08D-01
 TightC=F SS=  1.41D+00  RLast= 2.54D-01 DXNew= 4.0006D+00 7.6173D-01
 Trust test= 9.08D-01 RLast= 2.54D-01 DXMaxT set to 2.38D+00
 ITU=  1  1  1  1  1  1  1  0
     Eigenvalues ---    0.00225   0.00872   0.01878   0.04130   0.04419
     Eigenvalues ---    0.05328   0.06590   0.09161   0.13377   0.15117
     Eigenvalues ---    0.16160   0.18150   0.20162   0.22533   0.26950
     Eigenvalues ---    0.31032   0.32657   0.32854   0.36109   0.40498
     Eigenvalues ---    0.40972   0.45287   0.51408   0.81902
 En-DIIS/RFO-DIIS/Sim-DIIS IScMMF=       -3 using points:     8    7
 RFO step:  Lambda=-2.84824273D-05.
 NNeg= 0 NGDIIS= 2 SimSw=  2.50D-01 Rises=F DC= -1.24D-04 SmlDif=  1.00D-05
 NRisDI= 0 DoIntr=F SqrtH=F CThrHd= 10.0 CDAdj=  3.0
 RMS Error=  0.3554886039D-02 NUsed= 2 OKEnD=T EnDIS=F
 InvSVX:  RCond= 7.17D-02 Info=           0 Equed=N FErr=  9.17D-16 BErr=  6.21D-17
 DidBck=FF Rises=F RFO-DIIS coefs:    0.97814    0.02186
 Iteration  1 RMS(Cart)=  0.00377220 RMS(Int)=  0.00001514
 Iteration  2 RMS(Cart)=  0.00001441 RMS(Int)=  0.00000595
 Iteration  3 RMS(Cart)=  0.00000000 RMS(Int)=  0.00000595
 Variable       Old X    -DE/DX   Delta X   Delta X   Delta X     New X
                                 (Linear)    (Quad)   (Total)
    R1        2.74754   0.00040  -0.00014   0.00189   0.00175   2.74929
    R2        1.92366  -0.00002   0.00001   0.00011   0.00012   1.92378
    R3        1.92176  -0.00059   0.00005  -0.00155  -0.00150   1.92025
    R4        2.86018   0.00062  -0.00010   0.00279   0.00269   2.86287
    R5        2.09566  -0.00061   0.00002  -0.00215  -0.00212   2.09354
    R6        2.07166  -0.00013   0.00003  -0.00050  -0.00047   2.07119
    R7        2.28890  -0.00036  -0.00003  -0.00005  -0.00007   2.28883
    R8        2.56010  -0.00147   0.00013  -0.00325  -0.00312   2.55697
    R9        1.84432  -0.00021  -0.00001  -0.00006  -0.00006   1.84426
    A1        1.90350  -0.00025   0.00024  -0.00425  -0.00401   1.89949
    A2        1.92916  -0.00027  -0.00018  -0.00231  -0.00250   1.92666
    A3        1.88663  -0.00002  -0.00002  -0.00330  -0.00335   1.88329
    A4        1.91692  -0.00015  -0.00008   0.00006  -0.00003   1.91689
    A5        2.01853  -0.00018   0.00016  -0.00330  -0.00315   2.01538
    A6        1.93115   0.00024  -0.00014   0.00258   0.00244   1.93359
    A7        1.84020   0.00021   0.00007   0.00165   0.00172   1.84192
    A8        1.90106  -0.00015  -0.00003  -0.00214  -0.00217   1.89889
    A9        1.85078   0.00004   0.00002   0.00107   0.00110   1.85188
   A10        2.18037   0.00025   0.00011   0.00066   0.00076   2.18113
   A11        1.95483  -0.00072  -0.00014  -0.00194  -0.00209   1.95274
   A12        2.14683   0.00049   0.00002   0.00169   0.00170   2.14852
   A13        1.85615  -0.00075   0.00005  -0.00351  -0.00346   1.85269
    D1       -0.72071  -0.00022  -0.00174  -0.00261  -0.00434  -0.72506
    D2        1.35882  -0.00019  -0.00160  -0.00267  -0.00427   1.35455
    D3       -2.82006  -0.00008  -0.00156  -0.00163  -0.00318  -2.82324
    D4       -2.79256   0.00012  -0.00175   0.00544   0.00368  -2.78888
    D5       -0.71303   0.00015  -0.00162   0.00537   0.00375  -0.70928
    D6        1.39128   0.00026  -0.00158   0.00642   0.00484   1.39611
    D7        0.40147  -0.00027  -0.00133  -0.00838  -0.00971   0.39175
    D8       -2.79061   0.00003  -0.00146   0.00050  -0.00097  -2.79158
    D9       -1.78439  -0.00009  -0.00152  -0.00544  -0.00696  -1.79136
   D10        1.30671   0.00021  -0.00165   0.00344   0.00179   1.30850
   D11        2.51897  -0.00017  -0.00157  -0.00653  -0.00810   2.51088
   D12       -0.67311   0.00013  -0.00170   0.00236   0.00065  -0.67245
   D13       -3.08275  -0.00015  -0.00011  -0.00538  -0.00549  -3.08825
   D14        0.00948   0.00014  -0.00023   0.00327   0.00304   0.01251
         Item               Value     Threshold  Converged?
 Maximum Force            0.001468     0.000450     NO 
 RMS     Force            0.000398     0.000300     NO 
 Maximum Displacement     0.010558     0.001800     NO 
 RMS     Displacement     0.003774     0.001200     NO 
 Predicted change in Energy=-1.422531D-05
 Lowest energy point so far.  Saving SCF results.
 GradGradGradGradGradGradGradGradGradGradGradGradGradGradGradGradGradGrad

 Leave Link  103 at Fri Mar 14 15:41:49 2025, MaxMem=  8589934592 cpu:               0.4 elap:               0.2
 (Enter /home/enzo/gaussian_versions/gdv.j21/gdv/l202.exe)
                          Input orientation:                          
 ---------------------------------------------------------------------
 Center     Atomic      Atomic             Coordinates (Angstroms)
 Number     Number       Type             X           Y           Z
 ---------------------------------------------------------------------
      1          7           0       -1.957113    0.006065    0.148218
      2          6           0       -0.762713    0.835595    0.104563
      3          6           0        0.460903   -0.035343   -0.093815
      4          8           0        0.451172   -1.147065   -0.574418
      5          8           0        1.596122    0.596024    0.285016
      6          1           0       -1.883651   -0.713749   -0.567911
      7          1           0       -2.782740    0.563376   -0.052563
      8          1           0       -0.730970    1.582511   -0.713028
      9          1           0       -0.646976    1.400196    1.036822
     10          1           0        2.328588   -0.014582    0.077381
 ---------------------------------------------------------------------
                    Distance matrix (angstroms):
                    1          2          3          4          5
     1  N    0.000000
     2  C    1.454860   0.000000
     3  C    2.430452   1.514967   0.000000
     4  O    2.766180   2.421874   1.211197   0.000000
     5  O    3.604475   2.377827   1.353092   2.255636   0.000000
     6  H    1.018022   2.027114   2.486350   2.374701   3.814683
     7  H    1.016154   2.044334   3.298694   3.695420   4.391976
     8  H    2.174937   1.107855   2.102721   2.977794   2.717462
     9  H    2.109426   1.096028   2.136939   3.207891   2.498678
    10  H    4.286337   3.206195   1.875630   2.287367   0.975940
                    6          7          8          9         10
     6  H    0.000000
     7  H    1.644686   0.000000
     8  H    2.573430   2.384242   0.000000
     9  H    2.928019   2.539393   1.761326   0.000000
    10  H    4.318356   5.145542   3.540670   3.431634   0.000000
 Stoichiometry    C2H5NO2
 Framework group  C1[X(C2H5NO2)]
 Deg. of freedom    24
 Full point group                 C1      NOp   1
 RotChk:  IX=0 Diff= 4.41D-03
 Largest Abelian subgroup         C1      NOp   1
 Largest concise Abelian subgroup C1      NOp   1
                         Standard orientation:                         
 ---------------------------------------------------------------------
 Center     Atomic      Atomic             Coordinates (Angstroms)
 Number     Number       Type             X           Y           Z
 ---------------------------------------------------------------------
      1          7           0       -1.880236    0.104144   -0.223747
      2          6           0       -0.733081   -0.714486    0.137495
      3          6           0        0.538151    0.100890    0.018100
      4          8           0        0.593358    1.310224    0.056353
      5          8           0        1.633938   -0.685896   -0.087148
      6          1           0       -1.761783    1.031729    0.178652
      7          1           0       -2.733782   -0.294821    0.156849
      8          1           0       -0.736362   -1.109046    1.172703
      9          1           0       -0.655710   -1.587657   -0.520429
     10          1           0        2.400501   -0.082263   -0.108762
 ---------------------------------------------------------------------
 Rotational constants (GHZ):          10.2989628           3.9520377           2.9493808
 Leave Link  202 at Fri Mar 14 15:41:49 2025, MaxMem=  8589934592 cpu:               0.3 elap:               0.2
 (Enter /home/enzo/gaussian_versions/gdv.j21/gdv/l301.exe)
 Standard basis: 6-31G(d) (6D, 7F)
 Ernie: Thresh=  0.10000D-02 Tol=  0.10000D-05 Strict=F.
 There are    85 symmetry adapted cartesian basis functions of A   symmetry.
 There are    85 symmetry adapted basis functions of A   symmetry.
    85 basis functions,   160 primitive gaussians,    85 cartesian basis functions
    20 alpha electrons       20 beta electrons
       nuclear repulsion energy       179.4187014382 Hartrees.
 IExCor=      4002 DFT=T Ex+Corr=B3LYP ScaHFX=  0.200000
 ScaDFX=  0.800000  0.720000  1.000000  0.810000  1.000000  0.000000
 ScaDFX=  0.000000  0.000000  0.000000  0.000000  0.000000  0.000000
 IRadAn=      5 IRanWt=     -1 IRanGd=            0 ICorTp=0 IEmpDi=  4
 NAtoms=   10 NActive=   10 NUniq=   10 SFac= 1.00D+00 NAtFMM=   60 NAOKFM=F Big=F
 Integral buffers will be    131072 words long.
 Raffenetti 2 integral format.
 Two-electron integral symmetry is turned on.
 Leave Link  301 at Fri Mar 14 15:41:49 2025, MaxMem=  8589934592 cpu:               0.3 elap:               0.1
 (Enter /home/enzo/gaussian_versions/gdv.j21/gdv/l302.exe)
 NPDir=0 NMtPBC=     1 NCelOv=     1 NCel=       1 NClECP=     1 NCelD=      1
         NCelK=      1 NCelE2=     1 NClLst=     1 CellRange=     0.0.
 One-electron integrals computed using PRISM.
 One-electron integral symmetry used in STVInt
 NBasis=    85 RedAO= T EigKep=  3.86D-03  NBF=    85
 NBsUse=    85 1.00D-06 EigRej= -1.00D+00 NBFU=    85
 Precomputing XC quadrature grid using
 IXCGrd= 4 IRadAn=           5 IRanWt=          -1 IRanGd=           0 AccXCQ= 0.00D+00.
 Generated NRdTot=       0 NPtTot=      219414 NUsed=           0 NTot=          64
 NSgBfM=    85    85    85    85    85 MxSgAt=    10 MxSgA2=    10 SizInc=   0.000
 NMBTot=     1940 MaxBatPerAtom=       84 MaxMicBPerAtom=      199 NBfPt=            15882676.
 Leave Link  302 at Fri Mar 14 15:41:50 2025, MaxMem=  8589934592 cpu:               1.0 elap:               0.3
 (Enter /home/enzo/gaussian_versions/gdv.j21/gdv/l303.exe)
 DipDrv:  MaxL=1.
 Leave Link  303 at Fri Mar 14 15:41:50 2025, MaxMem=  8589934592 cpu:               0.3 elap:               0.1
 (Enter /home/enzo/gaussian_versions/gdv.j21/gdv/l401.exe)
 Initial guess from the checkpoint file:  "/local/home/enzo/scratch/Gau-2409726.chk"
 B after Tr=    -0.000000   -0.000000    0.000000
         Rot=    1.000000   -0.000290    0.000045    0.000269 Ang=  -0.05 deg.
 AO Guess basis will be translated and rotated to current coordinates.
 JPrj=2 DoOrth=T DoCkMO=T.
 Leave Link  401 at Fri Mar 14 15:41:50 2025, MaxMem=  8589934592 cpu:               0.4 elap:               0.2
 (Enter /home/enzo/gaussian_versions/gdv.j21/gdv/l502.exe)
 Keep R1 ints in memory in canonical form, NReq=17617987.
 FoFCou: FMM=F IPFlag=           0 FMFlag=           0 FMFlg1=           0
         NFxFlg=           0 DoJE=F BraDBF=F KetDBF=F FulRan=T
         wScrn=  0.000000 ICntrl=       600 IOpCl=  0 I1Cent=           0 NGrid=           0
         NMat0=    1 NMatS0=   3655 NMatT0=    0 NMatD0=    1 NMtDS0=    0 NMtDT0=    0
 Symmetry not used in FoFCou.
 Two-electron integral symmetry not used.
 Closed shell SCF:
 Using DIIS extrapolation, IDIIS=  1040.
 NGot=  8589934592 LenX=  8583230350 LenY=  8583222684
 Requested convergence on RMS density matrix=1.00D-08 within 128 cycles.
 Requested convergence on MAX density matrix=1.00D-06.
 Requested convergence on             energy=1.00D-06.
 No special actions if energy rises.

 Cycle   1  Pass 1  IDiag  1:
 E= -284.420012072359    
 DIIS: error= 3.09D-04 at cycle   1 NSaved=   1.
 NSaved= 1 IEnMin= 1 EnMin= -284.420012072359     IErMin= 1 ErrMin= 3.09D-04
 ErrMax= 3.09D-04  0.00D+00 EMaxC= 1.00D-01 BMatC= 1.76D-05 BMatP= 1.76D-05
 IDIUse=3 WtCom= 9.97D-01 WtEn= 3.09D-03
 Coeff-Com:  0.100D+01
 Coeff-En:   0.100D+01
 Coeff:      0.100D+01
 Gap=     1.555 Goal=   None    Shift=    0.000
 RMSDP=9.52D-05 MaxDP=1.34D-03              OVMax= 1.79D-03

 Cycle   2  Pass 1  IDiag  1:
 E= -284.420042336088     Delta-E=       -0.000030263729 Rises=F Damp=F
 DIIS: error= 4.98D-05 at cycle   2 NSaved=   2.
 NSaved= 2 IEnMin= 2 EnMin= -284.420042336088     IErMin= 2 ErrMin= 4.98D-05
 ErrMax= 4.98D-05  0.00D+00 EMaxC= 1.00D-01 BMatC= 3.96D-07 BMatP= 1.76D-05
 IDIUse=1 WtCom= 1.00D+00 WtEn= 0.00D+00
 Coeff-Com: -0.258D-01 0.103D+01
 Coeff:     -0.258D-01 0.103D+01
 Gap=     0.246 Goal=   None    Shift=    0.000
 RMSDP=1.51D-05 MaxDP=1.96D-04 DE=-3.03D-05 OVMax= 3.23D-04

 Cycle   3  Pass 1  IDiag  1:
 E= -284.420042681266     Delta-E=       -0.000000345178 Rises=F Damp=F
 DIIS: error= 3.64D-05 at cycle   3 NSaved=   3.
 NSaved= 3 IEnMin= 3 EnMin= -284.420042681266     IErMin= 3 ErrMin= 3.64D-05
 ErrMax= 3.64D-05  0.00D+00 EMaxC= 1.00D-01 BMatC= 2.49D-07 BMatP= 3.96D-07
 IDIUse=1 WtCom= 1.00D+00 WtEn= 0.00D+00
 Coeff-Com: -0.323D-01 0.458D+00 0.575D+00
 Coeff:     -0.323D-01 0.458D+00 0.575D+00
 Gap=     0.246 Goal=   None    Shift=    0.000
 RMSDP=5.56D-06 MaxDP=1.17D-04 DE=-3.45D-07 OVMax= 9.33D-05

 Cycle   4  Pass 1  IDiag  1:
 E= -284.420042835728     Delta-E=       -0.000000154462 Rises=F Damp=F
 DIIS: error= 2.13D-05 at cycle   4 NSaved=   4.
 NSaved= 4 IEnMin= 4 EnMin= -284.420042835728     IErMin= 4 ErrMin= 2.13D-05
 ErrMax= 2.13D-05  0.00D+00 EMaxC= 1.00D-01 BMatC= 3.84D-08 BMatP= 2.49D-07
 IDIUse=1 WtCom= 1.00D+00 WtEn= 0.00D+00
 Coeff-Com: -0.154D-01 0.160D+00 0.326D+00 0.529D+00
 Coeff:     -0.154D-01 0.160D+00 0.326D+00 0.529D+00
 Gap=     0.246 Goal=   None    Shift=    0.000
 RMSDP=1.77D-06 MaxDP=3.14D-05 DE=-1.54D-07 OVMax= 4.19D-05

 Cycle   5  Pass 1  IDiag  1:
 E= -284.420042863343     Delta-E=       -0.000000027615 Rises=F Damp=F
 DIIS: error= 4.10D-06 at cycle   5 NSaved=   5.
 NSaved= 5 IEnMin= 5 EnMin= -284.420042863343     IErMin= 5 ErrMin= 4.10D-06
 ErrMax= 4.10D-06  0.00D+00 EMaxC= 1.00D-01 BMatC= 1.07D-09 BMatP= 3.84D-08
 IDIUse=1 WtCom= 1.00D+00 WtEn= 0.00D+00
 Coeff-Com: -0.383D-02 0.330D-01 0.920D-01 0.210D+00 0.669D+00
 Coeff:     -0.383D-02 0.330D-01 0.920D-01 0.210D+00 0.669D+00
 Gap=     0.246 Goal=   None    Shift=    0.000
 RMSDP=4.86D-07 MaxDP=9.68D-06 DE=-2.76D-08 OVMax= 1.35D-05

 Cycle   6  Pass 1  IDiag  1:
 E= -284.420042863948     Delta-E=       -0.000000000605 Rises=F Damp=F
 DIIS: error= 1.90D-06 at cycle   6 NSaved=   6.
 NSaved= 6 IEnMin= 6 EnMin= -284.420042863948     IErMin= 6 ErrMin= 1.90D-06
 ErrMax= 1.90D-06  0.00D+00 EMaxC= 1.00D-01 BMatC= 4.95D-10 BMatP= 1.07D-09
 IDIUse=1 WtCom= 1.00D+00 WtEn= 0.00D+00
 Coeff-Com: -0.380D-03-0.108D-02 0.133D-01 0.589D-01 0.435D+00 0.494D+00
 Coeff:     -0.380D-03-0.108D-02 0.133D-01 0.589D-01 0.435D+00 0.494D+00
 Gap=     0.246 Goal=   None    Shift=    0.000
 RMSDP=2.53D-07 MaxDP=5.67D-06 DE=-6.05D-10 OVMax= 9.87D-06

 Cycle   7  Pass 1  IDiag  1:
 E= -284.420042864288     Delta-E=       -0.000000000340 Rises=F Damp=F
 DIIS: error= 7.67D-07 at cycle   7 NSaved=   7.
 NSaved= 7 IEnMin= 7 EnMin= -284.420042864288     IErMin= 7 ErrMin= 7.67D-07
 ErrMax= 7.67D-07  0.00D+00 EMaxC= 1.00D-01 BMatC= 6.81D-11 BMatP= 4.95D-10
 IDIUse=1 WtCom= 1.00D+00 WtEn= 0.00D+00
 Coeff-Com:  0.448D-03-0.691D-02-0.704D-02 0.414D-02 0.181D+00 0.316D+00
 Coeff-Com:  0.513D+00
 Coeff:      0.448D-03-0.691D-02-0.704D-02 0.414D-02 0.181D+00 0.316D+00
 Coeff:      0.513D+00
 Gap=     0.246 Goal=   None    Shift=    0.000
 RMSDP=9.31D-08 MaxDP=1.76D-06 DE=-3.40D-10 OVMax= 3.01D-06

 Cycle   8  Pass 1  IDiag  1:
 E= -284.420042864343     Delta-E=       -0.000000000055 Rises=F Damp=F
 DIIS: error= 9.83D-08 at cycle   8 NSaved=   8.
 NSaved= 8 IEnMin= 8 EnMin= -284.420042864343     IErMin= 8 ErrMin= 9.83D-08
 ErrMax= 9.83D-08  0.00D+00 EMaxC= 1.00D-01 BMatC= 9.97D-13 BMatP= 6.81D-11
 IDIUse=1 WtCom= 1.00D+00 WtEn= 0.00D+00
 Coeff-Com:  0.148D-03-0.200D-02-0.280D-02-0.152D-02 0.312D-01 0.629D-01
 Coeff-Com:  0.166D+00 0.747D+00
 Coeff:      0.148D-03-0.200D-02-0.280D-02-0.152D-02 0.312D-01 0.629D-01
 Coeff:      0.166D+00 0.747D+00
 Gap=     0.246 Goal=   None    Shift=    0.000
 RMSDP=1.36D-08 MaxDP=2.38D-07 DE=-5.46D-11 OVMax= 3.18D-07

 Cycle   9  Pass 1  IDiag  1:
 E= -284.420042864343     Delta-E=        0.000000000000 Rises=F Damp=F
 DIIS: error= 4.78D-08 at cycle   9 NSaved=   9.
 NSaved= 9 IEnMin= 8 EnMin= -284.420042864343     IErMin= 9 ErrMin= 4.78D-08
 ErrMax= 4.78D-08  0.00D+00 EMaxC= 1.00D-01 BMatC= 2.43D-13 BMatP= 9.97D-13
 IDIUse=1 WtCom= 1.00D+00 WtEn= 0.00D+00
 Coeff-Com:  0.264D-04-0.256D-03-0.603D-03-0.988D-03-0.282D-02-0.998D-03
 Coeff-Com:  0.322D-01 0.397D+00 0.577D+00
 Coeff:      0.264D-04-0.256D-03-0.603D-03-0.988D-03-0.282D-02-0.998D-03
 Coeff:      0.322D-01 0.397D+00 0.577D+00
 Gap=     0.246 Goal=   None    Shift=    0.000
 RMSDP=5.19D-09 MaxDP=1.46D-07 DE= 3.41D-13 OVMax= 1.37D-07

 SCF Done:  E(RB3LYP) =  -284.420042864     A.U. after    9 cycles
            NFock=  9  Conv=0.52D-08     -V/T= 2.0089
 KE= 2.819183729437D+02 PE=-1.025077394668D+03 EE= 2.793202774218D+02
 Leave Link  502 at Fri Mar 14 15:41:51 2025, MaxMem=  8589934592 cpu:              10.7 elap:               1.1
 (Enter /home/enzo/gaussian_versions/gdv.j21/gdv/l701.exe)
 ... and contract with generalized density number  0.
 Compute integral first derivatives.
 Leave Link  701 at Fri Mar 14 15:41:51 2025, MaxMem=  8589934592 cpu:               1.6 elap:               0.4
 (Enter /home/enzo/gaussian_versions/gdv.j21/gdv/l702.exe)
 L702 exits ... SP integral derivatives will be done elsewhere.
 Leave Link  702 at Fri Mar 14 15:41:52 2025, MaxMem=  8589934592 cpu:               0.3 elap:               0.2
 (Enter /home/enzo/gaussian_versions/gdv.j21/gdv/l703.exe)
 Integral derivatives from FoFJK, PRISM(SPDF).
 Compute integral first derivatives, UseDBF=F ICtDFT=           0.
 Calling FoFJK, ICntrl=      2127 FMM=F ISym2X=0 I1Cent= 0 IOpClX= 0 NMat=1 NMatS=1 NMatT=0.
 FoFJK:  IHMeth= 1 ICntrl=    2127 DoSepK=F KAlg= 0 I1Cent=           0 FoldK=F
 IRaf=         0 NMat=       1 IRICut=       1 DoRegI=T DoRafI=F ISym2E= 0 IDoP0=0 IntGTp=1.
 FoFCou: FMM=F IPFlag=           0 FMFlag=      100000 FMFlg1=         800
         NFxFlg=           0 DoJE=F BraDBF=F KetDBF=F FulRan=T
         wScrn=  0.000000 ICntrl=      2127 IOpCl=  0 I1Cent=           0 NGrid=           0
         NMat0=    1 NMatS0=      1 NMatT0=    0 NMatD0=    1 NMtDS0=    0 NMtDT0=    0
 Symmetry not used in FoFCou.
 Leave Link  703 at Fri Mar 14 15:41:52 2025, MaxMem=  8589934592 cpu:               4.0 elap:               0.5
 (Enter /home/enzo/gaussian_versions/gdv.j21/gdv/l716.exe)
 Dipole        = 7.53584403D-02-5.48376735D-01 5.72292289D-01
 ***** Axes restored to original set *****
 -------------------------------------------------------------------
 Center     Atomic                   Forces (Hartrees/Bohr)
 Number     Number              X              Y              Z
 -------------------------------------------------------------------
      1        7           0.000149353   -0.000409829    0.000357832
      2        6           0.000103146    0.000599688   -0.000407615
      3        6          -0.000027230   -0.000553373    0.000154194
      4        8           0.000045902    0.000344594    0.000046094
      5        8          -0.000089202   -0.000039473   -0.000121742
      6        1          -0.000063739   -0.000083910   -0.000039277
      7        1          -0.000134636    0.000201535   -0.000166812
      8        1           0.000034774    0.000035701    0.000100304
      9        1          -0.000041923   -0.000140846    0.000064533
     10        1           0.000023554    0.000045914    0.000012490
 -------------------------------------------------------------------
 Cartesian Forces:  Max     0.000599688 RMS     0.000221594
 Leave Link  716 at Fri Mar 14 15:41:52 2025, MaxMem=  8589934592 cpu:               0.2 elap:               0.1
 (Enter /home/enzo/gaussian_versions/gdv.j21/gdv/l103.exe)

 GradGradGradGradGradGradGradGradGradGradGradGradGradGradGradGradGradGrad
 Berny optimization.
 Using GEDIIS/GDIIS optimizer.
 FormGI is forming the generalized inverse of G from B-inverse, IUseBI=4.
 Internal  Forces:  Max     0.000334867 RMS     0.000114541
 Search for a local minimum.
 Step number   9 out of a maximum of   46
 All quantities printed in internal units (Hartrees-Bohrs-Radians)
 RMS Force = .11454D-03 SwitMx=.10000D-02 MixMth= 2
 Mixed Optimization -- En-DIIS/RFO-DIIS
 Swapping is turned off.
 Update second derivatives using D2CorX and points    7    8    9
 DE= -1.36D-05 DEPred=-1.42D-05 R= 9.57D-01
 TightC=F SS=  1.41D+00  RLast= 2.13D-02 DXNew= 4.0006D+00 6.4044D-02
 Trust test= 9.57D-01 RLast= 2.13D-02 DXMaxT set to 2.38D+00
 ITU=  1  1  1  1  1  1  1  1  0
     Eigenvalues ---    0.00212   0.00854   0.01879   0.04028   0.04466
     Eigenvalues ---    0.06008   0.06569   0.09161   0.13816   0.15198
     Eigenvalues ---    0.16377   0.18490   0.20149   0.22719   0.26531
     Eigenvalues ---    0.30028   0.32623   0.32832   0.35440   0.40742
     Eigenvalues ---    0.41463   0.45379   0.51651   0.80727
 En-DIIS/RFO-DIIS/Sim-DIIS IScMMF=       -3 using points:     9    8    7
 RFO step:  Lambda=-3.66189784D-06.
 NNeg= 0 NGDIIS= 3 SimSw=  2.50D-01 Rises=F DC= -1.36D-05 SmlDif=  1.00D-05
 NRisDI= 0 DoIntr=F SqrtH=F CThrHd= 10.0 CDAdj=  3.0
 RMS Error=  0.3598487178D-02 NUsed= 3 OKEnD=T EnDIS=F
 InvSVX:  RCond= 7.14D-05 Info=           0 Equed=N FErr=  3.97D-15 BErr=  8.65D-17
 DidBck=FF Rises=F RFO-DIIS coefs:    1.10930   -0.03738   -0.07193
 Iteration  1 RMS(Cart)=  0.00317258 RMS(Int)=  0.00000983
 Iteration  2 RMS(Cart)=  0.00000987 RMS(Int)=  0.00000141
 Iteration  3 RMS(Cart)=  0.00000000 RMS(Int)=  0.00000141
 Variable       Old X    -DE/DX   Delta X   Delta X   Delta X     New X
                                 (Linear)    (Quad)   (Total)
    R1        2.74929   0.00021   0.00064  -0.00003   0.00061   2.74990
    R2        1.92378   0.00008  -0.00003   0.00026   0.00023   1.92401
    R3        1.92025   0.00025  -0.00032   0.00073   0.00041   1.92066
    R4        2.86287   0.00007   0.00061  -0.00012   0.00049   2.86336
    R5        2.09354  -0.00005  -0.00031  -0.00001  -0.00032   2.09322
    R6        2.07119  -0.00002  -0.00015   0.00008  -0.00007   2.07112
    R7        2.28883  -0.00033   0.00008  -0.00043  -0.00035   2.28848
    R8        2.55697  -0.00008  -0.00076   0.00037  -0.00039   2.55658
    R9        1.84426  -0.00001   0.00001  -0.00001  -0.00000   1.84426
    A1        1.89949   0.00014  -0.00124   0.00120  -0.00004   1.89945
    A2        1.92666  -0.00021   0.00032  -0.00171  -0.00139   1.92526
    A3        1.88329  -0.00002  -0.00030  -0.00050  -0.00080   1.88249
    A4        1.91689  -0.00018   0.00026  -0.00129  -0.00103   1.91586
    A5        2.01538   0.00015  -0.00086   0.00180   0.00095   2.01633
    A6        1.93359  -0.00007   0.00072  -0.00127  -0.00056   1.93303
    A7        1.84192   0.00006  -0.00004   0.00055   0.00051   1.84243
    A8        1.89889   0.00005  -0.00014  -0.00025  -0.00039   1.89849
    A9        1.85188   0.00000   0.00004   0.00051   0.00055   1.85243
   A10        2.18113   0.00009  -0.00029   0.00055   0.00026   2.18140
   A11        1.95274  -0.00011   0.00024  -0.00061  -0.00037   1.95236
   A12        2.14852   0.00002   0.00011  -0.00004   0.00007   2.14859
   A13        1.85269   0.00009  -0.00054   0.00089   0.00035   1.85303
    D1       -0.72506  -0.00005   0.00524   0.00053   0.00578  -0.71928
    D2        1.35455  -0.00000   0.00480   0.00151   0.00631   1.36086
    D3       -2.82324   0.00005   0.00479   0.00250   0.00729  -2.81595
    D4       -2.78888   0.00001   0.00617   0.00142   0.00759  -2.78130
    D5       -0.70928   0.00006   0.00573   0.00240   0.00812  -0.70116
    D6        1.39611   0.00011   0.00572   0.00338   0.00910   1.40521
    D7        0.39175   0.00014   0.00332   0.00073   0.00405   0.39581
    D8       -2.79158   0.00003   0.00471  -0.00184   0.00287  -2.78871
    D9       -1.79136   0.00003   0.00424  -0.00105   0.00319  -1.78817
   D10        1.30850  -0.00008   0.00563  -0.00362   0.00201   1.31051
   D11        2.51088  -0.00003   0.00428  -0.00179   0.00249   2.51336
   D12       -0.67245  -0.00013   0.00567  -0.00436   0.00130  -0.67115
   D13       -3.08825   0.00006  -0.00024   0.00154   0.00129  -3.08696
   D14        0.01251  -0.00004   0.00110  -0.00096   0.00014   0.01266
         Item               Value     Threshold  Converged?
 Maximum Force            0.000335     0.000450     YES
 RMS     Force            0.000115     0.000300     YES
 Maximum Displacement     0.010206     0.001800     NO 
 RMS     Displacement     0.003174     0.001200     NO 
 Predicted change in Energy=-1.817515D-06
 Lowest energy point so far.  Saving SCF results.
 GradGradGradGradGradGradGradGradGradGradGradGradGradGradGradGradGradGrad

 Leave Link  103 at Fri Mar 14 15:41:52 2025, MaxMem=  8589934592 cpu:               0.6 elap:               0.2
 (Enter /home/enzo/gaussian_versions/gdv.j21/gdv/l202.exe)
                          Input orientation:                          
 ---------------------------------------------------------------------
 Center     Atomic      Atomic             Coordinates (Angstroms)
 Number     Number       Type             X           Y           Z
 ---------------------------------------------------------------------
      1          7           0       -1.957169    0.006632    0.149788
      2          6           0       -0.762871    0.836799    0.104687
      3          6           0        0.460213   -0.035165   -0.094446
      4          8           0        0.450162   -1.145410   -0.577974
      5          8           0        1.595367    0.594705    0.286332
      6          1           0       -1.881529   -0.716919   -0.562510
      7          1           0       -2.781805    0.563331   -0.057746
      8          1           0       -0.731453    1.583928   -0.712492
      9          1           0       -0.646212    1.400429    1.037373
     10          1           0        2.327919   -0.015303    0.077252
 ---------------------------------------------------------------------
                    Distance matrix (angstroms):
                    1          2          3          4          5
     1  N    0.000000
     2  C    1.455183   0.000000
     3  C    2.430048   1.515225   0.000000
     4  O    2.766239   2.422112   1.211010   0.000000
     5  O    3.603468   2.377581   1.352886   2.255331   0.000000
     6  H    1.018143   2.027458   2.483471   2.370786   3.811783
     7  H    1.016370   2.043835   3.297002   3.692701   4.390786
     8  H    2.175722   1.107687   2.103214   2.977179   2.718511
     9  H    2.109286   1.095989   2.136848   3.208221   2.497585
    10  H    4.285758   3.206215   1.875687   2.287452   0.975939
                    6          7          8          9         10
     6  H    0.000000
     7  H    1.644483   0.000000
     8  H    2.576638   2.382069   0.000000
     9  H    2.927251   2.541806   1.761523   0.000000
    10  H    4.315207   5.144154   3.541327   3.430975   0.000000
 Stoichiometry    C2H5NO2
 Framework group  C1[X(C2H5NO2)]
 Deg. of freedom    24
 Full point group                 C1      NOp   1
 RotChk:  IX=0 Diff= 2.53D-03
 Largest Abelian subgroup         C1      NOp   1
 Largest concise Abelian subgroup C1      NOp   1
                         Standard orientation:                         
 ---------------------------------------------------------------------
 Center     Atomic      Atomic             Coordinates (Angstroms)
 Number     Number       Type             X           Y           Z
 ---------------------------------------------------------------------
      1          7           0       -1.879883    0.103686   -0.225215
      2          6           0       -0.733166   -0.714884    0.138848
      3          6           0        0.537943    0.100975    0.018174
      4          8           0        0.593317    1.310076    0.057589
      5          8           0        1.633366   -0.685808   -0.088239
      6          1           0       -1.758605    1.033844    0.170653
      7          1           0       -2.732475   -0.291233    0.162258
      8          1           0       -0.736810   -1.107985    1.174430
      9          1           0       -0.655312   -1.588533   -0.518318
     10          1           0        2.400260   -0.082582   -0.109445
 ---------------------------------------------------------------------
 Rotational constants (GHZ):          10.2946200           3.9535820           2.9505614
 Leave Link  202 at Fri Mar 14 15:41:53 2025, MaxMem=  8589934592 cpu:               0.1 elap:               0.2
 (Enter /home/enzo/gaussian_versions/gdv.j21/gdv/l301.exe)
 Standard basis: 6-31G(d) (6D, 7F)
 Ernie: Thresh=  0.10000D-02 Tol=  0.10000D-05 Strict=F.
 There are    85 symmetry adapted cartesian basis functions of A   symmetry.
 There are    85 symmetry adapted basis functions of A   symmetry.
    85 basis functions,   160 primitive gaussians,    85 cartesian basis functions
    20 alpha electrons       20 beta electrons
       nuclear repulsion energy       179.4306959690 Hartrees.
 IExCor=      4002 DFT=T Ex+Corr=B3LYP ScaHFX=  0.200000
 ScaDFX=  0.800000  0.720000  1.000000  0.810000  1.000000  0.000000
 ScaDFX=  0.000000  0.000000  0.000000  0.000000  0.000000  0.000000
 IRadAn=      5 IRanWt=     -1 IRanGd=            0 ICorTp=0 IEmpDi=  4
 NAtoms=   10 NActive=   10 NUniq=   10 SFac= 1.00D+00 NAtFMM=   60 NAOKFM=F Big=F
 Integral buffers will be    131072 words long.
 Raffenetti 2 integral format.
 Two-electron integral symmetry is turned on.
 Leave Link  301 at Fri Mar 14 15:41:53 2025, MaxMem=  8589934592 cpu:               0.3 elap:               0.2
 (Enter /home/enzo/gaussian_versions/gdv.j21/gdv/l302.exe)
 NPDir=0 NMtPBC=     1 NCelOv=     1 NCel=       1 NClECP=     1 NCelD=      1
         NCelK=      1 NCelE2=     1 NClLst=     1 CellRange=     0.0.
 One-electron integrals computed using PRISM.
 One-electron integral symmetry used in STVInt
 NBasis=    85 RedAO= T EigKep=  3.86D-03  NBF=    85
 NBsUse=    85 1.00D-06 EigRej= -1.00D+00 NBFU=    85
 Precomputing XC quadrature grid using
 IXCGrd= 4 IRadAn=           5 IRanWt=          -1 IRanGd=           0 AccXCQ= 0.00D+00.
 Generated NRdTot=       0 NPtTot=      219412 NUsed=           0 NTot=          64
 NSgBfM=    85    85    85    85    85 MxSgAt=    10 MxSgA2=    10 SizInc=   0.000
 NMBTot=     1933 MaxBatPerAtom=       84 MaxMicBPerAtom=      206 NBfPt=            15879940.
 Leave Link  302 at Fri Mar 14 15:41:53 2025, MaxMem=  8589934592 cpu:               1.1 elap:               0.3
 (Enter /home/enzo/gaussian_versions/gdv.j21/gdv/l303.exe)
 DipDrv:  MaxL=1.
 Leave Link  303 at Fri Mar 14 15:41:53 2025, MaxMem=  8589934592 cpu:               0.2 elap:               0.2
 (Enter /home/enzo/gaussian_versions/gdv.j21/gdv/l401.exe)
 Initial guess from the checkpoint file:  "/local/home/enzo/scratch/Gau-2409726.chk"
 B after Tr=     0.000000   -0.000000    0.000000
         Rot=    1.000000    0.000106    0.000003    0.000062 Ang=   0.01 deg.
 AO Guess basis will be translated and rotated to current coordinates.
 JPrj=2 DoOrth=T DoCkMO=T.
 Leave Link  401 at Fri Mar 14 15:41:54 2025, MaxMem=  8589934592 cpu:               0.6 elap:               0.3
 (Enter /home/enzo/gaussian_versions/gdv.j21/gdv/l502.exe)
 Keep R1 ints in memory in canonical form, NReq=17617987.
 FoFCou: FMM=F IPFlag=           0 FMFlag=           0 FMFlg1=           0
         NFxFlg=           0 DoJE=F BraDBF=F KetDBF=F FulRan=T
         wScrn=  0.000000 ICntrl=       600 IOpCl=  0 I1Cent=           0 NGrid=           0
         NMat0=    1 NMatS0=   3655 NMatT0=    0 NMatD0=    1 NMtDS0=    0 NMtDT0=    0
 Symmetry not used in FoFCou.
 Two-electron integral symmetry not used.
 Closed shell SCF:
 Using DIIS extrapolation, IDIIS=  1040.
 NGot=  8589934592 LenX=  8583230350 LenY=  8583222684
 Requested convergence on RMS density matrix=1.00D-08 within 128 cycles.
 Requested convergence on MAX density matrix=1.00D-06.
 Requested convergence on             energy=1.00D-06.
 No special actions if energy rises.

 Cycle   1  Pass 1  IDiag  1:
 E= -284.420029816730    
 DIIS: error= 3.50D-04 at cycle   1 NSaved=   1.
 NSaved= 1 IEnMin= 1 EnMin= -284.420029816730     IErMin= 1 ErrMin= 3.50D-04
 ErrMax= 3.50D-04  0.00D+00 EMaxC= 1.00D-01 BMatC= 7.83D-06 BMatP= 7.83D-06
 IDIUse=3 WtCom= 9.96D-01 WtEn= 3.50D-03
 Coeff-Com:  0.100D+01
 Coeff-En:   0.100D+01
 Coeff:      0.100D+01
 Gap=     1.554 Goal=   None    Shift=    0.000
 RMSDP=6.18D-05 MaxDP=1.10D-03              OVMax= 1.87D-03

 Cycle   2  Pass 1  IDiag  1:
 E= -284.420044493290     Delta-E=       -0.000014676560 Rises=F Damp=F
 DIIS: error= 3.12D-05 at cycle   2 NSaved=   2.
 NSaved= 2 IEnMin= 2 EnMin= -284.420044493290     IErMin= 2 ErrMin= 3.12D-05
 ErrMax= 3.12D-05  0.00D+00 EMaxC= 1.00D-01 BMatC= 2.16D-07 BMatP= 7.83D-06
 IDIUse=1 WtCom= 1.00D+00 WtEn= 0.00D+00
 Coeff-Com: -0.476D-01 0.105D+01
 Coeff:     -0.476D-01 0.105D+01
 Gap=     0.246 Goal=   None    Shift=    0.000
 RMSDP=1.42D-05 MaxDP=2.69D-04 DE=-1.47D-05 OVMax= 4.09D-04

 Cycle   3  Pass 1  IDiag  1:
 E= -284.420044243652     Delta-E=        0.000000249639 Rises=F Damp=F
 DIIS: error= 7.60D-05 at cycle   3 NSaved=   3.
 NSaved= 3 IEnMin= 2 EnMin= -284.420044493290     IErMin= 2 ErrMin= 3.12D-05
 ErrMax= 7.60D-05  0.00D+00 EMaxC= 1.00D-01 BMatC= 7.07D-07 BMatP= 2.16D-07
 IDIUse=1 WtCom= 1.00D+00 WtEn= 0.00D+00
 Coeff-Com: -0.565D-01 0.709D+00 0.347D+00
 Coeff:     -0.565D-01 0.709D+00 0.347D+00
 Gap=     0.246 Goal=   None    Shift=    0.000
 RMSDP=7.97D-06 MaxDP=2.03D-04 DE= 2.50D-07 OVMax= 3.15D-04

 Cycle   4  Pass 1  IDiag  1:
 E= -284.420044770605     Delta-E=       -0.000000526953 Rises=F Damp=F
 DIIS: error= 7.87D-06 at cycle   4 NSaved=   4.
 NSaved= 4 IEnMin= 4 EnMin= -284.420044770605     IErMin= 4 ErrMin= 7.87D-06
 ErrMax= 7.87D-06  0.00D+00 EMaxC= 1.00D-01 BMatC= 1.13D-08 BMatP= 2.16D-07
 IDIUse=1 WtCom= 1.00D+00 WtEn= 0.00D+00
 Coeff-Com: -0.254D-01 0.284D+00 0.171D+00 0.571D+00
 Coeff:     -0.254D-01 0.284D+00 0.171D+00 0.571D+00
 Gap=     0.246 Goal=   None    Shift=    0.000
 RMSDP=1.27D-06 MaxDP=1.97D-05 DE=-5.27D-07 OVMax= 3.16D-05

 Cycle   5  Pass 1  IDiag  1:
 E= -284.420044778722     Delta-E=       -0.000000008118 Rises=F Damp=F
 DIIS: error= 2.67D-06 at cycle   5 NSaved=   5.
 NSaved= 5 IEnMin= 5 EnMin= -284.420044778722     IErMin= 5 ErrMin= 2.67D-06
 ErrMax= 2.67D-06  0.00D+00 EMaxC= 1.00D-01 BMatC= 1.33D-09 BMatP= 1.13D-08
 IDIUse=1 WtCom= 1.00D+00 WtEn= 0.00D+00
 Coeff-Com: -0.353D-02 0.285D-01 0.280D-01 0.280D+00 0.667D+00
 Coeff:     -0.353D-02 0.285D-01 0.280D-01 0.280D+00 0.667D+00
 Gap=     0.246 Goal=   None    Shift=    0.000
 RMSDP=4.38D-07 MaxDP=8.97D-06 DE=-8.12D-09 OVMax= 1.06D-05

 Cycle   6  Pass 1  IDiag  1:
 E= -284.420044779801     Delta-E=       -0.000000001079 Rises=F Damp=F
 DIIS: error= 7.94D-07 at cycle   6 NSaved=   6.
 NSaved= 6 IEnMin= 6 EnMin= -284.420044779801     IErMin= 6 ErrMin= 7.94D-07
 ErrMax= 7.94D-07  0.00D+00 EMaxC= 1.00D-01 BMatC= 8.08D-11 BMatP= 1.33D-09
 IDIUse=1 WtCom= 1.00D+00 WtEn= 0.00D+00
 Coeff-Com:  0.547D-03-0.105D-01-0.192D-02 0.702D-01 0.282D+00 0.660D+00
 Coeff:      0.547D-03-0.105D-01-0.192D-02 0.702D-01 0.282D+00 0.660D+00
 Gap=     0.246 Goal=   None    Shift=    0.000
 RMSDP=1.31D-07 MaxDP=2.12D-06 DE=-1.08D-09 OVMax= 3.01D-06

 Cycle   7  Pass 1  IDiag  1:
 E= -284.420044779873     Delta-E=       -0.000000000072 Rises=F Damp=F
 DIIS: error= 1.86D-07 at cycle   7 NSaved=   7.
 NSaved= 7 IEnMin= 7 EnMin= -284.420044779873     IErMin= 7 ErrMin= 1.86D-07
 ErrMax= 1.86D-07  0.00D+00 EMaxC= 1.00D-01 BMatC= 5.64D-12 BMatP= 8.08D-11
 IDIUse=1 WtCom= 1.00D+00 WtEn= 0.00D+00
 Coeff-Com:  0.468D-03-0.661D-02-0.278D-02 0.103D-01 0.753D-01 0.285D+00
 Coeff-Com:  0.639D+00
 Coeff:      0.468D-03-0.661D-02-0.278D-02 0.103D-01 0.753D-01 0.285D+00
 Coeff:      0.639D+00
 Gap=     0.246 Goal=   None    Shift=    0.000
 RMSDP=3.04D-08 MaxDP=4.47D-07 DE=-7.19D-11 OVMax= 5.55D-07

 Cycle   8  Pass 1  IDiag  1:
 E= -284.420044779877     Delta-E=       -0.000000000004 Rises=F Damp=F
 DIIS: error= 5.49D-08 at cycle   8 NSaved=   8.
 NSaved= 8 IEnMin= 8 EnMin= -284.420044779877     IErMin= 8 ErrMin= 5.49D-08
 ErrMax= 5.49D-08  0.00D+00 EMaxC= 1.00D-01 BMatC= 2.74D-13 BMatP= 5.64D-12
 IDIUse=1 WtCom= 1.00D+00 WtEn= 0.00D+00
 Coeff-Com:  0.167D-03-0.225D-02-0.107D-02 0.754D-03 0.178D-01 0.869D-01
 Coeff-Com:  0.254D+00 0.644D+00
 Coeff:      0.167D-03-0.225D-02-0.107D-02 0.754D-03 0.178D-01 0.869D-01
 Coeff:      0.254D+00 0.644D+00
 Gap=     0.246 Goal=   None    Shift=    0.000
 RMSDP=6.85D-09 MaxDP=1.56D-07 DE=-3.87D-12 OVMax= 1.66D-07

 SCF Done:  E(RB3LYP) =  -284.420044780     A.U. after    8 cycles
            NFock=  8  Conv=0.68D-08     -V/T= 2.0089
 KE= 2.819190432825D+02 PE=-1.025100548203D+03 EE= 2.793307641712D+02
 Leave Link  502 at Fri Mar 14 15:41:54 2025, MaxMem=  8589934592 cpu:               9.6 elap:               1.0
 (Enter /home/enzo/gaussian_versions/gdv.j21/gdv/l701.exe)
 ... and contract with generalized density number  0.
 Compute integral first derivatives.
 Leave Link  701 at Fri Mar 14 15:41:55 2025, MaxMem=  8589934592 cpu:               0.9 elap:               0.3
 (Enter /home/enzo/gaussian_versions/gdv.j21/gdv/l702.exe)
 L702 exits ... SP integral derivatives will be done elsewhere.
 Leave Link  702 at Fri Mar 14 15:41:55 2025, MaxMem=  8589934592 cpu:               0.3 elap:               0.2
 (Enter /home/enzo/gaussian_versions/gdv.j21/gdv/l703.exe)
 Integral derivatives from FoFJK, PRISM(SPDF).
 Compute integral first derivatives, UseDBF=F ICtDFT=           0.
 Calling FoFJK, ICntrl=      2127 FMM=F ISym2X=0 I1Cent= 0 IOpClX= 0 NMat=1 NMatS=1 NMatT=0.
 FoFJK:  IHMeth= 1 ICntrl=    2127 DoSepK=F KAlg= 0 I1Cent=           0 FoldK=F
 IRaf=         0 NMat=       1 IRICut=       1 DoRegI=T DoRafI=F ISym2E= 0 IDoP0=0 IntGTp=1.
 FoFCou: FMM=F IPFlag=           0 FMFlag=      100000 FMFlg1=         800
         NFxFlg=           0 DoJE=F BraDBF=F KetDBF=F FulRan=T
         wScrn=  0.000000 ICntrl=      2127 IOpCl=  0 I1Cent=           0 NGrid=           0
         NMat0=    1 NMatS0=      1 NMatT0=    0 NMatD0=    1 NMtDS0=    0 NMtDT0=    0
 Symmetry not used in FoFCou.
 Leave Link  703 at Fri Mar 14 15:41:56 2025, MaxMem=  8589934592 cpu:               4.0 elap:               0.6
 (Enter /home/enzo/gaussian_versions/gdv.j21/gdv/l716.exe)
 Dipole        = 7.92270636D-02-5.44353291D-01 5.73398586D-01
 ***** Axes restored to original set *****
 -------------------------------------------------------------------
 Center     Atomic                   Forces (Hartrees/Bohr)
 Number     Number              X              Y              Z
 -------------------------------------------------------------------
      1        7          -0.000055380   -0.000075209    0.000128915
      2        6           0.000182933    0.000110709   -0.000136175
      3        6          -0.000046586   -0.000049268    0.000061543
      4        8          -0.000013922    0.000006682   -0.000000534
      5        8           0.000067377    0.000009833   -0.000056324
      6        1          -0.000005519   -0.000012301   -0.000031236
      7        1          -0.000102995    0.000033938   -0.000071521
      8        1          -0.000024775    0.000000910    0.000036250
      9        1          -0.000021284   -0.000054537    0.000044811
     10        1           0.000020150    0.000029244    0.000024271
 -------------------------------------------------------------------
 Cartesian Forces:  Max     0.000182933 RMS     0.000066655
 Leave Link  716 at Fri Mar 14 15:41:56 2025, MaxMem=  8589934592 cpu:               0.2 elap:               0.2
 (Enter /home/enzo/gaussian_versions/gdv.j21/gdv/l103.exe)

 GradGradGradGradGradGradGradGradGradGradGradGradGradGradGradGradGradGrad
 Berny optimization.
 Using GEDIIS/GDIIS optimizer.
 FormGI is forming the generalized inverse of G from B-inverse, IUseBI=4.
 Internal  Forces:  Max     0.000165636 RMS     0.000044702
 Search for a local minimum.
 Step number  10 out of a maximum of   46
 All quantities printed in internal units (Hartrees-Bohrs-Radians)
 RMS Force = .44702D-04 SwitMx=.10000D-02 MixMth= 2
 Mixed Optimization -- En-DIIS/RFO-DIIS
 Swapping is turned off.
 Update second derivatives using D2CorX and points    7    8    9   10
 DE= -1.92D-06 DEPred=-1.82D-06 R= 1.05D+00
 TightC=F SS=  1.41D+00  RLast= 1.97D-02 DXNew= 4.0006D+00 5.9117D-02
 Trust test= 1.05D+00 RLast= 1.97D-02 DXMaxT set to 2.38D+00
 ITU=  1  1  1  1  1  1  1  1  1  0
     Eigenvalues ---    0.00249   0.00703   0.01883   0.03834   0.04440
     Eigenvalues ---    0.05659   0.06556   0.09189   0.13816   0.15198
     Eigenvalues ---    0.16966   0.18321   0.20106   0.24210   0.26422
     Eigenvalues ---    0.29283   0.32570   0.32817   0.34617   0.40690
     Eigenvalues ---    0.41095   0.45816   0.52941   0.82212
 En-DIIS/RFO-DIIS/Sim-DIIS IScMMF=       -3 using points:    10    9    8    7
 RFO step:  Lambda=-9.24767126D-07.
 NNeg= 0 NGDIIS= 4 SimSw=  2.50D-01 Rises=F DC= -1.92D-06 SmlDif=  1.00D-05
 NRisDI= 0 DoIntr=F SqrtH=F CThrHd= 10.0 CDAdj=  3.0
 RMS Error=  0.1570808770D-02 NUsed= 4 OKEnD=F EnDIS=F
 InvSVX:  RCond= 6.06D-06 Info=           0 Equed=N FErr=  1.63D-14 BErr=  5.93D-17
 DidBck=FF Rises=F RFO-DIIS coefs:    1.80917   -0.67290   -0.20030    0.06403
 Iteration  1 RMS(Cart)=  0.00181035 RMS(Int)=  0.00000238
 Iteration  2 RMS(Cart)=  0.00000204 RMS(Int)=  0.00000148
 Iteration  3 RMS(Cart)=  0.00000000 RMS(Int)=  0.00000148
 Variable       Old X    -DE/DX   Delta X   Delta X   Delta X     New X
                                 (Linear)    (Quad)   (Total)
    R1        2.74990   0.00017   0.00033   0.00050   0.00083   2.75073
    R2        1.92401   0.00003   0.00024  -0.00014   0.00011   1.92412
    R3        1.92066   0.00012   0.00027   0.00010   0.00037   1.92103
    R4        2.86336   0.00002   0.00048  -0.00010   0.00039   2.86375
    R5        2.09322  -0.00003  -0.00047   0.00016  -0.00031   2.09291
    R6        2.07112   0.00001  -0.00004   0.00002  -0.00002   2.07110
    R7        2.28848  -0.00001  -0.00037   0.00023  -0.00014   2.28834
    R8        2.55658   0.00008  -0.00036   0.00034  -0.00003   2.55656
    R9        1.84426  -0.00001  -0.00002  -0.00002  -0.00005   1.84421
    A1        1.89945  -0.00001   0.00013  -0.00049  -0.00036   1.89909
    A2        1.92526   0.00003  -0.00200   0.00172  -0.00029   1.92498
    A3        1.88249  -0.00003  -0.00116   0.00031  -0.00086   1.88164
    A4        1.91586   0.00005  -0.00108   0.00129   0.00022   1.91608
    A5        2.01633  -0.00003   0.00080  -0.00068   0.00011   2.01644
    A6        1.93303  -0.00004  -0.00052  -0.00030  -0.00082   1.93221
    A7        1.84243   0.00001   0.00085  -0.00024   0.00061   1.84304
    A8        1.89849  -0.00002  -0.00070   0.00027  -0.00043   1.89807
    A9        1.85243   0.00002   0.00067  -0.00034   0.00033   1.85276
   A10        2.18140  -0.00002   0.00064  -0.00053   0.00011   2.18151
   A11        1.95236   0.00000  -0.00100   0.00071  -0.00029   1.95207
   A12        2.14859   0.00001   0.00035  -0.00019   0.00016   2.14875
   A13        1.85303   0.00008  -0.00004   0.00041   0.00037   1.85340
    D1       -0.71928  -0.00002  -0.00101   0.00132   0.00031  -0.71897
    D2        1.36086   0.00002  -0.00017   0.00151   0.00135   1.36221
    D3       -2.81595  -0.00000   0.00089   0.00033   0.00122  -2.81473
    D4       -2.78130   0.00001   0.00151   0.00023   0.00174  -2.77956
    D5       -0.70116   0.00004   0.00235   0.00042   0.00277  -0.69838
    D6        1.40521   0.00002   0.00340  -0.00075   0.00265   1.40786
    D7        0.39581   0.00001  -0.00195  -0.00091  -0.00286   0.39294
    D8       -2.78871  -0.00002  -0.00210  -0.00109  -0.00319  -2.79190
    D9       -1.78817   0.00000  -0.00282  -0.00070  -0.00352  -1.79168
   D10        1.31051  -0.00003  -0.00297  -0.00088  -0.00384   1.30666
   D11        2.51336  -0.00003  -0.00369  -0.00032  -0.00401   2.50936
   D12       -0.67115  -0.00005  -0.00384  -0.00050  -0.00433  -0.67548
   D13       -3.08696   0.00001  -0.00002  -0.00037  -0.00039  -3.08735
   D14        0.01266  -0.00002  -0.00016  -0.00056  -0.00071   0.01194
         Item               Value     Threshold  Converged?
 Maximum Force            0.000166     0.000450     YES
 RMS     Force            0.000045     0.000300     YES
 Maximum Displacement     0.005425     0.001800     NO 
 RMS     Displacement     0.001810     0.001200     NO 
 Predicted change in Energy=-4.572759D-07
 Lowest energy point so far.  Saving SCF results.
 GradGradGradGradGradGradGradGradGradGradGradGradGradGradGradGradGradGrad

 Leave Link  103 at Fri Mar 14 15:41:56 2025, MaxMem=  8589934592 cpu:               0.4 elap:               0.1
 (Enter /home/enzo/gaussian_versions/gdv.j21/gdv/l202.exe)
                          Input orientation:                          
 ---------------------------------------------------------------------
 Center     Atomic      Atomic             Coordinates (Angstroms)
 Number     Number       Type             X           Y           Z
 ---------------------------------------------------------------------
      1          7           0       -1.957831    0.006784    0.149486
      2          6           0       -0.762778    0.836675    0.105099
      3          6           0        0.460348   -0.035629   -0.093836
      4          8           0        0.449997   -1.146774   -0.575103
      5          8           0        1.595703    0.595611    0.284010
      6          1           0       -1.881772   -0.716672   -0.562944
      7          1           0       -2.781947    0.563920   -0.059886
      8          1           0       -0.731052    1.584661   -0.711061
      9          1           0       -0.646489    1.398886    1.038678
     10          1           0        2.328444   -0.014436    0.075823
 ---------------------------------------------------------------------
                    Distance matrix (angstroms):
                    1          2          3          4          5
     1  N    0.000000
     2  C    1.455624   0.000000
     3  C    2.430760   1.515430   0.000000
     4  O    2.766471   2.422307   1.210937   0.000000
     5  O    3.604500   2.377511   1.352872   2.255354   0.000000
     6  H    1.018199   2.027638   2.483830   2.371135   3.812119
     7  H    1.016565   2.044177   3.297437   3.692883   4.391252
     8  H    2.176057   1.107523   2.103745   2.978942   2.717016
     9  H    2.109083   1.095981   2.136706   3.207329   2.498440
    10  H    4.286960   3.206385   1.875904   2.287893   0.975914
                    6          7          8          9         10
     6  H    0.000000
     7  H    1.644171   0.000000
     8  H    2.577252   2.381619   0.000000
     9  H    2.926893   2.542477   1.761604   0.000000
    10  H    4.315910   5.144804   3.540737   3.431442   0.000000
 Stoichiometry    C2H5NO2
 Framework group  C1[X(C2H5NO2)]
 Deg. of freedom    24
 Full point group                 C1      NOp   1
 RotChk:  IX=0 Diff= 2.65D-03
 Largest Abelian subgroup         C1      NOp   1
 Largest concise Abelian subgroup C1      NOp   1
                         Standard orientation:                         
 ---------------------------------------------------------------------
 Center     Atomic      Atomic             Coordinates (Angstroms)
 Number     Number       Type             X           Y           Z
 ---------------------------------------------------------------------
      1          7           0       -1.880566    0.103916   -0.224123
      2          6           0       -0.732958   -0.715294    0.137445
      3          6           0        0.538130    0.101122    0.017738
      4          8           0        0.593157    1.310171    0.056954
      5          8           0        1.633738   -0.685589   -0.087112
      6          1           0       -1.758865    1.033283    0.173614
      7          1           0       -2.732546   -0.291543    0.164654
      8          1           0       -0.736125   -1.111507    1.171665
      9          1           0       -0.655464   -1.586704   -0.522717
     10          1           0        2.400767   -0.082571   -0.108185
 ---------------------------------------------------------------------
 Rotational constants (GHZ):          10.2963728           3.9524114           2.9494902
 Leave Link  202 at Fri Mar 14 15:41:56 2025, MaxMem=  8589934592 cpu:               0.1 elap:               0.2
 (Enter /home/enzo/gaussian_versions/gdv.j21/gdv/l301.exe)
 Standard basis: 6-31G(d) (6D, 7F)
 Ernie: Thresh=  0.10000D-02 Tol=  0.10000D-05 Strict=F.
 There are    85 symmetry adapted cartesian basis functions of A   symmetry.
 There are    85 symmetry adapted basis functions of A   symmetry.
    85 basis functions,   160 primitive gaussians,    85 cartesian basis functions
    20 alpha electrons       20 beta electrons
       nuclear repulsion energy       179.4162121421 Hartrees.
 IExCor=      4002 DFT=T Ex+Corr=B3LYP ScaHFX=  0.200000
 ScaDFX=  0.800000  0.720000  1.000000  0.810000  1.000000  0.000000
 ScaDFX=  0.000000  0.000000  0.000000  0.000000  0.000000  0.000000
 IRadAn=      5 IRanWt=     -1 IRanGd=            0 ICorTp=0 IEmpDi=  4
 NAtoms=   10 NActive=   10 NUniq=   10 SFac= 1.00D+00 NAtFMM=   60 NAOKFM=F Big=F
 Integral buffers will be    131072 words long.
 Raffenetti 2 integral format.
 Two-electron integral symmetry is turned on.
 Leave Link  301 at Fri Mar 14 15:41:56 2025, MaxMem=  8589934592 cpu:               0.4 elap:               0.2
 (Enter /home/enzo/gaussian_versions/gdv.j21/gdv/l302.exe)
 NPDir=0 NMtPBC=     1 NCelOv=     1 NCel=       1 NClECP=     1 NCelD=      1
         NCelK=      1 NCelE2=     1 NClLst=     1 CellRange=     0.0.
 One-electron integrals computed using PRISM.
 One-electron integral symmetry used in STVInt
 NBasis=    85 RedAO= T EigKep=  3.86D-03  NBF=    85
 NBsUse=    85 1.00D-06 EigRej= -1.00D+00 NBFU=    85
 Precomputing XC quadrature grid using
 IXCGrd= 4 IRadAn=           5 IRanWt=          -1 IRanGd=           0 AccXCQ= 0.00D+00.
 Generated NRdTot=       0 NPtTot=      219402 NUsed=           0 NTot=          64
 NSgBfM=    85    85    85    85    85 MxSgAt=    10 MxSgA2=    10 SizInc=   0.000
 NMBTot=     1942 MaxBatPerAtom=       84 MaxMicBPerAtom=      201 NBfPt=            15877644.
 Leave Link  302 at Fri Mar 14 15:41:57 2025, MaxMem=  8589934592 cpu:               1.5 elap:               0.3
 (Enter /home/enzo/gaussian_versions/gdv.j21/gdv/l303.exe)
 DipDrv:  MaxL=1.
 Leave Link  303 at Fri Mar 14 15:41:57 2025, MaxMem=  8589934592 cpu:               0.5 elap:               0.2
 (Enter /home/enzo/gaussian_versions/gdv.j21/gdv/l401.exe)
 Initial guess from the checkpoint file:  "/local/home/enzo/scratch/Gau-2409726.chk"
 B after Tr=    -0.000000    0.000000   -0.000000
         Rot=    1.000000   -0.000216   -0.000023   -0.000060 Ang=  -0.03 deg.
 AO Guess basis will be translated and rotated to current coordinates.
 JPrj=2 DoOrth=T DoCkMO=T.
 Leave Link  401 at Fri Mar 14 15:41:57 2025, MaxMem=  8589934592 cpu:               0.4 elap:               0.2
 (Enter /home/enzo/gaussian_versions/gdv.j21/gdv/l502.exe)
 Keep R1 ints in memory in canonical form, NReq=17617987.
 FoFCou: FMM=F IPFlag=           0 FMFlag=           0 FMFlg1=           0
         NFxFlg=           0 DoJE=F BraDBF=F KetDBF=F FulRan=T
         wScrn=  0.000000 ICntrl=       600 IOpCl=  0 I1Cent=           0 NGrid=           0
         NMat0=    1 NMatS0=   3655 NMatT0=    0 NMatD0=    1 NMtDS0=    0 NMtDT0=    0
 Symmetry not used in FoFCou.
 Two-electron integral symmetry not used.
 Closed shell SCF:
 Using DIIS extrapolation, IDIIS=  1040.
 NGot=  8589934592 LenX=  8583230350 LenY=  8583222684
 Requested convergence on RMS density matrix=1.00D-08 within 128 cycles.
 Requested convergence on MAX density matrix=1.00D-06.
 Requested convergence on             energy=1.00D-06.
 No special actions if energy rises.

 Cycle   1  Pass 1  IDiag  1:
 E= -284.420041322653    
 DIIS: error= 1.34D-04 at cycle   1 NSaved=   1.
 NSaved= 1 IEnMin= 1 EnMin= -284.420041322653     IErMin= 1 ErrMin= 1.34D-04
 ErrMax= 1.34D-04  0.00D+00 EMaxC= 1.00D-01 BMatC= 2.02D-06 BMatP= 2.02D-06
 IDIUse=3 WtCom= 9.99D-01 WtEn= 1.34D-03
 Coeff-Com:  0.100D+01
 Coeff-En:   0.100D+01
 Coeff:      0.100D+01
 Gap=     1.554 Goal=   None    Shift=    0.000
 RMSDP=3.00D-05 MaxDP=3.08D-04              OVMax= 6.41D-04

 Cycle   2  Pass 1  IDiag  1:
 E= -284.420045316019     Delta-E=       -0.000003993367 Rises=F Damp=F
 DIIS: error= 1.36D-05 at cycle   2 NSaved=   2.
 NSaved= 2 IEnMin= 2 EnMin= -284.420045316019     IErMin= 2 ErrMin= 1.36D-05
 ErrMax= 1.36D-05  0.00D+00 EMaxC= 1.00D-01 BMatC= 3.68D-08 BMatP= 2.02D-06
 IDIUse=1 WtCom= 1.00D+00 WtEn= 0.00D+00
 Coeff-Com: -0.666D-01 0.107D+01
 Coeff:     -0.666D-01 0.107D+01
 Gap=     0.246 Goal=   None    Shift=    0.000
 RMSDP=4.50D-06 MaxDP=6.28D-05 DE=-3.99D-06 OVMax= 9.54D-05

 Cycle   3  Pass 1  IDiag  1:
 E= -284.420045345234     Delta-E=       -0.000000029214 Rises=F Damp=F
 DIIS: error= 1.58D-05 at cycle   3 NSaved=   3.
 NSaved= 3 IEnMin= 3 EnMin= -284.420045345234     IErMin= 2 ErrMin= 1.36D-05
 ErrMax= 1.58D-05  0.00D+00 EMaxC= 1.00D-01 BMatC= 3.54D-08 BMatP= 3.68D-08
 IDIUse=1 WtCom= 1.00D+00 WtEn= 0.00D+00
 Coeff-Com: -0.463D-01 0.570D+00 0.477D+00
 Coeff:     -0.463D-01 0.570D+00 0.477D+00
 Gap=     0.246 Goal=   None    Shift=    0.000
 RMSDP=2.01D-06 MaxDP=4.37D-05 DE=-2.92D-08 OVMax= 4.26D-05

 Cycle   4  Pass 1  IDiag  1:
 E= -284.420045372703     Delta-E=       -0.000000027469 Rises=F Damp=F
 DIIS: error= 4.34D-06 at cycle   4 NSaved=   4.
 NSaved= 4 IEnMin= 4 EnMin= -284.420045372703     IErMin= 4 ErrMin= 4.34D-06
 ErrMax= 4.34D-06  0.00D+00 EMaxC= 1.00D-01 BMatC= 1.62D-09 BMatP= 3.54D-08
 IDIUse=1 WtCom= 1.00D+00 WtEn= 0.00D+00
 Coeff-Com: -0.122D-01 0.137D+00 0.214D+00 0.662D+00
 Coeff:     -0.122D-01 0.137D+00 0.214D+00 0.662D+00
 Gap=     0.246 Goal=   None    Shift=    0.000
 RMSDP=4.89D-07 MaxDP=1.16D-05 DE=-2.75D-08 OVMax= 1.38D-05

 Cycle   5  Pass 1  IDiag  1:
 E= -284.420045373691     Delta-E=       -0.000000000988 Rises=F Damp=F
 DIIS: error= 2.02D-06 at cycle   5 NSaved=   5.
 NSaved= 5 IEnMin= 5 EnMin= -284.420045373691     IErMin= 5 ErrMin= 2.02D-06
 ErrMax= 2.02D-06  0.00D+00 EMaxC= 1.00D-01 BMatC= 4.49D-10 BMatP= 1.62D-09
 IDIUse=1 WtCom= 1.00D+00 WtEn= 0.00D+00
 Coeff-Com: -0.441D-02 0.441D-01 0.102D+00 0.426D+00 0.432D+00
 Coeff:     -0.441D-02 0.441D-01 0.102D+00 0.426D+00 0.432D+00
 Gap=     0.246 Goal=   None    Shift=    0.000
 RMSDP=2.19D-07 MaxDP=5.17D-06 DE=-9.88D-10 OVMax= 8.02D-06

 Cycle   6  Pass 1  IDiag  1:
 E= -284.420045374017     Delta-E=       -0.000000000326 Rises=F Damp=F
 DIIS: error= 4.62D-07 at cycle   6 NSaved=   6.
 NSaved= 6 IEnMin= 6 EnMin= -284.420045374017     IErMin= 6 ErrMin= 4.62D-07
 ErrMax= 4.62D-07  0.00D+00 EMaxC= 1.00D-01 BMatC= 2.94D-11 BMatP= 4.49D-10
 IDIUse=1 WtCom= 1.00D+00 WtEn= 0.00D+00
 Coeff-Com:  0.331D-04-0.436D-02 0.136D-01 0.105D+00 0.226D+00 0.660D+00
 Coeff:      0.331D-04-0.436D-02 0.136D-01 0.105D+00 0.226D+00 0.660D+00
 Gap=     0.246 Goal=   None    Shift=    0.000
 RMSDP=7.04D-08 MaxDP=1.26D-06 DE=-3.26D-10 OVMax= 2.46D-06

 Cycle   7  Pass 1  IDiag  1:
 E= -284.420045374038     Delta-E=       -0.000000000021 Rises=F Damp=F
 DIIS: error= 2.09D-07 at cycle   7 NSaved=   7.
 NSaved= 7 IEnMin= 7 EnMin= -284.420045374038     IErMin= 7 ErrMin= 2.09D-07
 ErrMax= 2.09D-07  0.00D+00 EMaxC= 1.00D-01 BMatC= 6.11D-12 BMatP= 2.94D-11
 IDIUse=1 WtCom= 1.00D+00 WtEn= 0.00D+00
 Coeff-Com:  0.491D-03-0.741D-02-0.361D-02 0.129D-01 0.803D-01 0.395D+00
 Coeff-Com:  0.523D+00
 Coeff:      0.491D-03-0.741D-02-0.361D-02 0.129D-01 0.803D-01 0.395D+00
 Coeff:      0.523D+00
 Gap=     0.246 Goal=   None    Shift=    0.000
 RMSDP=2.47D-08 MaxDP=5.28D-07 DE=-2.10D-11 OVMax= 6.32D-07

 Cycle   8  Pass 1  IDiag  1:
 E= -284.420045374045     Delta-E=       -0.000000000007 Rises=F Damp=F
 DIIS: error= 2.23D-08 at cycle   8 NSaved=   8.
 NSaved= 8 IEnMin= 8 EnMin= -284.420045374045     IErMin= 8 ErrMin= 2.23D-08
 ErrMax= 2.23D-08  0.00D+00 EMaxC= 1.00D-01 BMatC= 1.60D-13 BMatP= 6.11D-12
 IDIUse=1 WtCom= 1.00D+00 WtEn= 0.00D+00
 Coeff-Com:  0.162D-03-0.214D-02-0.206D-02-0.248D-02 0.104D-01 0.894D-01
 Coeff-Com:  0.187D+00 0.719D+00
 Coeff:      0.162D-03-0.214D-02-0.206D-02-0.248D-02 0.104D-01 0.894D-01
 Coeff:      0.187D+00 0.719D+00
 Gap=     0.246 Goal=   None    Shift=    0.000
 RMSDP=6.17D-09 MaxDP=7.07D-08 DE=-6.71D-12 OVMax= 2.16D-07

 SCF Done:  E(RB3LYP) =  -284.420045374     A.U. after    8 cycles
            NFock=  8  Conv=0.62D-08     -V/T= 2.0089
 KE= 2.819182602329D+02 PE=-1.025071076009D+03 EE= 2.793165582603D+02
 Leave Link  502 at Fri Mar 14 15:41:58 2025, MaxMem=  8589934592 cpu:              10.1 elap:               1.0
 (Enter /home/enzo/gaussian_versions/gdv.j21/gdv/l701.exe)
 ... and contract with generalized density number  0.
 Compute integral first derivatives.
 Leave Link  701 at Fri Mar 14 15:41:58 2025, MaxMem=  8589934592 cpu:               0.9 elap:               0.3
 (Enter /home/enzo/gaussian_versions/gdv.j21/gdv/l702.exe)
 L702 exits ... SP integral derivatives will be done elsewhere.
 Leave Link  702 at Fri Mar 14 15:41:59 2025, MaxMem=  8589934592 cpu:               0.1 elap:               0.2
 (Enter /home/enzo/gaussian_versions/gdv.j21/gdv/l703.exe)
 Integral derivatives from FoFJK, PRISM(SPDF).
 Compute integral first derivatives, UseDBF=F ICtDFT=           0.
 Calling FoFJK, ICntrl=      2127 FMM=F ISym2X=0 I1Cent= 0 IOpClX= 0 NMat=1 NMatS=1 NMatT=0.
 FoFJK:  IHMeth= 1 ICntrl=    2127 DoSepK=F KAlg= 0 I1Cent=           0 FoldK=F
 IRaf=         0 NMat=       1 IRICut=       1 DoRegI=T DoRafI=F ISym2E= 0 IDoP0=0 IntGTp=1.
 FoFCou: FMM=F IPFlag=           0 FMFlag=      100000 FMFlg1=         800
         NFxFlg=           0 DoJE=F BraDBF=F KetDBF=F FulRan=T
         wScrn=  0.000000 ICntrl=      2127 IOpCl=  0 I1Cent=           0 NGrid=           0
         NMat0=    1 NMatS0=      1 NMatT0=    0 NMatD0=    1 NMtDS0=    0 NMtDT0=    0
 Symmetry not used in FoFCou.
 Leave Link  703 at Fri Mar 14 15:41:59 2025, MaxMem=  8589934592 cpu:               5.0 elap:               0.7
 (Enter /home/enzo/gaussian_versions/gdv.j21/gdv/l716.exe)
 Dipole        = 8.10958431D-02-5.45487696D-01 5.74068544D-01
 ***** Axes restored to original set *****
 -------------------------------------------------------------------
 Center     Atomic                   Forces (Hartrees/Bohr)
 Number     Number              X              Y              Z
 -------------------------------------------------------------------
      1        7           0.000005555    0.000062350   -0.000041253
      2        6           0.000039569   -0.000105570    0.000026175
      3        6          -0.000164840    0.000088527    0.000002267
      4        8          -0.000002930   -0.000076405   -0.000016080
      5        8           0.000076934    0.000037982    0.000001524
      6        1           0.000017708   -0.000028121    0.000005984
      7        1           0.000018850   -0.000005432   -0.000001928
      8        1          -0.000010934    0.000014089   -0.000004692
      9        1           0.000010240    0.000008763    0.000022858
     10        1           0.000009847    0.000003818    0.000005145
 -------------------------------------------------------------------
 Cartesian Forces:  Max     0.000164840 RMS     0.000048377
 Leave Link  716 at Fri Mar 14 15:41:59 2025, MaxMem=  8589934592 cpu:               0.2 elap:               0.2
 (Enter /home/enzo/gaussian_versions/gdv.j21/gdv/l103.exe)

 GradGradGradGradGradGradGradGradGradGradGradGradGradGradGradGradGradGrad
 Berny optimization.
 Using GEDIIS/GDIIS optimizer.
 FormGI is forming the generalized inverse of G from B-inverse, IUseBI=4.
 Internal  Forces:  Max     0.000095229 RMS     0.000029844
 Search for a local minimum.
 Step number  11 out of a maximum of   46
 All quantities printed in internal units (Hartrees-Bohrs-Radians)
 RMS Force = .29844D-04 SwitMx=.10000D-02 MixMth= 2
 Mixed Optimization -- En-DIIS/RFO-DIIS
 Swapping is turned off.
 Update second derivatives using D2CorX and points    7    8    9   10   11
 DE= -5.94D-07 DEPred=-4.57D-07 R= 1.30D+00
 Trust test= 1.30D+00 RLast= 1.03D-02 DXMaxT set to 2.38D+00
 ITU=  0  1  1  1  1  1  1  1  1  1  0
     Eigenvalues ---    0.00220   0.00402   0.01881   0.04260   0.04401
     Eigenvalues ---    0.06261   0.06694   0.09162   0.13811   0.15238
     Eigenvalues ---    0.17188   0.18229   0.20220   0.24814   0.26908
     Eigenvalues ---    0.31983   0.32536   0.32827   0.37050   0.41077
     Eigenvalues ---    0.42566   0.45531   0.52066   0.85007
 En-DIIS/RFO-DIIS/Sim-DIIS IScMMF=       -3 using points:    11   10    9    8    7
 RFO step:  Lambda=-3.67908517D-07.
 NNeg= 0 NGDIIS= 5 SimSw=  2.50D-01 Rises=F DC= -5.94D-07 SmlDif=  1.00D-05
 NRisDI= 0 DoIntr=F SqrtH=F CThrHd= 10.0 CDAdj=  3.0
 RMS Error=  0.1579147679D-02 NUsed= 5 OKEnD=F EnDIS=F
 InvSVX:  RCond= 2.36D-07 Info=           0 Equed=N FErr=  2.77D-13 BErr=  7.00D-17
 DidBck=FF Rises=F RFO-DIIS coefs:    1.58559   -0.38215   -0.19242   -0.01065   -0.00037
 Iteration  1 RMS(Cart)=  0.00133562 RMS(Int)=  0.00000122
 Iteration  2 RMS(Cart)=  0.00000120 RMS(Int)=  0.00000029
 Iteration  3 RMS(Cart)=  0.00000000 RMS(Int)=  0.00000029
 Variable       Old X    -DE/DX   Delta X   Delta X   Delta X     New X
                                 (Linear)    (Quad)   (Total)
    R1        2.75073  -0.00005   0.00063  -0.00046   0.00017   2.75090
    R2        1.92412   0.00002   0.00011  -0.00003   0.00008   1.92420
    R3        1.92103  -0.00002   0.00028  -0.00020   0.00008   1.92111
    R4        2.86375  -0.00010   0.00036  -0.00048  -0.00012   2.86362
    R5        2.09291   0.00001  -0.00027   0.00018  -0.00009   2.09282
    R6        2.07110   0.00003  -0.00003   0.00008   0.00005   2.07115
    R7        2.28834   0.00008  -0.00015   0.00016   0.00001   2.28835
    R8        2.55656   0.00009  -0.00013   0.00022   0.00009   2.55665
    R9        1.84421   0.00000  -0.00003   0.00001  -0.00002   1.84419
    A1        1.89909  -0.00000  -0.00027   0.00013  -0.00014   1.89895
    A2        1.92498  -0.00001  -0.00048   0.00024  -0.00024   1.92474
    A3        1.88164   0.00001  -0.00070   0.00050  -0.00020   1.88144
    A4        1.91608  -0.00002  -0.00008  -0.00005  -0.00014   1.91594
    A5        2.01644  -0.00002   0.00022  -0.00031  -0.00009   2.01634
    A6        1.93221   0.00002  -0.00057   0.00053  -0.00003   1.93218
    A7        1.84304   0.00001   0.00048  -0.00033   0.00016   1.84320
    A8        1.89807   0.00001  -0.00035   0.00033  -0.00002   1.89804
    A9        1.85276  -0.00000   0.00032  -0.00017   0.00015   1.85290
   A10        2.18151  -0.00000   0.00013  -0.00009   0.00003   2.18154
   A11        1.95207   0.00001  -0.00027   0.00015  -0.00012   1.95195
   A12        2.14875  -0.00000   0.00013  -0.00004   0.00008   2.14884
   A13        1.85340   0.00002   0.00025  -0.00011   0.00014   1.85354
    D1       -0.71897   0.00002   0.00134   0.00103   0.00236  -0.71660
    D2        1.36221   0.00001   0.00205   0.00035   0.00240   1.36461
    D3       -2.81473   0.00001   0.00219   0.00031   0.00250  -2.81223
    D4       -2.77956   0.00001   0.00263   0.00020   0.00283  -2.77673
    D5       -0.69838   0.00000   0.00335  -0.00048   0.00287  -0.69552
    D6        1.40786   0.00000   0.00348  -0.00052   0.00297   1.41083
    D7        0.39294  -0.00003  -0.00094  -0.00080  -0.00174   0.39120
    D8       -2.79190  -0.00003  -0.00127  -0.00059  -0.00186  -2.79375
    D9       -1.79168  -0.00000  -0.00146  -0.00018  -0.00164  -1.79333
   D10        1.30666  -0.00000  -0.00179   0.00003  -0.00176   1.30490
   D11        2.50936  -0.00001  -0.00190   0.00003  -0.00188   2.50748
   D12       -0.67548  -0.00001  -0.00224   0.00024  -0.00200  -0.67748
   D13       -3.08735  -0.00000  -0.00003  -0.00004  -0.00006  -3.08741
   D14        0.01194  -0.00000  -0.00035   0.00017  -0.00018   0.01176
         Item               Value     Threshold  Converged?
 Maximum Force            0.000095     0.000450     YES
 RMS     Force            0.000030     0.000300     YES
 Maximum Displacement     0.004891     0.001800     NO 
 RMS     Displacement     0.001336     0.001200     NO 
 Predicted change in Energy=-1.772457D-07
 Lowest energy point so far.  Saving SCF results.
 GradGradGradGradGradGradGradGradGradGradGradGradGradGradGradGradGradGrad

 Leave Link  103 at Fri Mar 14 15:42:00 2025, MaxMem=  8589934592 cpu:               0.4 elap:               0.1
 (Enter /home/enzo/gaussian_versions/gdv.j21/gdv/l202.exe)
                          Input orientation:                          
 ---------------------------------------------------------------------
 Center     Atomic      Atomic             Coordinates (Angstroms)
 Number     Number       Type             X           Y           Z
 ---------------------------------------------------------------------
      1          7           0       -1.958075    0.007058    0.149350
      2          6           0       -0.762787    0.836811    0.105719
      3          6           0        0.460045   -0.035718   -0.093546
      4          8           0        0.449236   -1.147238   -0.573944
      5          8           0        1.595735    0.595920    0.282790
      6          1           0       -1.880875   -0.717309   -0.562092
      7          1           0       -2.781650    0.564142   -0.062474
      8          1           0       -0.730883    1.585278   -0.709928
      9          1           0       -0.646520    1.398292    1.039771
     10          1           0        2.328395   -0.014210    0.074619
 ---------------------------------------------------------------------
                    Distance matrix (angstroms):
                    1          2          3          4          5
     1  N    0.000000
     2  C    1.455715   0.000000
     3  C    2.430664   1.515365   0.000000
     4  O    2.765990   2.422270   1.210941   0.000000
     5  O    3.604737   2.377396   1.352918   2.255450   0.000000
     6  H    1.018241   2.027653   2.482741   2.369472   3.811196
     7  H    1.016606   2.044124   3.296875   3.691754   4.391096
     8  H    2.176037   1.107475   2.103773   2.979567   2.716150
     9  H    2.109160   1.096008   2.136651   3.206943   2.498906
    10  H    4.287174   3.206340   1.876026   2.288149   0.975902
                    6          7          8          9         10
     6  H    0.000000
     7  H    1.644120   0.000000
     8  H    2.578031   2.380665   0.000000
     9  H    2.926664   2.543527   1.761683   0.000000
    10  H    4.314823   5.144497   3.540206   3.431735   0.000000
 Stoichiometry    C2H5NO2
 Framework group  C1[X(C2H5NO2)]
 Deg. of freedom    24
 Full point group                 C1      NOp   1
 RotChk:  IX=0 Diff= 1.11D-03
 Largest Abelian subgroup         C1      NOp   1
 Largest concise Abelian subgroup C1      NOp   1
                         Standard orientation:                         
 ---------------------------------------------------------------------
 Center     Atomic      Atomic             Coordinates (Angstroms)
 Number     Number       Type             X           Y           Z
 ---------------------------------------------------------------------
      1          7           0       -1.880651    0.103840   -0.223518
      2          6           0       -0.732722   -0.715752    0.136528
      3          6           0        0.538031    0.101165    0.017517
      4          8           0        0.592559    1.310243    0.056705
      5          8           0        1.633992   -0.685242   -0.086518
      6          1           0       -1.757767    1.033327    0.173682
      7          1           0       -2.732001   -0.291043    0.167326
      8          1           0       -0.735596   -1.113407    1.170144
      9          1           0       -0.655249   -1.586143   -0.525023
     10          1           0        2.400911   -0.082093   -0.107265
 ---------------------------------------------------------------------
 Rotational constants (GHZ):          10.2972522           3.9528894           2.9495034
 Leave Link  202 at Fri Mar 14 15:42:00 2025, MaxMem=  8589934592 cpu:               0.0 elap:               0.1
 (Enter /home/enzo/gaussian_versions/gdv.j21/gdv/l301.exe)
 Standard basis: 6-31G(d) (6D, 7F)
 Ernie: Thresh=  0.10000D-02 Tol=  0.10000D-05 Strict=F.
 There are    85 symmetry adapted cartesian basis functions of A   symmetry.
 There are    85 symmetry adapted basis functions of A   symmetry.
    85 basis functions,   160 primitive gaussians,    85 cartesian basis functions
    20 alpha electrons       20 beta electrons
       nuclear repulsion energy       179.4189380703 Hartrees.
 IExCor=      4002 DFT=T Ex+Corr=B3LYP ScaHFX=  0.200000
 ScaDFX=  0.800000  0.720000  1.000000  0.810000  1.000000  0.000000
 ScaDFX=  0.000000  0.000000  0.000000  0.000000  0.000000  0.000000
 IRadAn=      5 IRanWt=     -1 IRanGd=            0 ICorTp=0 IEmpDi=  4
 NAtoms=   10 NActive=   10 NUniq=   10 SFac= 1.00D+00 NAtFMM=   60 NAOKFM=F Big=F
 Integral buffers will be    131072 words long.
 Raffenetti 2 integral format.
 Two-electron integral symmetry is turned on.
 Leave Link  301 at Fri Mar 14 15:42:00 2025, MaxMem=  8589934592 cpu:               0.4 elap:               0.1
 (Enter /home/enzo/gaussian_versions/gdv.j21/gdv/l302.exe)
 NPDir=0 NMtPBC=     1 NCelOv=     1 NCel=       1 NClECP=     1 NCelD=      1
         NCelK=      1 NCelE2=     1 NClLst=     1 CellRange=     0.0.
 One-electron integrals computed using PRISM.
 One-electron integral symmetry used in STVInt
 NBasis=    85 RedAO= T EigKep=  3.86D-03  NBF=    85
 NBsUse=    85 1.00D-06 EigRej= -1.00D+00 NBFU=    85
 Precomputing XC quadrature grid using
 IXCGrd= 4 IRadAn=           5 IRanWt=          -1 IRanGd=           0 AccXCQ= 0.00D+00.
 Generated NRdTot=       0 NPtTot=      219338 NUsed=           0 NTot=          64
 NSgBfM=    85    85    85    85    85 MxSgAt=    10 MxSgA2=    10 SizInc=   0.000
 NMBTot=     1938 MaxBatPerAtom=       84 MaxMicBPerAtom=      199 NBfPt=            15877798.
 Leave Link  302 at Fri Mar 14 15:42:00 2025, MaxMem=  8589934592 cpu:               1.0 elap:               0.2
 (Enter /home/enzo/gaussian_versions/gdv.j21/gdv/l303.exe)
 DipDrv:  MaxL=1.
 Leave Link  303 at Fri Mar 14 15:42:00 2025, MaxMem=  8589934592 cpu:               0.2 elap:               0.2
 (Enter /home/enzo/gaussian_versions/gdv.j21/gdv/l401.exe)
 Initial guess from the checkpoint file:  "/local/home/enzo/scratch/Gau-2409726.chk"
 B after Tr=     0.000000   -0.000000    0.000000
         Rot=    1.000000   -0.000105   -0.000009   -0.000091 Ang=  -0.02 deg.
 AO Guess basis will be translated and rotated to current coordinates.
 JPrj=2 DoOrth=T DoCkMO=T.
 Leave Link  401 at Fri Mar 14 15:42:00 2025, MaxMem=  8589934592 cpu:               0.5 elap:               0.2
 (Enter /home/enzo/gaussian_versions/gdv.j21/gdv/l502.exe)
 Keep R1 ints in memory in canonical form, NReq=17617987.
 FoFCou: FMM=F IPFlag=           0 FMFlag=           0 FMFlg1=           0
         NFxFlg=           0 DoJE=F BraDBF=F KetDBF=F FulRan=T
         wScrn=  0.000000 ICntrl=       600 IOpCl=  0 I1Cent=           0 NGrid=           0
         NMat0=    1 NMatS0=   3655 NMatT0=    0 NMatD0=    1 NMtDS0=    0 NMtDT0=    0
 Symmetry not used in FoFCou.
 Two-electron integral symmetry not used.
 Closed shell SCF:
 Using DIIS extrapolation, IDIIS=  1040.
 NGot=  8589934592 LenX=  8583230350 LenY=  8583222684
 Requested convergence on RMS density matrix=1.00D-08 within 128 cycles.
 Requested convergence on MAX density matrix=1.00D-06.
 Requested convergence on             energy=1.00D-06.
 No special actions if energy rises.

 Cycle   1  Pass 1  IDiag  1:
 E= -284.420043806570    
 DIIS: error= 8.48D-05 at cycle   1 NSaved=   1.
 NSaved= 1 IEnMin= 1 EnMin= -284.420043806570     IErMin= 1 ErrMin= 8.48D-05
 ErrMax= 8.48D-05  0.00D+00 EMaxC= 1.00D-01 BMatC= 9.03D-07 BMatP= 9.03D-07
 IDIUse=1 WtCom= 1.00D+00 WtEn= 0.00D+00
 Coeff-Com:  0.100D+01
 Coeff:      0.100D+01
 Gap=     1.554 Goal=   None    Shift=    0.000
 RMSDP=1.97D-05 MaxDP=3.50D-04              OVMax= 5.33D-04

 Cycle   2  Pass 1  IDiag  1:
 E= -284.420045570745     Delta-E=       -0.000001764175 Rises=F Damp=F
 DIIS: error= 1.19D-05 at cycle   2 NSaved=   2.
 NSaved= 2 IEnMin= 2 EnMin= -284.420045570745     IErMin= 2 ErrMin= 1.19D-05
 ErrMax= 1.19D-05  0.00D+00 EMaxC= 1.00D-01 BMatC= 1.44D-08 BMatP= 9.03D-07
 IDIUse=1 WtCom= 1.00D+00 WtEn= 0.00D+00
 Coeff-Com: -0.669D-01 0.107D+01
 Coeff:     -0.669D-01 0.107D+01
 Gap=     0.246 Goal=   None    Shift=    0.000
 RMSDP=3.60D-06 MaxDP=5.53D-05 DE=-1.76D-06 OVMax= 9.03D-05

 Cycle   3  Pass 1  IDiag  1:
 E= -284.420045576676     Delta-E=       -0.000000005931 Rises=F Damp=F
 DIIS: error= 1.43D-05 at cycle   3 NSaved=   3.
 NSaved= 3 IEnMin= 3 EnMin= -284.420045576676     IErMin= 2 ErrMin= 1.19D-05
 ErrMax= 1.43D-05  0.00D+00 EMaxC= 1.00D-01 BMatC= 2.55D-08 BMatP= 1.44D-08
 IDIUse=1 WtCom= 1.00D+00 WtEn= 0.00D+00
 Coeff-Com: -0.522D-01 0.666D+00 0.387D+00
 Coeff:     -0.522D-01 0.666D+00 0.387D+00
 Gap=     0.246 Goal=   None    Shift=    0.000
 RMSDP=1.74D-06 MaxDP=4.34D-05 DE=-5.93D-09 OVMax= 6.79D-05

 Cycle   4  Pass 1  IDiag  1:
 E= -284.420045594941     Delta-E=       -0.000000018265 Rises=F Damp=F
 DIIS: error= 3.37D-06 at cycle   4 NSaved=   4.
 NSaved= 4 IEnMin= 4 EnMin= -284.420045594941     IErMin= 4 ErrMin= 3.37D-06
 ErrMax= 3.37D-06  0.00D+00 EMaxC= 1.00D-01 BMatC= 1.58D-09 BMatP= 1.44D-08
 IDIUse=1 WtCom= 1.00D+00 WtEn= 0.00D+00
 Coeff-Com: -0.183D-01 0.201D+00 0.221D+00 0.596D+00
 Coeff:     -0.183D-01 0.201D+00 0.221D+00 0.596D+00
 Gap=     0.246 Goal=   None    Shift=    0.000
 RMSDP=4.11D-07 MaxDP=8.13D-06 DE=-1.83D-08 OVMax= 1.43D-05

 Cycle   5  Pass 1  IDiag  1:
 E= -284.420045596101     Delta-E=       -0.000000001160 Rises=F Damp=F
 DIIS: error= 6.36D-07 at cycle   5 NSaved=   5.
 NSaved= 5 IEnMin= 5 EnMin= -284.420045596101     IErMin= 5 ErrMin= 6.36D-07
 ErrMax= 6.36D-07  0.00D+00 EMaxC= 1.00D-01 BMatC= 1.00D-10 BMatP= 1.58D-09
 IDIUse=1 WtCom= 1.00D+00 WtEn= 0.00D+00
 Coeff-Com: -0.367D-02 0.330D-01 0.679D-01 0.278D+00 0.624D+00
 Coeff:     -0.367D-02 0.330D-01 0.679D-01 0.278D+00 0.624D+00
 Gap=     0.246 Goal=   None    Shift=    0.000
 RMSDP=1.25D-07 MaxDP=2.14D-06 DE=-1.16D-09 OVMax= 2.49D-06

 Cycle   6  Pass 1  IDiag  1:
 E= -284.420045596183     Delta-E=       -0.000000000082 Rises=F Damp=F
 DIIS: error= 2.38D-07 at cycle   6 NSaved=   6.
 NSaved= 6 IEnMin= 6 EnMin= -284.420045596183     IErMin= 6 ErrMin= 2.38D-07
 ErrMax= 2.38D-07  0.00D+00 EMaxC= 1.00D-01 BMatC= 8.42D-12 BMatP= 1.00D-10
 IDIUse=1 WtCom= 1.00D+00 WtEn= 0.00D+00
 Coeff-Com:  0.391D-03-0.780D-02 0.456D-02 0.527D-01 0.268D+00 0.682D+00
 Coeff:      0.391D-03-0.780D-02 0.456D-02 0.527D-01 0.268D+00 0.682D+00
 Gap=     0.246 Goal=   None    Shift=    0.000
 RMSDP=4.29D-08 MaxDP=8.98D-07 DE=-8.17D-11 OVMax= 1.09D-06

 Cycle   7  Pass 1  IDiag  1:
 E= -284.420045596192     Delta-E=       -0.000000000009 Rises=F Damp=F
 DIIS: error= 7.34D-08 at cycle   7 NSaved=   7.
 NSaved= 7 IEnMin= 7 EnMin= -284.420045596192     IErMin= 7 ErrMin= 7.34D-08
 ErrMax= 7.34D-08  0.00D+00 EMaxC= 1.00D-01 BMatC= 8.54D-13 BMatP= 8.42D-12
 IDIUse=1 WtCom= 1.00D+00 WtEn= 0.00D+00
 Coeff-Com:  0.454D-03-0.633D-02-0.339D-02 0.310D-02 0.755D-01 0.320D+00
 Coeff-Com:  0.610D+00
 Coeff:      0.454D-03-0.633D-02-0.339D-02 0.310D-02 0.755D-01 0.320D+00
 Coeff:      0.610D+00
 Gap=     0.246 Goal=   None    Shift=    0.000
 RMSDP=1.20D-08 MaxDP=1.70D-07 DE=-9.21D-12 OVMax= 2.86D-07

 Cycle   8  Pass 1  IDiag  1:
 E= -284.420045596192     Delta-E=        0.000000000000 Rises=F Damp=F
 DIIS: error= 1.46D-08 at cycle   8 NSaved=   8.
 NSaved= 8 IEnMin= 7 EnMin= -284.420045596192     IErMin= 8 ErrMin= 1.46D-08
 ErrMax= 1.46D-08  0.00D+00 EMaxC= 1.00D-01 BMatC= 2.11D-14 BMatP= 8.54D-13
 IDIUse=1 WtCom= 1.00D+00 WtEn= 0.00D+00
 Coeff-Com:  0.825D-04-0.100D-02-0.125D-02-0.286D-02-0.103D-04 0.351D-01
 Coeff-Com:  0.155D+00 0.815D+00
 Coeff:      0.825D-04-0.100D-02-0.125D-02-0.286D-02-0.103D-04 0.351D-01
 Coeff:      0.155D+00 0.815D+00
 Gap=     0.246 Goal=   None    Shift=    0.000
 RMSDP=2.73D-09 MaxDP=3.92D-08 DE= 2.27D-13 OVMax= 1.13D-07

 SCF Done:  E(RB3LYP) =  -284.420045596     A.U. after    8 cycles
            NFock=  8  Conv=0.27D-08     -V/T= 2.0089
 KE= 2.819181541501D+02 PE=-1.025076128794D+03 EE= 2.793189909775D+02
 Leave Link  502 at Fri Mar 14 15:42:01 2025, MaxMem=  8589934592 cpu:               9.9 elap:               1.0
 (Enter /home/enzo/gaussian_versions/gdv.j21/gdv/l701.exe)
 ... and contract with generalized density number  0.
 Compute integral first derivatives.
 Leave Link  701 at Fri Mar 14 15:42:02 2025, MaxMem=  8589934592 cpu:               0.7 elap:               0.2
 (Enter /home/enzo/gaussian_versions/gdv.j21/gdv/l702.exe)
 L702 exits ... SP integral derivatives will be done elsewhere.
 Leave Link  702 at Fri Mar 14 15:42:02 2025, MaxMem=  8589934592 cpu:               0.2 elap:               0.1
 (Enter /home/enzo/gaussian_versions/gdv.j21/gdv/l703.exe)
 Integral derivatives from FoFJK, PRISM(SPDF).
 Compute integral first derivatives, UseDBF=F ICtDFT=           0.
 Calling FoFJK, ICntrl=      2127 FMM=F ISym2X=0 I1Cent= 0 IOpClX= 0 NMat=1 NMatS=1 NMatT=0.
 FoFJK:  IHMeth= 1 ICntrl=    2127 DoSepK=F KAlg= 0 I1Cent=           0 FoldK=F
 IRaf=         0 NMat=       1 IRICut=       1 DoRegI=T DoRafI=F ISym2E= 0 IDoP0=0 IntGTp=1.
 FoFCou: FMM=F IPFlag=           0 FMFlag=      100000 FMFlg1=         800
         NFxFlg=           0 DoJE=F BraDBF=F KetDBF=F FulRan=T
         wScrn=  0.000000 ICntrl=      2127 IOpCl=  0 I1Cent=           0 NGrid=           0
         NMat0=    1 NMatS0=      1 NMatT0=    0 NMatD0=    1 NMtDS0=    0 NMtDT0=    0
 Symmetry not used in FoFCou.
 Leave Link  703 at Fri Mar 14 15:42:02 2025, MaxMem=  8589934592 cpu:               4.2 elap:               0.6
 (Enter /home/enzo/gaussian_versions/gdv.j21/gdv/l716.exe)
 Dipole        = 8.29497772D-02-5.45228100D-01 5.74539899D-01
 ***** Axes restored to original set *****
 -------------------------------------------------------------------
 Center     Atomic                   Forces (Hartrees/Bohr)
 Number     Number              X              Y              Z
 -------------------------------------------------------------------
      1        7          -0.000022227    0.000112568   -0.000087750
      2        6          -0.000022858   -0.000169842    0.000052272
      3        6          -0.000097233    0.000118476   -0.000019043
      4        8           0.000015599   -0.000066772   -0.000002602
      5        8           0.000051990    0.000014215    0.000005237
      6        1           0.000021828   -0.000011202    0.000027159
      7        1           0.000028524   -0.000032068    0.000023212
      8        1          -0.000003085    0.000021304   -0.000004723
      9        1           0.000019348    0.000019754    0.000005062
     10        1           0.000008113   -0.000006433    0.000001177
 -------------------------------------------------------------------
 Cartesian Forces:  Max     0.000169842 RMS     0.000054640
 Leave Link  716 at Fri Mar 14 15:42:03 2025, MaxMem=  8589934592 cpu:               0.1 elap:               0.1
 (Enter /home/enzo/gaussian_versions/gdv.j21/gdv/l103.exe)

 GradGradGradGradGradGradGradGradGradGradGradGradGradGradGradGradGradGrad
 Berny optimization.
 Using GEDIIS/GDIIS optimizer.
 FormGI is forming the generalized inverse of G from B-inverse, IUseBI=4.
 Internal  Forces:  Max     0.000063989 RMS     0.000026659
 Search for a local minimum.
 Step number  12 out of a maximum of   46
 All quantities printed in internal units (Hartrees-Bohrs-Radians)
 RMS Force = .26659D-04 SwitMx=.10000D-02 MixMth= 2
 Mixed Optimization -- En-DIIS/RFO-DIIS
 Swapping is turned off.
 Update second derivatives using D2CorX and points    7    8    9   10   11
                                                     12
 DE= -2.22D-07 DEPred=-1.77D-07 R= 1.25D+00
 Trust test= 1.25D+00 RLast= 7.92D-03 DXMaxT set to 2.38D+00
 ITU=  0  0  1  1  1  1  1  1  1  1  1  0
     Eigenvalues ---    0.00166   0.00288   0.01881   0.04176   0.04693
     Eigenvalues ---    0.06308   0.07004   0.09551   0.13866   0.15270
     Eigenvalues ---    0.17205   0.18580   0.20363   0.25276   0.29003
     Eigenvalues ---    0.31281   0.32632   0.34109   0.36595   0.41228
     Eigenvalues ---    0.43295   0.46184   0.52118   0.82693
 En-DIIS/RFO-DIIS/Sim-DIIS IScMMF=       -3 using points:    12   11   10    9    8    7
 RFO step:  Lambda=-3.42994159D-07.
 NNeg= 0 NGDIIS= 6 SimSw=  2.50D-01 Rises=F DC= -2.22D-07 SmlDif=  1.00D-05
 NRisDI= 0 DoIntr=F SqrtH=F CThrHd= 10.0 CDAdj=  3.0
 RMS Error=  0.1985617605D-02 NUsed= 6 OKEnD=F EnDIS=F
 InvSVX:  RCond= 4.75D-08 Info=           0 Equed=N FErr=  2.01D-12 BErr=  5.70D-17
 DIIS inversion failure, remove point   6.
 InvSVX:  RCond= 5.94D-08 Info=           0 Equed=N FErr=  1.43D-12 BErr=  3.65D-17
 DIIS inversion failure, remove point   5.
 InvSVX:  RCond= 7.48D-08 Info=           0 Equed=N FErr=  1.19D-12 BErr=  8.31D-17
 DIIS inversion failure, remove point   4.
 InvSVX:  RCond= 7.86D-07 Info=           0 Equed=N FErr=  1.13D-13 BErr=  2.55D-17
 RFO-DIIS uses    3 points instead of    6
 DidBck=FF Rises=F RFO-DIIS coefs:    2.17965   -0.99137   -0.18827    0.00000    0.00000
                   RFO-DIIS coefs:    0.00000
 Iteration  1 RMS(Cart)=  0.00183057 RMS(Int)=  0.00000195
 Iteration  2 RMS(Cart)=  0.00000216 RMS(Int)=  0.00000005
 Iteration  3 RMS(Cart)=  0.00000000 RMS(Int)=  0.00000005
 Variable       Old X    -DE/DX   Delta X   Delta X   Delta X     New X
                                 (Linear)    (Quad)   (Total)
    R1        2.75090  -0.00006   0.00036  -0.00029   0.00007   2.75097
    R2        1.92420  -0.00001   0.00011  -0.00007   0.00004   1.92424
    R3        1.92111  -0.00005   0.00016  -0.00015   0.00001   1.92112
    R4        2.86362  -0.00005  -0.00007  -0.00009  -0.00016   2.86346
    R5        2.09282   0.00002  -0.00017   0.00011  -0.00006   2.09277
    R6        2.07115   0.00002   0.00006   0.00002   0.00008   2.07123
    R7        2.28835   0.00006  -0.00002   0.00003   0.00001   2.28836
    R8        2.55665   0.00006   0.00010   0.00008   0.00018   2.55682
    R9        1.84419   0.00001  -0.00004   0.00002  -0.00001   1.84418
    A1        1.89895  -0.00001  -0.00023   0.00019  -0.00004   1.89891
    A2        1.92474   0.00003  -0.00034   0.00036   0.00002   1.92476
    A3        1.88144   0.00001  -0.00040   0.00040   0.00000   1.88144
    A4        1.91594   0.00004  -0.00012   0.00029   0.00017   1.91612
    A5        2.01634  -0.00002  -0.00009  -0.00003  -0.00012   2.01622
    A6        1.93218   0.00002  -0.00019   0.00024   0.00005   1.93223
    A7        1.84320  -0.00001   0.00030  -0.00021   0.00009   1.84329
    A8        1.89804  -0.00002  -0.00011  -0.00006  -0.00017   1.89788
    A9        1.85290  -0.00001   0.00023  -0.00028  -0.00004   1.85286
   A10        2.18154   0.00001   0.00006   0.00010   0.00016   2.18170
   A11        1.95195   0.00003  -0.00020   0.00010  -0.00009   1.95186
   A12        2.14884  -0.00003   0.00013  -0.00019  -0.00006   2.14877
   A13        1.85354   0.00000   0.00023  -0.00011   0.00012   1.85365
    D1       -0.71660   0.00002   0.00285   0.00053   0.00338  -0.71323
    D2        1.36461   0.00002   0.00309   0.00045   0.00354   1.36815
    D3       -2.81223   0.00001   0.00318   0.00026   0.00344  -2.80879
    D4       -2.77673   0.00000   0.00366  -0.00028   0.00339  -2.77334
    D5       -0.69552  -0.00000   0.00390  -0.00035   0.00355  -0.69196
    D6        1.41083  -0.00001   0.00400  -0.00055   0.00345   1.41428
    D7        0.39120  -0.00003  -0.00259  -0.00035  -0.00294   0.38826
    D8       -2.79375  -0.00002  -0.00279  -0.00012  -0.00291  -2.79667
    D9       -1.79333  -0.00002  -0.00260  -0.00036  -0.00296  -1.79629
   D10        1.30490  -0.00001  -0.00280  -0.00012  -0.00293   1.30197
   D11        2.50748   0.00001  -0.00297   0.00009  -0.00288   2.50460
   D12       -0.67748   0.00002  -0.00317   0.00032  -0.00285  -0.68033
   D13       -3.08741  -0.00001  -0.00015  -0.00014  -0.00029  -3.08770
   D14        0.01176   0.00000  -0.00035   0.00010  -0.00025   0.01151
         Item               Value     Threshold  Converged?
 Maximum Force            0.000064     0.000450     YES
 RMS     Force            0.000027     0.000300     YES
 Maximum Displacement     0.006253     0.001800     NO 
 RMS     Displacement     0.001830     0.001200     NO 
 Predicted change in Energy=-1.689176D-07
 Lowest energy point so far.  Saving SCF results.
 GradGradGradGradGradGradGradGradGradGradGradGradGradGradGradGradGradGrad

 Leave Link  103 at Fri Mar 14 15:42:03 2025, MaxMem=  8589934592 cpu:               0.1 elap:               0.1
 (Enter /home/enzo/gaussian_versions/gdv.j21/gdv/l202.exe)
                          Input orientation:                          
 ---------------------------------------------------------------------
 Center     Atomic      Atomic             Coordinates (Angstroms)
 Number     Number       Type             X           Y           Z
 ---------------------------------------------------------------------
      1          7           0       -1.958577    0.007555    0.148911
      2          6           0       -0.762847    0.836798    0.106545
      3          6           0        0.459720   -0.035855   -0.093147
      4          8           0        0.448558   -1.148041   -0.572008
      5          8           0        1.595864    0.596512    0.280929
      6          1           0       -1.879990   -0.718093   -0.561101
      7          1           0       -2.781472    0.564559   -0.065783
      8          1           0       -0.730483    1.586122   -0.708256
      9          1           0       -0.646561    1.397275    1.041246
     10          1           0        2.328409   -0.013805    0.072929
 ---------------------------------------------------------------------
                    Distance matrix (angstroms):
                    1          2          3          4          5
     1  N    0.000000
     2  C    1.455750   0.000000
     3  C    2.430769   1.515279   0.000000
     4  O    2.765760   2.422297   1.210946   0.000000
     5  O    3.605323   2.377323   1.353013   2.255500   0.000000
     6  H    1.018263   2.027670   2.481667   2.367933   3.810349
     7  H    1.016614   2.044177   3.296449   3.690848   4.391162
     8  H    2.175965   1.107445   2.103748   2.980663   2.714721
     9  H    2.109258   1.096049   2.136485   3.206324   2.499555
    10  H    4.287713   3.206325   1.876184   2.288291   0.975895
                    6          7          8          9         10
     6  H    0.000000
     7  H    1.644144   0.000000
     8  H    2.579230   2.379689   0.000000
     9  H    2.926371   2.544951   1.761666   0.000000
    10  H    4.313773   5.144379   3.539328   3.432089   0.000000
 Stoichiometry    C2H5NO2
 Framework group  C1[X(C2H5NO2)]
 Deg. of freedom    24
 Full point group                 C1      NOp   1
 RotChk:  IX=0 Diff= 1.77D-03
 Largest Abelian subgroup         C1      NOp   1
 Largest concise Abelian subgroup C1      NOp   1
                         Standard orientation:                         
 ---------------------------------------------------------------------
 Center     Atomic      Atomic             Coordinates (Angstroms)
 Number     Number       Type             X           Y           Z
 ---------------------------------------------------------------------
      1          7           0       -1.880993    0.103812   -0.222436
      2          6           0       -0.732518   -0.716194    0.135065
      3          6           0        0.537931    0.101206    0.017225
      4          8           0        0.592088    1.310312    0.056228
      5          8           0        1.634338   -0.684905   -0.085573
      6          1           0       -1.756641    1.033404    0.174116
      7          1           0       -2.731562   -0.290502    0.170695
      8          1           0       -0.734819   -1.116262    1.167719
      9          1           0       -0.655042   -1.585066   -0.528548
     10          1           0        2.401125   -0.081584   -0.105914
 ---------------------------------------------------------------------
 Rotational constants (GHZ):          10.2994128           3.9528960           2.9491326
 Leave Link  202 at Fri Mar 14 15:42:03 2025, MaxMem=  8589934592 cpu:               0.2 elap:               0.2
 (Enter /home/enzo/gaussian_versions/gdv.j21/gdv/l301.exe)
 Standard basis: 6-31G(d) (6D, 7F)
 Ernie: Thresh=  0.10000D-02 Tol=  0.10000D-05 Strict=F.
 There are    85 symmetry adapted cartesian basis functions of A   symmetry.
 There are    85 symmetry adapted basis functions of A   symmetry.
    85 basis functions,   160 primitive gaussians,    85 cartesian basis functions
    20 alpha electrons       20 beta electrons
       nuclear repulsion energy       179.4189124648 Hartrees.
 IExCor=      4002 DFT=T Ex+Corr=B3LYP ScaHFX=  0.200000
 ScaDFX=  0.800000  0.720000  1.000000  0.810000  1.000000  0.000000
 ScaDFX=  0.000000  0.000000  0.000000  0.000000  0.000000  0.000000
 IRadAn=      5 IRanWt=     -1 IRanGd=            0 ICorTp=0 IEmpDi=  4
 NAtoms=   10 NActive=   10 NUniq=   10 SFac= 1.00D+00 NAtFMM=   60 NAOKFM=F Big=F
 Integral buffers will be    131072 words long.
 Raffenetti 2 integral format.
 Two-electron integral symmetry is turned on.
 Leave Link  301 at Fri Mar 14 15:42:03 2025, MaxMem=  8589934592 cpu:               0.3 elap:               0.1
 (Enter /home/enzo/gaussian_versions/gdv.j21/gdv/l302.exe)
 NPDir=0 NMtPBC=     1 NCelOv=     1 NCel=       1 NClECP=     1 NCelD=      1
         NCelK=      1 NCelE2=     1 NClLst=     1 CellRange=     0.0.
 One-electron integrals computed using PRISM.
 One-electron integral symmetry used in STVInt
 NBasis=    85 RedAO= T EigKep=  3.86D-03  NBF=    85
 NBsUse=    85 1.00D-06 EigRej= -1.00D+00 NBFU=    85
 Precomputing XC quadrature grid using
 IXCGrd= 4 IRadAn=           5 IRanWt=          -1 IRanGd=           0 AccXCQ= 0.00D+00.
 Generated NRdTot=       0 NPtTot=      219374 NUsed=           0 NTot=          64
 NSgBfM=    85    85    85    85    85 MxSgAt=    10 MxSgA2=    10 SizInc=   0.000
 NMBTot=     1962 MaxBatPerAtom=       84 MaxMicBPerAtom=      200 NBfPt=            15874201.
 Leave Link  302 at Fri Mar 14 15:42:03 2025, MaxMem=  8589934592 cpu:               0.8 elap:               0.2
 (Enter /home/enzo/gaussian_versions/gdv.j21/gdv/l303.exe)
 DipDrv:  MaxL=1.
 Leave Link  303 at Fri Mar 14 15:42:03 2025, MaxMem=  8589934592 cpu:               0.1 elap:               0.1
 (Enter /home/enzo/gaussian_versions/gdv.j21/gdv/l401.exe)
 Initial guess from the checkpoint file:  "/local/home/enzo/scratch/Gau-2409726.chk"
 B after Tr=     0.000000    0.000000   -0.000000
         Rot=    1.000000   -0.000157   -0.000017   -0.000085 Ang=  -0.02 deg.
 AO Guess basis will be translated and rotated to current coordinates.
 JPrj=2 DoOrth=T DoCkMO=T.
 Leave Link  401 at Fri Mar 14 15:42:04 2025, MaxMem=  8589934592 cpu:               0.6 elap:               0.2
 (Enter /home/enzo/gaussian_versions/gdv.j21/gdv/l502.exe)
 Keep R1 ints in memory in canonical form, NReq=17617987.
 FoFCou: FMM=F IPFlag=           0 FMFlag=           0 FMFlg1=           0
         NFxFlg=           0 DoJE=F BraDBF=F KetDBF=F FulRan=T
         wScrn=  0.000000 ICntrl=       600 IOpCl=  0 I1Cent=           0 NGrid=           0
         NMat0=    1 NMatS0=   3655 NMatT0=    0 NMatD0=    1 NMtDS0=    0 NMtDT0=    0
 Symmetry not used in FoFCou.
 Two-electron integral symmetry not used.
 Closed shell SCF:
 Using DIIS extrapolation, IDIIS=  1040.
 NGot=  8589934592 LenX=  8583230350 LenY=  8583222684
 Requested convergence on RMS density matrix=1.00D-08 within 128 cycles.
 Requested convergence on MAX density matrix=1.00D-06.
 Requested convergence on             energy=1.00D-06.
 No special actions if energy rises.

 Cycle   1  Pass 1  IDiag  1:
 E= -284.420042269097    
 DIIS: error= 1.17D-04 at cycle   1 NSaved=   1.
 NSaved= 1 IEnMin= 1 EnMin= -284.420042269097     IErMin= 1 ErrMin= 1.17D-04
 ErrMax= 1.17D-04  0.00D+00 EMaxC= 1.00D-01 BMatC= 1.75D-06 BMatP= 1.75D-06
 IDIUse=3 WtCom= 9.99D-01 WtEn= 1.17D-03
 Coeff-Com:  0.100D+01
 Coeff-En:   0.100D+01
 Coeff:      0.100D+01
 Gap=     1.554 Goal=   None    Shift=    0.000
 RMSDP=2.80D-05 MaxDP=4.03D-04              OVMax= 6.90D-04

 Cycle   2  Pass 1  IDiag  1:
 E= -284.420045760560     Delta-E=       -0.000003491463 Rises=F Damp=F
 DIIS: error= 1.38D-05 at cycle   2 NSaved=   2.
 NSaved= 2 IEnMin= 2 EnMin= -284.420045760560     IErMin= 2 ErrMin= 1.38D-05
 ErrMax= 1.38D-05  0.00D+00 EMaxC= 1.00D-01 BMatC= 2.45D-08 BMatP= 1.75D-06
 IDIUse=1 WtCom= 1.00D+00 WtEn= 0.00D+00
 Coeff-Com: -0.752D-01 0.108D+01
 Coeff:     -0.752D-01 0.108D+01
 Gap=     0.246 Goal=   None    Shift=    0.000
 RMSDP=4.52D-06 MaxDP=6.73D-05 DE=-3.49D-06 OVMax= 1.14D-04

 Cycle   3  Pass 1  IDiag  1:
 E= -284.420045787520     Delta-E=       -0.000000026960 Rises=F Damp=F
 DIIS: error= 1.38D-05 at cycle   3 NSaved=   3.
 NSaved= 3 IEnMin= 3 EnMin= -284.420045787520     IErMin= 3 ErrMin= 1.38D-05
 ErrMax= 1.38D-05  0.00D+00 EMaxC= 1.00D-01 BMatC= 2.54D-08 BMatP= 2.45D-08
 IDIUse=1 WtCom= 1.00D+00 WtEn= 0.00D+00
 Coeff-Com: -0.497D-01 0.615D+00 0.435D+00
 Coeff:     -0.497D-01 0.615D+00 0.435D+00
 Gap=     0.246 Goal=   None    Shift=    0.000
 RMSDP=1.99D-06 MaxDP=4.65D-05 DE=-2.70D-08 OVMax= 7.53D-05

 Cycle   4  Pass 1  IDiag  1:
 E= -284.420045804500     Delta-E=       -0.000000016980 Rises=F Damp=F
 DIIS: error= 5.68D-06 at cycle   4 NSaved=   4.
 NSaved= 4 IEnMin= 4 EnMin= -284.420045804500     IErMin= 4 ErrMin= 5.68D-06
 ErrMax= 5.68D-06  0.00D+00 EMaxC= 1.00D-01 BMatC= 3.85D-09 BMatP= 2.45D-08
 IDIUse=1 WtCom= 1.00D+00 WtEn= 0.00D+00
 Coeff-Com: -0.161D-01 0.177D+00 0.285D+00 0.554D+00
 Coeff:     -0.161D-01 0.177D+00 0.285D+00 0.554D+00
 Gap=     0.246 Goal=   None    Shift=    0.000
 RMSDP=6.15D-07 MaxDP=1.41D-05 DE=-1.70D-08 OVMax= 2.36D-05

 Cycle   5  Pass 1  IDiag  1:
 E= -284.420045807361     Delta-E=       -0.000000002861 Rises=F Damp=F
 DIIS: error= 9.17D-07 at cycle   5 NSaved=   5.
 NSaved= 5 IEnMin= 5 EnMin= -284.420045807361     IErMin= 5 ErrMin= 9.17D-07
 ErrMax= 9.17D-07  0.00D+00 EMaxC= 1.00D-01 BMatC= 1.61D-10 BMatP= 3.85D-09
 IDIUse=1 WtCom= 1.00D+00 WtEn= 0.00D+00
 Coeff-Com: -0.311D-02 0.283D-01 0.933D-01 0.254D+00 0.627D+00
 Coeff:     -0.311D-02 0.283D-01 0.933D-01 0.254D+00 0.627D+00
 Gap=     0.246 Goal=   None    Shift=    0.000
 RMSDP=1.60D-07 MaxDP=2.62D-06 DE=-2.86D-09 OVMax= 3.15D-06

 Cycle   6  Pass 1  IDiag  1:
 E= -284.420045807500     Delta-E=       -0.000000000139 Rises=F Damp=F
 DIIS: error= 3.13D-07 at cycle   6 NSaved=   6.
 NSaved= 6 IEnMin= 6 EnMin= -284.420045807500     IErMin= 6 ErrMin= 3.13D-07
 ErrMax= 3.13D-07  0.00D+00 EMaxC= 1.00D-01 BMatC= 1.35D-11 BMatP= 1.61D-10
 IDIUse=1 WtCom= 1.00D+00 WtEn= 0.00D+00
 Coeff-Com:  0.445D-03-0.813D-02 0.849D-02 0.498D-01 0.264D+00 0.685D+00
 Coeff:      0.445D-03-0.813D-02 0.849D-02 0.498D-01 0.264D+00 0.685D+00
 Gap=     0.246 Goal=   None    Shift=    0.000
 RMSDP=4.65D-08 MaxDP=9.25D-07 DE=-1.39D-10 OVMax= 1.21D-06

 Cycle   7  Pass 1  IDiag  1:
 E= -284.420045807510     Delta-E=       -0.000000000011 Rises=F Damp=F
 DIIS: error= 8.76D-08 at cycle   7 NSaved=   7.
 NSaved= 7 IEnMin= 7 EnMin= -284.420045807510     IErMin= 7 ErrMin= 8.76D-08
 ErrMax= 8.76D-08  0.00D+00 EMaxC= 1.00D-01 BMatC= 1.71D-12 BMatP= 1.35D-11
 IDIUse=1 WtCom= 1.00D+00 WtEn= 0.00D+00
 Coeff-Com:  0.459D-03-0.639D-02-0.360D-02 0.429D-02 0.783D-01 0.335D+00
 Coeff-Com:  0.592D+00
 Coeff:      0.459D-03-0.639D-02-0.360D-02 0.429D-02 0.783D-01 0.335D+00
 Coeff:      0.592D+00
 Gap=     0.246 Goal=   None    Shift=    0.000
 RMSDP=1.66D-08 MaxDP=2.72D-07 DE=-1.06D-11 OVMax= 4.19D-07

 Cycle   8  Pass 1  IDiag  1:
 E= -284.420045807511     Delta-E=       -0.000000000001 Rises=F Damp=F
 DIIS: error= 1.62D-08 at cycle   8 NSaved=   8.
 NSaved= 8 IEnMin= 8 EnMin= -284.420045807511     IErMin= 8 ErrMin= 1.62D-08
 ErrMax= 1.62D-08  0.00D+00 EMaxC= 1.00D-01 BMatC= 7.23D-14 BMatP= 1.71D-12
 IDIUse=1 WtCom= 1.00D+00 WtEn= 0.00D+00
 Coeff-Com:  0.992D-04-0.125D-02-0.186D-02-0.272D-02 0.167D-02 0.487D-01
 Coeff-Com:  0.199D+00 0.756D+00
 Coeff:      0.992D-04-0.125D-02-0.186D-02-0.272D-02 0.167D-02 0.487D-01
 Coeff:      0.199D+00 0.756D+00
 Gap=     0.246 Goal=   None    Shift=    0.000
 RMSDP=4.34D-09 MaxDP=6.26D-08 DE=-7.96D-13 OVMax= 1.76D-07

 SCF Done:  E(RB3LYP) =  -284.420045808     A.U. after    8 cycles
            NFock=  8  Conv=0.43D-08     -V/T= 2.0089
 KE= 2.819179325121D+02 PE=-1.025075556179D+03 EE= 2.793186653941D+02
 Leave Link  502 at Fri Mar 14 15:42:05 2025, MaxMem=  8589934592 cpu:               9.9 elap:               1.0
 (Enter /home/enzo/gaussian_versions/gdv.j21/gdv/l701.exe)
 ... and contract with generalized density number  0.
 Compute integral first derivatives.
 Leave Link  701 at Fri Mar 14 15:42:05 2025, MaxMem=  8589934592 cpu:               1.0 elap:               0.2
 (Enter /home/enzo/gaussian_versions/gdv.j21/gdv/l702.exe)
 L702 exits ... SP integral derivatives will be done elsewhere.
 Leave Link  702 at Fri Mar 14 15:42:05 2025, MaxMem=  8589934592 cpu:               0.1 elap:               0.1
 (Enter /home/enzo/gaussian_versions/gdv.j21/gdv/l703.exe)
 Integral derivatives from FoFJK, PRISM(SPDF).
 Compute integral first derivatives, UseDBF=F ICtDFT=           0.
 Calling FoFJK, ICntrl=      2127 FMM=F ISym2X=0 I1Cent= 0 IOpClX= 0 NMat=1 NMatS=1 NMatT=0.
 FoFJK:  IHMeth= 1 ICntrl=    2127 DoSepK=F KAlg= 0 I1Cent=           0 FoldK=F
 IRaf=         0 NMat=       1 IRICut=       1 DoRegI=T DoRafI=F ISym2E= 0 IDoP0=0 IntGTp=1.
 FoFCou: FMM=F IPFlag=           0 FMFlag=      100000 FMFlg1=         800
         NFxFlg=           0 DoJE=F BraDBF=F KetDBF=F FulRan=T
         wScrn=  0.000000 ICntrl=      2127 IOpCl=  0 I1Cent=           0 NGrid=           0
         NMat0=    1 NMatS0=      1 NMatT0=    0 NMatD0=    1 NMtDS0=    0 NMtDT0=    0
 Symmetry not used in FoFCou.
 Leave Link  703 at Fri Mar 14 15:42:05 2025, MaxMem=  8589934592 cpu:               3.9 elap:               0.5
 (Enter /home/enzo/gaussian_versions/gdv.j21/gdv/l716.exe)
 Dipole        = 8.47685849D-02-5.45009920D-01 5.74876697D-01
 ***** Axes restored to original set *****
 -------------------------------------------------------------------
 Center     Atomic                   Forces (Hartrees/Bohr)
 Number     Number              X              Y              Z
 -------------------------------------------------------------------
      1        7          -0.000015921    0.000112837   -0.000101782
      2        6          -0.000075458   -0.000162797    0.000059186
      3        6           0.000009984    0.000113204   -0.000023048
      4        8           0.000006529   -0.000054089    0.000001593
      5        8          -0.000003787   -0.000002376    0.000009455
      6        1           0.000018817    0.000003513    0.000035777
      7        1           0.000037211   -0.000041778    0.000034305
      8        1           0.000003315    0.000018994   -0.000002925
      9        1           0.000024159    0.000025248   -0.000007836
     10        1          -0.000004849   -0.000012756   -0.000004725
 -------------------------------------------------------------------
 Cartesian Forces:  Max     0.000162797 RMS     0.000052724
 Leave Link  716 at Fri Mar 14 15:42:06 2025, MaxMem=  8589934592 cpu:               0.1 elap:               0.2
 (Enter /home/enzo/gaussian_versions/gdv.j21/gdv/l103.exe)

 GradGradGradGradGradGradGradGradGradGradGradGradGradGradGradGradGradGrad
 Berny optimization.
 Using GEDIIS/GDIIS optimizer.
 FormGI is forming the generalized inverse of G from B-inverse, IUseBI=4.
 Internal  Forces:  Max     0.000076633 RMS     0.000025124
 Search for a local minimum.
 Step number  13 out of a maximum of   46
 All quantities printed in internal units (Hartrees-Bohrs-Radians)
 RMS Force = .25124D-04 SwitMx=.10000D-02 MixMth= 2
 Mixed Optimization -- En-DIIS/RFO-DIIS
 Swapping is turned off.
 Update second derivatives using D2CorX and points    7    8    9   10   11
                                                     12   13
 DE= -2.11D-07 DEPred=-1.69D-07 R= 1.25D+00
 Trust test= 1.25D+00 RLast= 1.11D-02 DXMaxT set to 2.38D+00
 ITU=  0  0  0  1  1  1  1  1  1  1  1  1  0
     Eigenvalues ---    0.00129   0.00283   0.01882   0.03971   0.04725
     Eigenvalues ---    0.06223   0.06721   0.09609   0.13881   0.15263
     Eigenvalues ---    0.17199   0.18810   0.20627   0.24930   0.26262
     Eigenvalues ---    0.31581   0.32645   0.34439   0.36337   0.41319
     Eigenvalues ---    0.41756   0.46598   0.56184   0.81759
 En-DIIS/RFO-DIIS/Sim-DIIS IScMMF=       -3 using points:    13   12   11   10    9    8    7
 RFO step:  Lambda=-1.90615359D-07.
 NNeg= 0 NGDIIS= 7 SimSw=  2.50D-01 Rises=F DC= -2.11D-07 SmlDif=  1.00D-05
 NRisDI= 0 DoIntr=F SqrtH=F CThrHd= 10.0 CDAdj=  3.0
 RMS Error=  0.1317893668D-02 NUsed= 7 OKEnD=F EnDIS=F
 InvSVX:  RCond= 3.66D-09 Info=           0 Equed=N FErr=  3.22D-11 BErr=  6.03D-17
 DIIS inversion failure, remove point   7.
 InvSVX:  RCond= 4.81D-09 Info=           0 Equed=N FErr=  2.55D-11 BErr=  4.01D-17
 DIIS inversion failure, remove point   6.
 InvSVX:  RCond= 8.67D-09 Info=           0 Equed=N FErr=  1.50D-11 BErr=  8.22D-17
 DIIS inversion failure, remove point   5.
 InvSVX:  RCond= 3.57D-08 Info=           0 Equed=N FErr=  2.83D-12 BErr=  5.38D-17
 DIIS inversion failure, remove point   4.
 InvSVX:  RCond= 1.19D-07 Info=           0 Equed=N FErr=  4.91D-13 BErr=  5.18D-17
 RFO-DIIS uses    3 points instead of    7
 DidBck=FF Rises=F RFO-DIIS coefs:    1.53701   -0.32303   -0.21397    0.00000    0.00000
                   RFO-DIIS coefs:    0.00000    0.00000
 Iteration  1 RMS(Cart)=  0.00121589 RMS(Int)=  0.00000099
 Iteration  2 RMS(Cart)=  0.00000115 RMS(Int)=  0.00000002
 Iteration  3 RMS(Cart)=  0.00000000 RMS(Int)=  0.00000002
 Variable       Old X    -DE/DX   Delta X   Delta X   Delta X     New X
                                 (Linear)    (Quad)   (Total)
    R1        2.75097  -0.00008   0.00007  -0.00022  -0.00015   2.75082
    R2        1.92424  -0.00003   0.00004  -0.00007  -0.00003   1.92421
    R3        1.92112  -0.00006   0.00002  -0.00012  -0.00009   1.92103
    R4        2.86346  -0.00002  -0.00011  -0.00005  -0.00016   2.86330
    R5        2.09277   0.00002  -0.00005   0.00008   0.00003   2.09280
    R6        2.07123   0.00001   0.00005   0.00002   0.00007   2.07130
    R7        2.28836   0.00005   0.00001   0.00005   0.00006   2.28841
    R8        2.55682  -0.00001   0.00011  -0.00002   0.00009   2.55692
    R9        1.84418   0.00001  -0.00001   0.00001   0.00000   1.84418
    A1        1.89891  -0.00001  -0.00005   0.00009   0.00004   1.89895
    A2        1.92476   0.00004  -0.00004   0.00034   0.00030   1.92506
    A3        1.88144   0.00001  -0.00004   0.00030   0.00026   1.88170
    A4        1.91612   0.00004   0.00006   0.00019   0.00025   1.91637
    A5        2.01622  -0.00002  -0.00008  -0.00004  -0.00013   2.01610
    A6        1.93223   0.00002   0.00002   0.00023   0.00025   1.93248
    A7        1.84329  -0.00002   0.00008  -0.00014  -0.00006   1.84323
    A8        1.89788  -0.00002  -0.00009  -0.00005  -0.00014   1.89773
    A9        1.85286  -0.00001   0.00001  -0.00022  -0.00021   1.85265
   A10        2.18170   0.00000   0.00009  -0.00002   0.00007   2.18177
   A11        1.95186   0.00002  -0.00008   0.00010   0.00003   1.95188
   A12        2.14877  -0.00002  -0.00002  -0.00007  -0.00009   2.14869
   A13        1.85365  -0.00003   0.00009  -0.00013  -0.00004   1.85361
    D1       -0.71323   0.00002   0.00232   0.00052   0.00284  -0.71039
    D2        1.36815   0.00002   0.00242   0.00045   0.00286   1.37102
    D3       -2.80879   0.00001   0.00238   0.00031   0.00269  -2.80610
    D4       -2.77334  -0.00001   0.00242  -0.00010   0.00232  -2.77102
    D5       -0.69196  -0.00001   0.00252  -0.00017   0.00235  -0.68962
    D6        1.41428  -0.00002   0.00249  -0.00031   0.00218   1.41646
    D7        0.38826  -0.00002  -0.00195  -0.00012  -0.00207   0.38619
    D8       -2.79667  -0.00001  -0.00196   0.00013  -0.00184  -2.79850
    D9       -1.79629  -0.00002  -0.00194  -0.00009  -0.00203  -1.79832
   D10        1.30197  -0.00000  -0.00195   0.00016  -0.00179   1.30018
   D11        2.50460   0.00001  -0.00195   0.00026  -0.00169   2.50291
   D12       -0.68033   0.00003  -0.00196   0.00050  -0.00146  -0.68179
   D13       -3.08770  -0.00001  -0.00017  -0.00011  -0.00028  -3.08798
   D14        0.01151   0.00001  -0.00017   0.00013  -0.00004   0.01147
         Item               Value     Threshold  Converged?
 Maximum Force            0.000077     0.000450     YES
 RMS     Force            0.000025     0.000300     YES
 Maximum Displacement     0.004239     0.001800     NO 
 RMS     Displacement     0.001216     0.001200     NO 
 Predicted change in Energy=-9.497373D-08
 Lowest energy point so far.  Saving SCF results.
 GradGradGradGradGradGradGradGradGradGradGradGradGradGradGradGradGradGrad

 Leave Link  103 at Fri Mar 14 15:42:06 2025, MaxMem=  8589934592 cpu:               0.7 elap:               0.3
 (Enter /home/enzo/gaussian_versions/gdv.j21/gdv/l202.exe)
                          Input orientation:                          
 ---------------------------------------------------------------------
 Center     Atomic      Atomic             Coordinates (Angstroms)
 Number     Number       Type             X           Y           Z
 ---------------------------------------------------------------------
      1          7           0       -1.958924    0.007997    0.148524
      2          6           0       -0.762925    0.836759    0.107119
      3          6           0        0.459503   -0.035852   -0.092964
      4          8           0        0.448126   -1.148473   -0.570886
      5          8           0        1.595940    0.596865    0.279806
      6          1           0       -1.879282   -0.718760   -0.560212
      7          1           0       -2.781439    0.564756   -0.068026
      8          1           0       -0.730207    1.586712   -0.707109
      9          1           0       -0.646489    1.396682    1.042177
     10          1           0        2.328319   -0.013661    0.071836
 ---------------------------------------------------------------------
                    Distance matrix (angstroms):
                    1          2          3          4          5
     1  N    0.000000
     2  C    1.455670   0.000000
     3  C    2.430850   1.515194   0.000000
     4  O    2.765658   2.422288   1.210976   0.000000
     5  O    3.605698   2.377312   1.353062   2.255517   0.000000
     6  H    1.018246   2.027614   2.480846   2.366769   3.809680
     7  H    1.016565   2.044275   3.296218   3.690272   4.391294
     8  H    2.175821   1.107460   2.103639   2.981319   2.713809
     9  H    2.109395   1.096086   2.136333   3.205927   2.499881
    10  H    4.287984   3.206283   1.876200   2.288234   0.975896
                    6          7          8          9         10
     6  H    0.000000
     7  H    1.644246   0.000000
     8  H    2.580145   2.379154   0.000000
     9  H    2.926178   2.546107   1.761568   0.000000
    10  H    4.312836   5.144293   3.538719   3.432217   0.000000
 Stoichiometry    C2H5NO2
 Framework group  C1[X(C2H5NO2)]
 Deg. of freedom    24
 Full point group                 C1      NOp   1
 RotChk:  IX=0 Diff= 1.01D-03
 Largest Abelian subgroup         C1      NOp   1
 Largest concise Abelian subgroup C1      NOp   1
                         Standard orientation:                         
 ---------------------------------------------------------------------
 Center     Atomic      Atomic             Coordinates (Angstroms)
 Number     Number       Type             X           Y           Z
 ---------------------------------------------------------------------
      1          7           0       -1.881224    0.103750   -0.221686
      2          6           0       -0.732427   -0.716416    0.134081
      3          6           0        0.537867    0.101191    0.017104
      4          8           0        0.591817    1.310342    0.055922
      5          8           0        1.634557   -0.684701   -0.084987
      6          1           0       -1.755748    1.033569    0.173937
      7          1           0       -2.731351   -0.289966    0.172874
      8          1           0       -0.734332   -1.118027    1.166153
      9          1           0       -0.654815   -1.584441   -0.530685
     10          1           0        2.401183   -0.081166   -0.105066
 ---------------------------------------------------------------------
 Rotational constants (GHZ):          10.3012139           3.9528853           2.9488995
 Leave Link  202 at Fri Mar 14 15:42:06 2025, MaxMem=  8589934592 cpu:               0.1 elap:               0.1
 (Enter /home/enzo/gaussian_versions/gdv.j21/gdv/l301.exe)
 Standard basis: 6-31G(d) (6D, 7F)
 Ernie: Thresh=  0.10000D-02 Tol=  0.10000D-05 Strict=F.
 There are    85 symmetry adapted cartesian basis functions of A   symmetry.
 There are    85 symmetry adapted basis functions of A   symmetry.
    85 basis functions,   160 primitive gaussians,    85 cartesian basis functions
    20 alpha electrons       20 beta electrons
       nuclear repulsion energy       179.4205122737 Hartrees.
 IExCor=      4002 DFT=T Ex+Corr=B3LYP ScaHFX=  0.200000
 ScaDFX=  0.800000  0.720000  1.000000  0.810000  1.000000  0.000000
 ScaDFX=  0.000000  0.000000  0.000000  0.000000  0.000000  0.000000
 IRadAn=      5 IRanWt=     -1 IRanGd=            0 ICorTp=0 IEmpDi=  4
 NAtoms=   10 NActive=   10 NUniq=   10 SFac= 1.00D+00 NAtFMM=   60 NAOKFM=F Big=F
 Integral buffers will be    131072 words long.
 Raffenetti 2 integral format.
 Two-electron integral symmetry is turned on.
 Leave Link  301 at Fri Mar 14 15:42:06 2025, MaxMem=  8589934592 cpu:               0.2 elap:               0.1
 (Enter /home/enzo/gaussian_versions/gdv.j21/gdv/l302.exe)
 NPDir=0 NMtPBC=     1 NCelOv=     1 NCel=       1 NClECP=     1 NCelD=      1
         NCelK=      1 NCelE2=     1 NClLst=     1 CellRange=     0.0.
 One-electron integrals computed using PRISM.
 One-electron integral symmetry used in STVInt
 NBasis=    85 RedAO= T EigKep=  3.87D-03  NBF=    85
 NBsUse=    85 1.00D-06 EigRej= -1.00D+00 NBFU=    85
 Precomputing XC quadrature grid using
 IXCGrd= 4 IRadAn=           5 IRanWt=          -1 IRanGd=           0 AccXCQ= 0.00D+00.
 Generated NRdTot=       0 NPtTot=      219389 NUsed=           0 NTot=          64
 NSgBfM=    85    85    85    85    85 MxSgAt=    10 MxSgA2=    10 SizInc=   0.000
 NMBTot=     1941 MaxBatPerAtom=       84 MaxMicBPerAtom=      203 NBfPt=            15877210.
 Leave Link  302 at Fri Mar 14 15:42:06 2025, MaxMem=  8589934592 cpu:               1.1 elap:               0.2
 (Enter /home/enzo/gaussian_versions/gdv.j21/gdv/l303.exe)
 DipDrv:  MaxL=1.
 Leave Link  303 at Fri Mar 14 15:42:07 2025, MaxMem=  8589934592 cpu:               0.1 elap:               0.2
 (Enter /home/enzo/gaussian_versions/gdv.j21/gdv/l401.exe)
 Initial guess from the checkpoint file:  "/local/home/enzo/scratch/Gau-2409726.chk"
 B after Tr=     0.000000   -0.000000    0.000000
         Rot=    1.000000   -0.000091   -0.000011   -0.000048 Ang=  -0.01 deg.
 AO Guess basis will be translated and rotated to current coordinates.
 JPrj=2 DoOrth=T DoCkMO=T.
 Leave Link  401 at Fri Mar 14 15:42:07 2025, MaxMem=  8589934592 cpu:               0.5 elap:               0.1
 (Enter /home/enzo/gaussian_versions/gdv.j21/gdv/l502.exe)
 Keep R1 ints in memory in canonical form, NReq=17617987.
 FoFCou: FMM=F IPFlag=           0 FMFlag=           0 FMFlg1=           0
         NFxFlg=           0 DoJE=F BraDBF=F KetDBF=F FulRan=T
         wScrn=  0.000000 ICntrl=       600 IOpCl=  0 I1Cent=           0 NGrid=           0
         NMat0=    1 NMatS0=   3655 NMatT0=    0 NMatD0=    1 NMtDS0=    0 NMtDT0=    0
 Symmetry not used in FoFCou.
 Two-electron integral symmetry not used.
 Closed shell SCF:
 Using DIIS extrapolation, IDIIS=  1040.
 NGot=  8589934592 LenX=  8583230350 LenY=  8583222684
 Requested convergence on RMS density matrix=1.00D-08 within 128 cycles.
 Requested convergence on MAX density matrix=1.00D-06.
 Requested convergence on             energy=1.00D-06.
 No special actions if energy rises.

 Cycle   1  Pass 1  IDiag  1:
 E= -284.420044322466    
 DIIS: error= 7.64D-05 at cycle   1 NSaved=   1.
 NSaved= 1 IEnMin= 1 EnMin= -284.420044322466     IErMin= 1 ErrMin= 7.64D-05
 ErrMax= 7.64D-05  0.00D+00 EMaxC= 1.00D-01 BMatC= 7.95D-07 BMatP= 7.95D-07
 IDIUse=1 WtCom= 1.00D+00 WtEn= 0.00D+00
 Coeff-Com:  0.100D+01
 Coeff:      0.100D+01
 Gap=     1.554 Goal=   None    Shift=    0.000
 RMSDP=1.95D-05 MaxDP=2.63D-04              OVMax= 5.03D-04

 Cycle   2  Pass 1  IDiag  1:
 E= -284.420045903815     Delta-E=       -0.000001581349 Rises=F Damp=F
 DIIS: error= 9.44D-06 at cycle   2 NSaved=   2.
 NSaved= 2 IEnMin= 2 EnMin= -284.420045903815     IErMin= 2 ErrMin= 9.44D-06
 ErrMax= 9.44D-06  0.00D+00 EMaxC= 1.00D-01 BMatC= 1.34D-08 BMatP= 7.95D-07
 IDIUse=1 WtCom= 1.00D+00 WtEn= 0.00D+00
 Coeff-Com: -0.684D-01 0.107D+01
 Coeff:     -0.684D-01 0.107D+01
 Gap=     0.246 Goal=   None    Shift=    0.000
 RMSDP=3.27D-06 MaxDP=4.77D-05 DE=-1.58D-06 OVMax= 8.91D-05

 Cycle   3  Pass 1  IDiag  1:
 E= -284.420045916324     Delta-E=       -0.000000012509 Rises=F Damp=F
 DIIS: error= 8.73D-06 at cycle   3 NSaved=   3.
 NSaved= 3 IEnMin= 3 EnMin= -284.420045916324     IErMin= 3 ErrMin= 8.73D-06
 ErrMax= 8.73D-06  0.00D+00 EMaxC= 1.00D-01 BMatC= 1.30D-08 BMatP= 1.34D-08
 IDIUse=1 WtCom= 1.00D+00 WtEn= 0.00D+00
 Coeff-Com: -0.473D-01 0.577D+00 0.470D+00
 Coeff:     -0.473D-01 0.577D+00 0.470D+00
 Gap=     0.246 Goal=   None    Shift=    0.000
 RMSDP=1.34D-06 MaxDP=2.48D-05 DE=-1.25D-08 OVMax= 3.39D-05

 Cycle   4  Pass 1  IDiag  1:
 E= -284.420045926312     Delta-E=       -0.000000009988 Rises=F Damp=F
 DIIS: error= 2.91D-06 at cycle   4 NSaved=   4.
 NSaved= 4 IEnMin= 4 EnMin= -284.420045926312     IErMin= 4 ErrMin= 2.91D-06
 ErrMax= 2.91D-06  0.00D+00 EMaxC= 1.00D-01 BMatC= 1.17D-09 BMatP= 1.30D-08
 IDIUse=1 WtCom= 1.00D+00 WtEn= 0.00D+00
 Coeff-Com: -0.193D-01 0.215D+00 0.264D+00 0.540D+00
 Coeff:     -0.193D-01 0.215D+00 0.264D+00 0.540D+00
 Gap=     0.246 Goal=   None    Shift=    0.000
 RMSDP=4.13D-07 MaxDP=9.65D-06 DE=-9.99D-09 OVMax= 1.64D-05

 Cycle   5  Pass 1  IDiag  1:
 E= -284.420045927019     Delta-E=       -0.000000000707 Rises=F Damp=F
 DIIS: error= 1.38D-06 at cycle   5 NSaved=   5.
 NSaved= 5 IEnMin= 5 EnMin= -284.420045927019     IErMin= 5 ErrMin= 1.38D-06
 ErrMax= 1.38D-06  0.00D+00 EMaxC= 1.00D-01 BMatC= 2.81D-10 BMatP= 1.17D-09
 IDIUse=1 WtCom= 1.00D+00 WtEn= 0.00D+00
 Coeff-Com: -0.500D-02 0.481D-01 0.986D-01 0.361D+00 0.498D+00
 Coeff:     -0.500D-02 0.481D-01 0.986D-01 0.361D+00 0.498D+00
 Gap=     0.246 Goal=   None    Shift=    0.000
 RMSDP=1.66D-07 MaxDP=3.49D-06 DE=-7.07D-10 OVMax= 5.72D-06

 Cycle   6  Pass 1  IDiag  1:
 E= -284.420045927230     Delta-E=       -0.000000000210 Rises=F Damp=F
 DIIS: error= 2.11D-07 at cycle   6 NSaved=   6.
 NSaved= 6 IEnMin= 6 EnMin= -284.420045927230     IErMin= 6 ErrMin= 2.11D-07
 ErrMax= 2.11D-07  0.00D+00 EMaxC= 1.00D-01 BMatC= 9.87D-12 BMatP= 2.81D-10
 IDIUse=1 WtCom= 1.00D+00 WtEn= 0.00D+00
 Coeff-Com:  0.157D-03-0.531D-02 0.109D-01 0.905D-01 0.212D+00 0.692D+00
 Coeff:      0.157D-03-0.531D-02 0.109D-01 0.905D-01 0.212D+00 0.692D+00
 Gap=     0.246 Goal=   None    Shift=    0.000
 RMSDP=4.62D-08 MaxDP=6.92D-07 DE=-2.10D-10 OVMax= 1.09D-06

 Cycle   7  Pass 1  IDiag  1:
 E= -284.420045927240     Delta-E=       -0.000000000010 Rises=F Damp=F
 DIIS: error= 7.02D-08 at cycle   7 NSaved=   7.
 NSaved= 7 IEnMin= 7 EnMin= -284.420045927240     IErMin= 7 ErrMin= 7.02D-08
 ErrMax= 7.02D-08  0.00D+00 EMaxC= 1.00D-01 BMatC= 8.68D-13 BMatP= 9.87D-12
 IDIUse=1 WtCom= 1.00D+00 WtEn= 0.00D+00
 Coeff-Com:  0.471D-03-0.656D-02-0.327D-02 0.118D-01 0.536D-01 0.301D+00
 Coeff-Com:  0.643D+00
 Coeff:      0.471D-03-0.656D-02-0.327D-02 0.118D-01 0.536D-01 0.301D+00
 Coeff:      0.643D+00
 Gap=     0.246 Goal=   None    Shift=    0.000
 RMSDP=1.28D-08 MaxDP=1.82D-07 DE=-1.02D-11 OVMax= 3.60D-07

 Cycle   8  Pass 1  IDiag  1:
 E= -284.420045927241     Delta-E=       -0.000000000001 Rises=F Damp=F
 DIIS: error= 1.75D-08 at cycle   8 NSaved=   8.
 NSaved= 8 IEnMin= 8 EnMin= -284.420045927241     IErMin= 8 ErrMin= 1.75D-08
 ErrMax= 1.75D-08  0.00D+00 EMaxC= 1.00D-01 BMatC= 5.92D-14 BMatP= 8.68D-13
 IDIUse=1 WtCom= 1.00D+00 WtEn= 0.00D+00
 Coeff-Com:  0.164D-03-0.218D-02-0.201D-02-0.142D-02 0.623D-02 0.708D-01
 Coeff-Com:  0.261D+00 0.667D+00
 Coeff:      0.164D-03-0.218D-02-0.201D-02-0.142D-02 0.623D-02 0.708D-01
 Coeff:      0.261D+00 0.667D+00
 Gap=     0.246 Goal=   None    Shift=    0.000
 RMSDP=3.33D-09 MaxDP=6.11D-08 DE=-1.02D-12 OVMax= 1.15D-07

 SCF Done:  E(RB3LYP) =  -284.420045927     A.U. after    8 cycles
            NFock=  8  Conv=0.33D-08     -V/T= 2.0089
 KE= 2.819178790924D+02 PE=-1.025078374860D+03 EE= 2.793199375666D+02
 Leave Link  502 at Fri Mar 14 15:42:08 2025, MaxMem=  8589934592 cpu:               9.3 elap:               0.9
 (Enter /home/enzo/gaussian_versions/gdv.j21/gdv/l701.exe)
 ... and contract with generalized density number  0.
 Compute integral first derivatives.
 Leave Link  701 at Fri Mar 14 15:42:08 2025, MaxMem=  8589934592 cpu:               0.7 elap:               0.2
 (Enter /home/enzo/gaussian_versions/gdv.j21/gdv/l702.exe)
 L702 exits ... SP integral derivatives will be done elsewhere.
 Leave Link  702 at Fri Mar 14 15:42:08 2025, MaxMem=  8589934592 cpu:               0.1 elap:               0.1
 (Enter /home/enzo/gaussian_versions/gdv.j21/gdv/l703.exe)
 Integral derivatives from FoFJK, PRISM(SPDF).
 Compute integral first derivatives, UseDBF=F ICtDFT=           0.
 Calling FoFJK, ICntrl=      2127 FMM=F ISym2X=0 I1Cent= 0 IOpClX= 0 NMat=1 NMatS=1 NMatT=0.
 FoFJK:  IHMeth= 1 ICntrl=    2127 DoSepK=F KAlg= 0 I1Cent=           0 FoldK=F
 IRaf=         0 NMat=       1 IRICut=       1 DoRegI=T DoRafI=F ISym2E= 0 IDoP0=0 IntGTp=1.
 FoFCou: FMM=F IPFlag=           0 FMFlag=      100000 FMFlg1=         800
         NFxFlg=           0 DoJE=F BraDBF=F KetDBF=F FulRan=T
         wScrn=  0.000000 ICntrl=      2127 IOpCl=  0 I1Cent=           0 NGrid=           0
         NMat0=    1 NMatS0=      1 NMatT0=    0 NMatD0=    1 NMtDS0=    0 NMtDT0=    0
 Symmetry not used in FoFCou.
 Leave Link  703 at Fri Mar 14 15:42:08 2025, MaxMem=  8589934592 cpu:               3.8 elap:               0.4
 (Enter /home/enzo/gaussian_versions/gdv.j21/gdv/l716.exe)
 Dipole        = 8.57982908D-02-5.44641905D-01 5.74883626D-01
 ***** Axes restored to original set *****
 -------------------------------------------------------------------
 Center     Atomic                   Forces (Hartrees/Bohr)
 Number     Number              X              Y              Z
 -------------------------------------------------------------------
      1        7           0.000003674    0.000058003   -0.000058214
      2        6          -0.000078076   -0.000073648    0.000026946
      3        6           0.000067598    0.000047422   -0.000011883
      4        8           0.000000272   -0.000016060    0.000006175
      5        8          -0.000040071   -0.000013519    0.000001471
      6        1           0.000006821    0.000007334    0.000023802
      7        1           0.000027130   -0.000025144    0.000021026
      8        1           0.000005771    0.000010318    0.000003516
      9        1           0.000015950    0.000014369   -0.000007692
     10        1          -0.000009069   -0.000009075   -0.000005147
 -------------------------------------------------------------------
 Cartesian Forces:  Max     0.000078076 RMS     0.000032352
 Leave Link  716 at Fri Mar 14 15:42:08 2025, MaxMem=  8589934592 cpu:               0.1 elap:               0.2
 (Enter /home/enzo/gaussian_versions/gdv.j21/gdv/l103.exe)

 GradGradGradGradGradGradGradGradGradGradGradGradGradGradGradGradGradGrad
 Berny optimization.
 Using GEDIIS/GDIIS optimizer.
 FormGI is forming the generalized inverse of G from B-inverse, IUseBI=4.
 Internal  Forces:  Max     0.000054474 RMS     0.000017281
 Search for a local minimum.
 Step number  14 out of a maximum of   46
 All quantities printed in internal units (Hartrees-Bohrs-Radians)
 RMS Force = .17281D-04 SwitMx=.10000D-02 MixMth= 2
 Mixed Optimization -- En-DIIS/RFO-DIIS
 Swapping is turned off.
 Update second derivatives using D2CorX and points    7    8    9   10   11
                                                     12   13   14
 DE= -1.20D-07 DEPred=-9.50D-08 R= 1.26D+00
 Trust test= 1.26D+00 RLast= 7.72D-03 DXMaxT set to 2.38D+00
 ITU=  0  0  0  0  1  1  1  1  1  1  1  1  1  0
     Eigenvalues ---    0.00123   0.00286   0.01882   0.03577   0.04581
     Eigenvalues ---    0.05997   0.06554   0.09406   0.13770   0.15300
     Eigenvalues ---    0.17037   0.18474   0.20524   0.24200   0.26299
     Eigenvalues ---    0.31424   0.32642   0.34015   0.35926   0.41163
     Eigenvalues ---    0.41482   0.46489   0.56534   0.82815
 En-DIIS/RFO-DIIS/Sim-DIIS IScMMF=       -3 using points:    14   13   12   11   10    9    8    7
 RFO step:  Lambda=-6.11029045D-08.
 NNeg= 0 NGDIIS= 8 SimSw=  2.50D-01 Rises=F DC= -1.20D-07 SmlDif=  1.00D-05
 NRisDI= 0 DoIntr=F SqrtH=F CThrHd= 10.0 CDAdj=  3.0
 RMS Error=  0.4689927120D-03 NUsed= 8 OKEnD=F EnDIS=F
 InvSVX:  RCond= 2.17D-10 Info=           0 Equed=N FErr=  2.31D-10 BErr=  9.90D-17
 DIIS inversion failure, remove point   8.
 InvSVX:  RCond= 4.41D-10 Info=           0 Equed=N FErr=  8.49D-11 BErr=  9.36D-17
 DIIS inversion failure, remove point   7.
 InvSVX:  RCond= 8.08D-10 Info=           0 Equed=N FErr=  5.75D-11 BErr=  3.06D-17
 DIIS inversion failure, remove point   6.
 InvSVX:  RCond= 1.16D-09 Info=           0 Equed=N FErr=  5.07D-11 BErr=  2.24D-17
 DIIS inversion failure, remove point   5.
 InvSVX:  RCond= 3.76D-08 Info=           0 Equed=N FErr=  1.27D-12 BErr=  4.73D-17
 DIIS inversion failure, remove point   4.
 InvSVX:  RCond= 6.48D-08 Info=           0 Equed=N FErr=  4.95D-13 BErr=  4.61D-17
 DIIS inversion failure, remove point   3.
 InvSVX:  RCond= 1.49D-05 Info=           0 Equed=N FErr=  1.81D-15 BErr=  6.31D-17
 RFO-DIIS uses    2 points instead of    8
 DidBck=FF Rises=F RFO-DIIS coefs:    1.34979   -0.34979    0.00000    0.00000    0.00000
                   RFO-DIIS coefs:    0.00000    0.00000    0.00000
 Iteration  1 RMS(Cart)=  0.00039937 RMS(Int)=  0.00000016
 Iteration  2 RMS(Cart)=  0.00000018 RMS(Int)=  0.00000002
 Variable       Old X    -DE/DX   Delta X   Delta X   Delta X     New X
                                 (Linear)    (Quad)   (Total)
    R1        2.75082  -0.00005  -0.00005  -0.00014  -0.00019   2.75062
    R2        1.92421  -0.00002  -0.00001  -0.00004  -0.00005   1.92415
    R3        1.92103  -0.00004  -0.00003  -0.00007  -0.00011   1.92092
    R4        2.86330   0.00001  -0.00006   0.00003  -0.00002   2.86328
    R5        2.09280   0.00000   0.00001   0.00002   0.00003   2.09283
    R6        2.07130   0.00000   0.00002   0.00001   0.00003   2.07133
    R7        2.28841   0.00001   0.00002   0.00002   0.00004   2.28845
    R8        2.55692  -0.00005   0.00003  -0.00009  -0.00006   2.55686
    R9        1.84418   0.00000   0.00000   0.00001   0.00001   1.84418
    A1        1.89895  -0.00000   0.00001   0.00005   0.00006   1.89901
    A2        1.92506   0.00002   0.00011   0.00014   0.00024   1.92530
    A3        1.88170   0.00000   0.00009   0.00013   0.00022   1.88192
    A4        1.91637   0.00001   0.00009   0.00004   0.00013   1.91650
    A5        2.01610  -0.00000  -0.00004   0.00001  -0.00003   2.01607
    A6        1.93248   0.00001   0.00009   0.00014   0.00023   1.93271
    A7        1.84323  -0.00001  -0.00002  -0.00005  -0.00007   1.84316
    A8        1.89773  -0.00001  -0.00005  -0.00005  -0.00010   1.89763
    A9        1.85265  -0.00001  -0.00007  -0.00011  -0.00019   1.85247
   A10        2.18177  -0.00000   0.00002  -0.00002  -0.00000   2.18177
   A11        1.95188   0.00000   0.00001   0.00004   0.00005   1.95193
   A12        2.14869  -0.00000  -0.00003  -0.00001  -0.00004   2.14865
   A13        1.85361  -0.00003  -0.00001  -0.00009  -0.00011   1.85351
    D1       -0.71039   0.00001   0.00099   0.00026   0.00126  -0.70913
    D2        1.37102   0.00001   0.00100   0.00024   0.00124   1.37226
    D3       -2.80610   0.00001   0.00094   0.00021   0.00115  -2.80494
    D4       -2.77102  -0.00001   0.00081  -0.00001   0.00080  -2.77022
    D5       -0.68962  -0.00000   0.00082  -0.00003   0.00079  -0.68883
    D6        1.41646  -0.00001   0.00076  -0.00006   0.00070   1.41716
    D7        0.38619  -0.00001  -0.00072   0.00006  -0.00066   0.38552
    D8       -2.79850   0.00000  -0.00064   0.00022  -0.00042  -2.79892
    D9       -1.79832  -0.00001  -0.00071   0.00005  -0.00066  -1.79898
   D10        1.30018  -0.00000  -0.00063   0.00021  -0.00042   1.29976
   D11        2.50291   0.00001  -0.00059   0.00023  -0.00037   2.50254
   D12       -0.68179   0.00002  -0.00051   0.00039  -0.00012  -0.68191
   D13       -3.08798  -0.00001  -0.00010  -0.00005  -0.00014  -3.08812
   D14        0.01147   0.00001  -0.00002   0.00011   0.00010   0.01157
         Item               Value     Threshold  Converged?
 Maximum Force            0.000054     0.000450     YES
 RMS     Force            0.000017     0.000300     YES
 Maximum Displacement     0.001395     0.001800     YES
 RMS     Displacement     0.000399     0.001200     YES
 Predicted change in Energy=-3.055232D-08
 Optimization completed.
    -- Stationary point found.
                           ----------------------------
                           !   Optimized Parameters   !
                           ! (Angstroms and Degrees)  !
 --------------------------                            --------------------------
 ! Name  Definition              Value          Derivative Info.                !
 --------------------------------------------------------------------------------
 ! R1    R(1,2)                  1.4557         -DE/DX =   -0.0001              !
 ! R2    R(1,6)                  1.0182         -DE/DX =    0.0                 !
 ! R3    R(1,7)                  1.0166         -DE/DX =    0.0                 !
 ! R4    R(2,3)                  1.5152         -DE/DX =    0.0                 !
 ! R5    R(2,8)                  1.1075         -DE/DX =    0.0                 !
 ! R6    R(2,9)                  1.0961         -DE/DX =    0.0                 !
 ! R7    R(3,4)                  1.211          -DE/DX =    0.0                 !
 ! R8    R(3,5)                  1.3531         -DE/DX =   -0.0001              !
 ! R9    R(5,10)                 0.9759         -DE/DX =    0.0                 !
 ! A1    A(2,1,6)              108.8016         -DE/DX =    0.0                 !
 ! A2    A(2,1,7)              110.298          -DE/DX =    0.0                 !
 ! A3    A(6,1,7)              107.8133         -DE/DX =    0.0                 !
 ! A4    A(1,2,3)              109.7998         -DE/DX =    0.0                 !
 ! A5    A(1,2,8)              115.5138         -DE/DX =    0.0                 !
 ! A6    A(1,2,9)              110.7231         -DE/DX =    0.0                 !
 ! A7    A(3,2,8)              105.6091         -DE/DX =    0.0                 !
 ! A8    A(3,2,9)              108.7321         -DE/DX =    0.0                 !
 ! A9    A(8,2,9)              106.1492         -DE/DX =    0.0                 !
 ! A10   A(2,3,4)              125.0064         -DE/DX =    0.0                 !
 ! A11   A(2,3,5)              111.8346         -DE/DX =    0.0                 !
 ! A12   A(4,3,5)              123.1107         -DE/DX =    0.0                 !
 ! A13   A(3,5,10)             106.2043         -DE/DX =    0.0                 !
 ! D1    D(6,1,2,3)            -40.7022         -DE/DX =    0.0                 !
 ! D2    D(6,1,2,8)             78.5535         -DE/DX =    0.0                 !
 ! D3    D(6,1,2,9)           -160.7775         -DE/DX =    0.0                 !
 ! D4    D(7,1,2,3)           -158.7678         -DE/DX =    0.0                 !
 ! D5    D(7,1,2,8)            -39.5121         -DE/DX =    0.0                 !
 ! D6    D(7,1,2,9)             81.1569         -DE/DX =    0.0                 !
 ! D7    D(1,2,3,4)             22.127          -DE/DX =    0.0                 !
 ! D8    D(1,2,3,5)           -160.3424         -DE/DX =    0.0                 !
 ! D9    D(8,2,3,4)           -103.0359         -DE/DX =    0.0                 !
 ! D10   D(8,2,3,5)             74.4947         -DE/DX =    0.0                 !
 ! D11   D(9,2,3,4)            143.4059         -DE/DX =    0.0                 !
 ! D12   D(9,2,3,5)            -39.0635         -DE/DX =    0.0                 !
 ! D13   D(2,3,5,10)          -176.928          -DE/DX =    0.0                 !
 ! D14   D(4,3,5,10)             0.6572         -DE/DX =    0.0                 !
 --------------------------------------------------------------------------------
 Lowest energy point so far.  Saving SCF results.
 Largest change from initial coordinates is atom    6       0.292 Angstoms.
 GradGradGradGradGradGradGradGradGradGradGradGradGradGradGradGradGradGrad

 Leave Link  103 at Fri Mar 14 15:42:09 2025, MaxMem=  8589934592 cpu:               0.5 elap:               0.1
 (Enter /home/enzo/gaussian_versions/gdv.j21/gdv/l202.exe)
                          Input orientation:                          
 ---------------------------------------------------------------------
 Center     Atomic      Atomic             Coordinates (Angstroms)
 Number     Number       Type             X           Y           Z
 ---------------------------------------------------------------------
      1          7           0       -1.958924    0.007997    0.148524
      2          6           0       -0.762925    0.836759    0.107119
      3          6           0        0.459503   -0.035852   -0.092964
      4          8           0        0.448126   -1.148473   -0.570886
      5          8           0        1.595940    0.596865    0.279806
      6          1           0       -1.879282   -0.718760   -0.560212
      7          1           0       -2.781439    0.564756   -0.068026
      8          1           0       -0.730207    1.586712   -0.707109
      9          1           0       -0.646489    1.396682    1.042177
     10          1           0        2.328319   -0.013661    0.071836
 ---------------------------------------------------------------------
                    Distance matrix (angstroms):
                    1          2          3          4          5
     1  N    0.000000
     2  C    1.455670   0.000000
     3  C    2.430850   1.515194   0.000000
     4  O    2.765658   2.422288   1.210976   0.000000
     5  O    3.605698   2.377312   1.353062   2.255517   0.000000
     6  H    1.018246   2.027614   2.480846   2.366769   3.809680
     7  H    1.016565   2.044275   3.296218   3.690272   4.391294
     8  H    2.175821   1.107460   2.103639   2.981319   2.713809
     9  H    2.109395   1.096086   2.136333   3.205927   2.499881
    10  H    4.287984   3.206283   1.876200   2.288234   0.975896
                    6          7          8          9         10
     6  H    0.000000
     7  H    1.644246   0.000000
     8  H    2.580145   2.379154   0.000000
     9  H    2.926178   2.546107   1.761568   0.000000
    10  H    4.312836   5.144293   3.538719   3.432217   0.000000
 Stoichiometry    C2H5NO2
 Framework group  C1[X(C2H5NO2)]
 Deg. of freedom    24
 Full point group                 C1      NOp   1
 RotChk:  IX=0 Diff= 6.19D-16
 Largest Abelian subgroup         C1      NOp   1
 Largest concise Abelian subgroup C1      NOp   1
                         Standard orientation:                         
 ---------------------------------------------------------------------
 Center     Atomic      Atomic             Coordinates (Angstroms)
 Number     Number       Type             X           Y           Z
 ---------------------------------------------------------------------
      1          7           0       -1.881224    0.103750   -0.221686
      2          6           0       -0.732427   -0.716416    0.134081
      3          6           0        0.537867    0.101191    0.017104
      4          8           0        0.591817    1.310342    0.055922
      5          8           0        1.634557   -0.684701   -0.084987
      6          1           0       -1.755748    1.033569    0.173937
      7          1           0       -2.731351   -0.289966    0.172874
      8          1           0       -0.734332   -1.118027    1.166153
      9          1           0       -0.654815   -1.584441   -0.530685
     10          1           0        2.401183   -0.081166   -0.105066
 ---------------------------------------------------------------------
 Rotational constants (GHZ):          10.3012139           3.9528853           2.9488995
 Leave Link  202 at Fri Mar 14 15:42:09 2025, MaxMem=  8589934592 cpu:               0.1 elap:               0.1
 (Enter /home/enzo/gaussian_versions/gdv.j21/gdv/l601.exe)
 Copying SCF densities to generalized density rwf, IOpCl= 0 IROHF=0.

 **********************************************************************

            Population analysis using the SCF Density.

 **********************************************************************

 Orbital symmetries:
       Occupied  (A) (A) (A) (A) (A) (A) (A) (A) (A) (A) (A) (A)
                 (A) (A) (A) (A) (A) (A) (A) (A)
       Virtual   (A) (A) (A) (A) (A) (A) (A) (A) (A) (A) (A) (A)
                 (A) (A) (A) (A) (A) (A) (A) (A) (A) (A) (A) (A)
                 (A) (A) (A) (A) (A) (A) (A) (A) (A) (A) (A) (A)
                 (A) (A) (A) (A) (A) (A) (A) (A) (A) (A) (A) (A)
                 (A) (A) (A) (A) (A) (A) (A) (A) (A) (A) (A) (A)
                 (A) (A) (A) (A) (A)
 The electronic state is 1-A.
 Alpha  occ. eigenvalues --      -19.20291     -19.14618     -14.31665     -10.32622     -10.22928
 Alpha  occ. eigenvalues --       -1.11149      -1.02185      -0.88739      -0.72347      -0.60127
 Alpha  occ. eigenvalues --       -0.52287      -0.48786      -0.48436      -0.44114      -0.42612
 Alpha  occ. eigenvalues --       -0.40183      -0.38689      -0.32445      -0.28419      -0.23932
 Alpha virt. eigenvalues --        0.00621       0.07130       0.08824       0.13137       0.16511
 Alpha virt. eigenvalues --        0.16628       0.22322       0.24255       0.30034       0.35546
 Alpha virt. eigenvalues --        0.53548       0.53837       0.56352       0.61035       0.66342
 Alpha virt. eigenvalues --        0.67324       0.70810       0.74596       0.77721       0.80178
 Alpha virt. eigenvalues --        0.83746       0.85809       0.90815       0.91402       0.92027
 Alpha virt. eigenvalues --        0.94858       0.95578       1.00111       1.02694       1.06965
 Alpha virt. eigenvalues --        1.12738       1.25403       1.35567       1.39575       1.44543
 Alpha virt. eigenvalues --        1.51978       1.55827       1.69674       1.72922       1.77362
 Alpha virt. eigenvalues --        1.78450       1.80090       1.85755       1.90339       1.95415
 Alpha virt. eigenvalues --        2.01395       2.05865       2.09726       2.16305       2.33176
 Alpha virt. eigenvalues --        2.34712       2.37917       2.45103       2.52709       2.60768
 Alpha virt. eigenvalues --        2.65138       2.72205       2.86516       2.96776       3.08737
 Alpha virt. eigenvalues --        3.75422       3.84232       4.09092       4.18824       4.47895
          Condensed to atoms (all electrons):
               1          2          3          4          5          6
     1  N    6.918098   0.313030  -0.035528  -0.006258   0.001608   0.306637
     2  C    0.313030   5.094895   0.325283  -0.082183  -0.095100  -0.042722
     3  C   -0.035528   0.325283   4.328731   0.581856   0.283705  -0.008209
     4  O   -0.006258  -0.082183   0.581856   8.016631  -0.082878   0.019447
     5  O    0.001608  -0.095100   0.283705  -0.082878   8.232578   0.000524
     6  H    0.306637  -0.042722  -0.008209   0.019447   0.000524   0.429538
     7  H    0.307646  -0.031324   0.004978   0.000362  -0.000072  -0.029067
     8  H   -0.040922   0.348512  -0.027205  -0.001248   0.002275  -0.000614
     9  H   -0.047364   0.361855  -0.022681   0.002171   0.004101   0.005987
    10  H   -0.000201   0.010893  -0.006298   0.010737   0.216133  -0.000051
               7          8          9         10
     1  N    0.307646  -0.040922  -0.047364  -0.000201
     2  C   -0.031324   0.348512   0.361855   0.010893
     3  C    0.004978  -0.027205  -0.022681  -0.006298
     4  O    0.000362  -0.001248   0.002171   0.010737
     5  O   -0.000072   0.002275   0.004101   0.216133
     6  H   -0.029067  -0.000614   0.005987  -0.000051
     7  H    0.452807  -0.006735   0.000588   0.000006
     8  H   -0.006735   0.617563  -0.046878  -0.000518
     9  H    0.000588  -0.046878   0.563488  -0.000346
    10  H    0.000006  -0.000518  -0.000346   0.357812
 Mulliken charges:
               1
     1  N   -0.716746
     2  C   -0.203139
     3  C    0.575370
     4  O   -0.458636
     5  O   -0.562872
     6  H    0.318530
     7  H    0.300810
     8  H    0.155771
     9  H    0.179080
    10  H    0.411832
 Sum of Mulliken charges =  -0.00000
 Mulliken charges with hydrogens summed into heavy atoms:
               1
     1  N   -0.097405
     2  C    0.131711
     3  C    0.575370
     4  O   -0.458636
     5  O   -0.151039
 Electronic spatial extent (au):  <R**2>=            416.8454
 Charge=             -0.0000 electrons
 Dipole moment (field-independent basis, Debye):
    X=              0.2181    Y=             -1.3843    Z=              1.4612  Tot=              2.0246
 Quadrupole moment (field-independent basis, Debye-Ang):
   XX=            -22.5654   YY=            -32.2831   ZZ=            -30.0573
   XY=              1.1196   XZ=             -3.5311   YZ=              0.1824
 Traceless Quadrupole moment (field-independent basis, Debye-Ang):
   XX=              5.7365   YY=             -3.9811   ZZ=             -1.7554
   XY=              1.1196   XZ=             -3.5311   YZ=              0.1824
 Octapole moment (field-independent basis, Debye-Ang**2):
  XXX=             13.6776  YYY=             -1.3950  ZZZ=              1.7309  XYY=             -5.2793
  XXY=              2.7011  XXZ=              6.4822  XZZ=              4.5759  YZZ=              0.2687
  YYZ=             -0.0860  XYZ=             -1.0272
 Hexadecapole moment (field-independent basis, Debye-Ang**3):
 XXXX=           -238.2279 YYYY=           -137.3443 ZZZZ=            -35.9669 XXXY=              6.8858
 XXXZ=            -19.5010 YYYX=             -4.5555 YYYZ=              1.7511 ZZZX=             -4.0950
 ZZZY=              0.4571 XXYY=            -76.9249 XXZZ=            -65.4747 YYZZ=            -27.4670
 XXYZ=              0.9676 YYXZ=             -0.9187 ZZXY=              0.6450
 N-N= 1.794205122737D+02 E-N=-1.025078374245D+03  KE= 2.819178790924D+02
 No NMR shielding tensors so no spin-rotation constants.
 Leave Link  601 at Fri Mar 14 15:42:09 2025, MaxMem=  8589934592 cpu:               0.7 elap:               0.2
 (Enter /home/enzo/gaussian_versions/gdv.j21/gdv/l9999.exe)
 Unable to Open any file for archive entry.
 1\1\GINC-ORACLE\FOpt\RB3LYP\6-31G(d)\C2H5N1O2\ENZO\14-Mar-2025\0\\#p B
 3LYP/6-31G* OPT OUTPUT=PICKETT\\individuo_7873\\0,1\N,-1.9589244811,0.
 0079970452,0.1485240505\C,-0.7629249245,0.8367587386,0.1071190733\C,0.
 4595030541,-0.035851837,-0.0929644827\O,0.4481261175,-1.1484727885,-0.
 5708859607\O,1.5959396607,0.5968653947,0.2798058768\H,-1.8792816476,-0
 .7187595257,-0.5602122566\H,-2.7814386865,0.5647559503,-0.0680262252\H
 ,-0.7302070282,1.5867121175,-0.7071094009\H,-0.6464891966,1.3966817044
 ,1.0421769542\H,2.3283191321,-0.0136607997,0.0718363714\\Version=ES64L
 -GDVRevJ.21\State=1-A\HF=-284.4200459\RMSD=3.334e-09\RMSF=3.235e-05\Di
 pole=0.1223933,0.7112353,-0.3371225\Quadrupole=4.087274,-2.618666,-1.4
 68608,-2.1189986,2.0647106,-0.5631244\PG=C01 [X(C2H5N1O2)]\\@
 The archive entry for this job was punched.
 DoSRE=F DoSRN=F DoDH=F DoFC=F DoNQ=T DoQCD=F DoSCD=F
 Inertia tensor (amu-bohr**2): 
                 1             2             3 
      1   0.175772D+03  0.117833D+02  0.474709D+01
      2   0.117833D+02  0.477708D+03 -0.540080D+02
      3   0.474709D+01 -0.540080D+02  0.590285D+03
 Principal inertia moments (amu-bohr**2):
 Iaa = 0.175197D+03 Ibb= 0.456563D+03 Icc= 0.612005D+03
 Rotation matrix to Principal Axis frame: 
                 1             2             3 
      1   0.998978D+00  0.451958D-01  0.179136D-04
      2  -0.419254D-01  0.926839D+00 -0.373111D+00
      3  -0.168797D-01  0.372729D+00  0.927787D+00
                Principal axis orientation:                
 ---------------------------------------------------------------------
 Center     Atomic                     Coordinates (Angstroms)
 Number     Number                        X           Y           Z
 ---------------------------------------------------------------------
      1          7                   -1.930102   -0.057599    0.185878
      2          6                   -0.769372    0.749151   -0.161736
      3          6                    0.491769   -0.078947   -0.021768
      4          8                    0.535117   -1.288817   -0.050047
      5          8                    1.594225    0.697784    0.088030
      6          1                   -1.808108   -0.991753   -0.200517
      7          1                   -2.771463    0.340538   -0.222782
      8          1                   -0.754386    1.142229   -1.196981
      9          1                   -0.692314    1.621895    0.496887
     10          1                    2.354963    0.087509    0.122885
 ---------------------------------------------------------------------
 Rotational constants (MHZ):
  10301.2138628   3952.8853107   2948.8995372
 Nuclear quadrupole coupling constants [Chi] (MHz):
  1  N(14) 
   aa=     2.7917   ba=     0.4968   ca=     0.4457
   ab=     0.4968   bb=     2.2749   cb=     0.0888
   ac=     0.4457   bc=     0.0888   cc=    -5.0666
 Dipole moment (Debye):
      0.2494467      1.3701973     -1.4694982  Tot=      2.0246208

 Atoms with significant hyperfine tensors:  N1-14

--------------------------------------------------------------------------------
 individuo_7873                                          
   99  1000  50  0.1760E-11  0.1000E+07  0.1000E+01 1.0000000000
a 3  1  0  0  0  1  1   1  0  1  0
     10000   0.10301214E+05    0.0000E+00   /  A  /
     20000   0.39528853E+04    0.0000E+00   /  B  /
     30000   0.29488995E+04    0.0000E+00   /  C  /
 110010000   0.41875087E+01    0.0000E+00   /  (1 N-14) 3/2*Chi_aa             /
 110040000   0.18353807E+01    0.0000E+00   /  (1 N-14) 1/4*(Chi_bb-Chi_cc)    /
 110610000   0.49683551E+00    0.0000E+00   /  (1 N-14) Chi_ab                 /
 110410000   0.44572190E+00    0.0000E+00   /  (1 N-14) Chi_ac                 /
 110210000   0.88824146E-01    0.0000E+00   /  (1 N-14) Chi_bc                 /
--------------------------------------------------------------------------------



 NATURE REVEALS EVERY SECRET ONCE.
                    - RALPH WALDO EMERSON
 Job cpu time:       0 days  0 hours  5 minutes 35.6 seconds.
 Elapsed time:       0 days  0 hours  0 minutes 56.3 seconds.
 File lengths (MBytes):  RWF=     10 Int=      0 D2E=      0 Chk=      2 Scr=      1
 Normal termination of Gaussian DV at Fri Mar 14 15:42:09 2025.
