 Entering Gaussian System, Link 0=gdv
 Input=icluster_centers_population_49_gaussian/individuo_2184.gjf
 Output=icluster_centers_population_49_gaussian/individuo_2184.log
 Initial command:
 /home/enzo/gaussian_versions/gdv.j21/gdv/l1.exe "/local/home/enzo/scratch/Gau-2409740.inp" -scrdir="/local/home/enzo/scratch/"
 Entering Link 1 = /home/enzo/gaussian_versions/gdv.j21/gdv/l1.exe PID=   2409754.
  
 Copyright (c) 1988-2022, Gaussian, Inc.  All Rights Reserved.
  
 This is the private, development version of
 the Gaussian(R) DV system of programs. It is based on
 the Gaussian(R) 16 system (copyright 2016, Gaussian, Inc.),
 the Gaussian(R) 09 system (copyright 2009, Gaussian, Inc.),
 the Gaussian(R) 03 system (copyright 2003, Gaussian, Inc.),
 the Gaussian(R) 98 system (copyright 1998, Gaussian, Inc.),
 the Gaussian(R) 94 system (copyright 1995, Gaussian, Inc.),
 the Gaussian 92(TM) system (copyright 1992, Gaussian, Inc.),
 the Gaussian 90(TM) system (copyright 1990, Gaussian, Inc.),
 the Gaussian 88(TM) system (copyright 1988, Gaussian, Inc.),
 the Gaussian 86(TM) system (copyright 1986, Carnegie Mellon
 University), and the Gaussian 82(TM) system (copyright 1983,
 Carnegie Mellon University). Gaussian is a federally registered
 trademark of Gaussian, Inc.
  
 This software contains proprietary and confidential information,
 including trade secrets, belonging to Gaussian, Inc.
  
 This software is provided under written license and may be
 used, copied, transmitted, or stored only in accord with that
 written license.
  
 The following legend is applicable only to US Government
 contracts under FAR:
  
                    RESTRICTED RIGHTS LEGEND
  
 Use, reproduction and disclosure by the US Government is
 subject to restrictions as set forth in subparagraphs (a)
 and (c) of the Commercial Computer Software - Restricted
 Rights clause in FAR 52.227-19.
  
 Gaussian, Inc.
 340 Quinnipiac St., Bldg. 40, Wallingford CT 06492
  
  
 ---------------------------------------------------------------
 Warning -- This program may not be used in any manner that
 competes with the business of Gaussian, Inc. or will provide
 assistance to any competitor of Gaussian, Inc.  The licensee
 of this program is prohibited from giving any competitor of
 Gaussian, Inc. access to this program.  By using this program,
 the user acknowledges that Gaussian, Inc. is engaged in the
 business of creating and licensing software in the field of
 computational chemistry and represents and warrants to the
 licensee that it is not a competitor of Gaussian, Inc. and that
 it will not use this program in any manner prohibited above.
 ---------------------------------------------------------------
  

 Cite this work as:
 Gaussian Development Version, Revision J.21,
 M. J. Frisch, G. W. Trucks, H. B. Schlegel, G. E. Scuseria, 
 M. A. Robb, J. R. Cheeseman, G. Scalmani, V. Barone, 
 G. A. Petersson, H. Nakatsuji, X. Li, A. V. Marenich, M. Caricato, 
 J. Bloino, B. G. Janesko, J. Zheng, R. Gomperts, B. Mennucci, 
 H. P. Hratchian, J. V. Ortiz, A. F. Izmaylov, J. L. Sonnenberg, 
 D. Williams-Young, F. Ding, F. Lipparini, F. Egidi, J. Goings, 
 B. Peng, A. Petrone, T. Henderson, D. Ranasinghe, V. G. Zakrzewski, 
 J. Gao, N. Rega, G. Zheng, W. Liang, M. Hada, M. Ehara, K. Toyota, 
 R. Fukuda, J. Hasegawa, M. Ishida, T. Nakajima, Y. Honda, O. Kitao, 
 H. Nakai, T. Vreven, K. Throssell, J. A. Montgomery, Jr., 
 J. E. Peralta, F. Ogliaro, M. J. Bearpark, J. J. Heyd, 
 E. N. Brothers, K. N. Kudin, V. N. Staroverov, T. A. Keith, 
 R. Kobayashi, J. Normand, K. Raghavachari, A. P. Rendell, 
 J. C. Burant, S. S. Iyengar, J. Tomasi, M. Cossi, J. M. Millam, 
 M. Klene, C. Adamo, R. Cammi, J. W. Ochterski, R. L. Martin, 
 K. Morokuma, O. Farkas, J. B. Foresman, and D. J. Fox, 
 Gaussian, Inc., Wallingford CT, 2020.
 
 ******************************************
 Gaussian DV:  ES64L-GDVRevJ.21 25-Jul-2022
                14-Mar-2025 
 ******************************************
 %Nprocshared=12
 Will use up to   12 processors via shared memory.
 %Mem=64GB
 ----------------------------------
 #p B3LYP/6-31G* OPT OUTPUT=PICKETT
 ----------------------------------
 1/18=20,19=15,26=3,37=210000000,38=1/1,3;
 2/9=110,12=2/2;
 3/5=1,6=6,7=1,11=2,25=1,30=1,71=1,74=-5/1,2,3;
 4//1;
 5/5=2,38=5/2;
 6/7=2,8=2,9=2,10=2,28=1/1;
 7//1,2,3,16;
 1/18=20,19=15,26=3/3(2);
 2/9=110/2;
 99/10=1024/99;
 2/9=110/2;
 3/5=1,6=6,7=1,11=2,25=1,30=1,71=1,74=-5/1,2,3;
 4/5=5,16=3,69=1/1;
 5/5=2,38=5/2;
 7//1,2,3,16;
 1/18=20,19=15,26=3/3(-5);
 2/9=110/2;
 6/7=2,8=2,9=2,10=2,19=2,28=1/1;
 99/9=1,10=1024/99;
 Leave Link    1 at Fri Mar 14 15:41:11 2025, MaxMem=  8589934592 cpu:               0.2 elap:               0.0
 (Enter /home/enzo/gaussian_versions/gdv.j21/gdv/l101.exe)
 --------------
 individuo_2184
 --------------
 Symbolic Z-matrix:
 Charge =     0 Multiplicity =     1
 7                    -1.8428    0.18701  -0.42453 
 6                    -0.90126  -0.27803   0.58647 
 6                     0.50614  -0.09228   0.11581 
 8                     1.20237  -1.08617  -0.21347 
 8                     1.02724   1.19066   0.01286 
 1                    -2.74115   0.44893   0.04107 
 1                    -2.03699  -0.59649  -1.08854 
 1                    -1.05387   0.28171   1.53256 
 1                    -1.08424  -1.35251   0.79791 
 1                     1.83994   1.37089  -0.56255 
 
 ITRead=  0  0  0  0  0  0  0  0  0  0
 MicOpt= -1 -1 -1 -1 -1 -1 -1 -1 -1 -1
 NAtoms=     10 NQM=       10 NQMF=       0 NMMI=      0 NMMIF=      0
                NMic=       0 NMicF=      0.
                    Isotopes and Nuclear Properties:
 (Nuclear quadrupole moments (NQMom) in fm**2, nuclear magnetic moments (NMagM)
  in nuclear magnetons)

  Atom         1           2           3           4           5           6           7           8           9          10
 IAtWgt=          14          12          12          16          16           1           1           1           1           1
 AtmWgt=  14.0030740  12.0000000  12.0000000  15.9949146  15.9949146   1.0078250   1.0078250   1.0078250   1.0078250   1.0078250
 NucSpn=           2           0           0           0           0           1           1           1           1           1
 AtZEff=  -0.0000000  -0.0000000  -0.0000000  -0.0000000  -0.0000000  -0.0000000  -0.0000000  -0.0000000  -0.0000000  -0.0000000
 NQMom=    2.0440000   0.0000000   0.0000000   0.0000000   0.0000000   0.0000000   0.0000000   0.0000000   0.0000000   0.0000000
 NMagM=    0.4037610   0.0000000   0.0000000   0.0000000   0.0000000   2.7928460   2.7928460   2.7928460   2.7928460   2.7928460
 AtZNuc=   7.0000000   6.0000000   6.0000000   8.0000000   8.0000000   1.0000000   1.0000000   1.0000000   1.0000000   1.0000000
 Leave Link  101 at Fri Mar 14 15:41:12 2025, MaxMem=  8589934592 cpu:               1.5 elap:               0.3
 (Enter /home/enzo/gaussian_versions/gdv.j21/gdv/l103.exe)

 GradGradGradGradGradGradGradGradGradGradGradGradGradGradGradGradGradGrad
 Berny optimization.
 Initialization pass.
                           ----------------------------
                           !    Initial Parameters    !
                           ! (Angstroms and Degrees)  !
 --------------------------                            --------------------------
 ! Name  Definition              Value          Derivative Info.                !
 --------------------------------------------------------------------------------
 ! R1    R(1,2)                  1.4577         estimate D2E/DX2                !
 ! R2    R(1,6)                  1.0452         estimate D2E/DX2                !
 ! R3    R(1,7)                  1.0452         estimate D2E/DX2                !
 ! R4    R(2,3)                  1.4956         estimate D2E/DX2                !
 ! R5    R(2,8)                  1.1098         estimate D2E/DX2                !
 ! R6    R(2,9)                  1.1103         estimate D2E/DX2                !
 ! R7    R(3,4)                  1.2574         estimate D2E/DX2                !
 ! R8    R(3,5)                  1.3886         estimate D2E/DX2                !
 ! R9    R(5,10)                 1.012          estimate D2E/DX2                !
 ! A1    A(2,1,6)              109.0351         estimate D2E/DX2                !
 ! A2    A(2,1,7)              108.7515         estimate D2E/DX2                !
 ! A3    A(6,1,7)              108.1292         estimate D2E/DX2                !
 ! A4    A(1,2,3)              110.4832         estimate D2E/DX2                !
 ! A5    A(1,2,8)              109.9698         estimate D2E/DX2                !
 ! A6    A(1,2,9)              109.5343         estimate D2E/DX2                !
 ! A7    A(3,2,8)              109.5744         estimate D2E/DX2                !
 ! A8    A(3,2,9)              109.5858         estimate D2E/DX2                !
 ! A9    A(8,2,9)              107.6435         estimate D2E/DX2                !
 ! A10   A(2,3,4)              120.3519         estimate D2E/DX2                !
 ! A11   A(2,3,5)              119.4221         estimate D2E/DX2                !
 ! A12   A(4,3,5)              120.2059         estimate D2E/DX2                !
 ! A13   A(3,5,10)             120.5378         estimate D2E/DX2                !
 ! D1    D(6,1,2,3)           -155.1811         estimate D2E/DX2                !
 ! D2    D(6,1,2,8)            -34.0994         estimate D2E/DX2                !
 ! D3    D(6,1,2,9)             84.0063         estimate D2E/DX2                !
 ! D4    D(7,1,2,3)             87.1257         estimate D2E/DX2                !
 ! D5    D(7,1,2,8)           -151.7926         estimate D2E/DX2                !
 ! D6    D(7,1,2,9)            -33.6868         estimate D2E/DX2                !
 ! D7    D(1,2,3,4)           -108.1172         estimate D2E/DX2                !
 ! D8    D(1,2,3,5)             70.253          estimate D2E/DX2                !
 ! D9    D(8,2,3,4)            130.5664         estimate D2E/DX2                !
 ! D10   D(8,2,3,5)            -51.0634         estimate D2E/DX2                !
 ! D11   D(9,2,3,4)             12.6646         estimate D2E/DX2                !
 ! D12   D(9,2,3,5)           -168.9652         estimate D2E/DX2                !
 ! D13   D(2,3,5,10)          -160.5049         estimate D2E/DX2                !
 ! D14   D(4,3,5,10)            17.8677         estimate D2E/DX2                !
 --------------------------------------------------------------------------------
 Trust Radius=3.00D-01 FncErr=1.00D-07 GrdErr=1.00D-06 EigMax=2.50D+02 EigMin=1.00D-04
 Number of steps in this run=     46 maximum allowed number of steps=    100.
 GradGradGradGradGradGradGradGradGradGradGradGradGradGradGradGradGradGrad

 Leave Link  103 at Fri Mar 14 15:41:12 2025, MaxMem=  8589934592 cpu:               0.1 elap:               0.1
 (Enter /home/enzo/gaussian_versions/gdv.j21/gdv/l202.exe)
                          Input orientation:                          
 ---------------------------------------------------------------------
 Center     Atomic      Atomic             Coordinates (Angstroms)
 Number     Number       Type             X           Y           Z
 ---------------------------------------------------------------------
      1          7           0       -1.842799    0.187011   -0.424533
      2          6           0       -0.901260   -0.278031    0.586471
      3          6           0        0.506136   -0.092280    0.115810
      4          8           0        1.202370   -1.086169   -0.213465
      5          8           0        1.027237    1.190657    0.012858
      6          1           0       -2.741149    0.448932    0.041070
      7          1           0       -2.036988   -0.596489   -1.088539
      8          1           0       -1.053866    0.281712    1.532556
      9          1           0       -1.084244   -1.352512    0.797911
     10          1           0        1.839942    1.370891   -0.562546
 ---------------------------------------------------------------------
                    Distance matrix (angstroms):
                    1          2          3          4          5
     1  N    0.000000
     2  C    1.457700   0.000000
     3  C    2.426411   1.495590   0.000000
     4  O    3.307354   2.391285   1.257370   0.000000
     5  O    3.071762   2.491019   1.388551   2.294740   0.000000
     6  H    1.045190   2.052104   3.292925   4.239418   3.840792
     7  H    1.045220   2.048646   2.858700   3.391015   3.714356
     8  H    2.112245   1.109810   2.140244   3.163904   2.732518
     9  H    2.107108   1.110270   2.140737   2.514443   3.397406
    10  H    3.870814   3.399025   2.092863   2.562323   1.011960
                    6          7          8          9         10
     6  H    0.000000
     7  H    1.692561   0.000000
     8  H    2.258189   2.933923   0.000000
     9  H    2.561902   2.244546   1.792014   0.000000
    10  H    4.711768   4.379251   3.734955   4.221212   0.000000
 Stoichiometry    C2H5NO2
 Framework group  C1[X(C2H5NO2)]
 Deg. of freedom    24
 Full point group                 C1      NOp   1
 Largest Abelian subgroup         C1      NOp   1
 Largest concise Abelian subgroup C1      NOp   1
                         Standard orientation:                         
 ---------------------------------------------------------------------
 Center     Atomic      Atomic             Coordinates (Angstroms)
 Number     Number       Type             X           Y           Z
 ---------------------------------------------------------------------
      1          7           0        1.764961   -0.272161   -0.449002
      2          6           0        0.856754    0.253718    0.562680
      3          6           0       -0.562886    0.121331    0.111143
      4          8           0       -1.218477    1.138469   -0.230338
      5          8           0       -1.141171   -1.139037    0.039511
      6          1           0        2.656303   -0.564482    0.011952
      7          1           0        1.985670    0.488889   -1.130599
      8          1           0        0.995647   -0.293698    1.518045
      9          1           0        1.089364    1.322958    0.750610
     10          1           0       -1.967725   -1.294285   -0.523313
 ---------------------------------------------------------------------
 Rotational constants (GHZ):           8.4921051           3.8901070           3.0575058
 Leave Link  202 at Fri Mar 14 15:41:12 2025, MaxMem=  8589934592 cpu:               0.1 elap:               0.1
 (Enter /home/enzo/gaussian_versions/gdv.j21/gdv/l301.exe)
 Standard basis: 6-31G(d) (6D, 7F)
 Ernie: Thresh=  0.10000D-02 Tol=  0.10000D-05 Strict=F.
 There are    85 symmetry adapted cartesian basis functions of A   symmetry.
 There are    85 symmetry adapted basis functions of A   symmetry.
    85 basis functions,   160 primitive gaussians,    85 cartesian basis functions
    20 alpha electrons       20 beta electrons
       nuclear repulsion energy       175.7972567551 Hartrees.
 IExCor=      4002 DFT=T Ex+Corr=B3LYP ScaHFX=  0.200000
 ScaDFX=  0.800000  0.720000  1.000000  0.810000  1.000000  0.000000
 ScaDFX=  0.000000  0.000000  0.000000  0.000000  0.000000  0.000000
 IRadAn=      5 IRanWt=     -1 IRanGd=            0 ICorTp=0 IEmpDi=  4
 NAtoms=   10 NActive=   10 NUniq=   10 SFac= 1.00D+00 NAtFMM=   60 NAOKFM=F Big=F
 Integral buffers will be    131072 words long.
 Raffenetti 2 integral format.
 Two-electron integral symmetry is turned on.
 Leave Link  301 at Fri Mar 14 15:41:12 2025, MaxMem=  8589934592 cpu:               0.3 elap:               0.1
 (Enter /home/enzo/gaussian_versions/gdv.j21/gdv/l302.exe)
 NPDir=0 NMtPBC=     1 NCelOv=     1 NCel=       1 NClECP=     1 NCelD=      1
         NCelK=      1 NCelE2=     1 NClLst=     1 CellRange=     0.0.
 One-electron integrals computed using PRISM.
 One-electron integral symmetry used in STVInt
 NBasis=    85 RedAO= T EigKep=  4.41D-03  NBF=    85
 NBsUse=    85 1.00D-06 EigRej= -1.00D+00 NBFU=    85
 Precomputing XC quadrature grid using
 IXCGrd= 4 IRadAn=           5 IRanWt=          -1 IRanGd=           0 AccXCQ= 0.00D+00.
 Generated NRdTot=       0 NPtTot=      220161 NUsed=           0 NTot=          64
 NSgBfM=    85    85    85    85    85 MxSgAt=    10 MxSgA2=    10 SizInc=   0.000
 NMBTot=     1977 MaxBatPerAtom=       83 MaxMicBPerAtom=      219 NBfPt=            16001801.
 Leave Link  302 at Fri Mar 14 15:41:12 2025, MaxMem=  8589934592 cpu:               0.7 elap:               0.1
 (Enter /home/enzo/gaussian_versions/gdv.j21/gdv/l303.exe)
 DipDrv:  MaxL=1.
 Leave Link  303 at Fri Mar 14 15:41:12 2025, MaxMem=  8589934592 cpu:               0.1 elap:               0.1
 (Enter /home/enzo/gaussian_versions/gdv.j21/gdv/l401.exe)
 ExpMin= 1.61D-01 ExpMax= 5.48D+03 ExpMxC= 8.25D+02 IAcc=3 IRadAn=         5 AccDes= 0.00D+00
 Harris functional with IExCor= 4002 and IRadAn=       5 diagonalized for initial guess.
 HarFok:  IExCor=    4002 AccDes= 0.00D+00 IRadAn=         5 IDoV= 1 UseB2=F ITyADJ=14 ICtDFT=  3500011
 FoFCou: FMM=F IPFlag=           0 FMFlag=      100000 FMFlg1=           0
         NFxFlg=           0 DoJE=T BraDBF=F KetDBF=T FulRan=T
         wScrn=  0.000000 ICntrl=       500 IOpCl=  0 I1Cent=   200000004 NGrid=           0
         NMat0=    1 NMatS0=      1 NMatT0=    0 NMatD0=    1 NMtDS0=    0 NMtDT0=    0
 Petite list used in FoFCou.
 Harris En= -284.422142271020    
 JPrj=0 DoOrth=F DoCkMO=F.
 Leave Link  401 at Fri Mar 14 15:41:13 2025, MaxMem=  8589934592 cpu:               2.1 elap:               0.3
 (Enter /home/enzo/gaussian_versions/gdv.j21/gdv/l502.exe)
 Keep R1 ints in memory in canonical form, NReq=17617987.
 FoFCou: FMM=F IPFlag=           0 FMFlag=           0 FMFlg1=           0
         NFxFlg=           0 DoJE=F BraDBF=F KetDBF=F FulRan=T
         wScrn=  0.000000 ICntrl=       600 IOpCl=  0 I1Cent=           0 NGrid=           0
         NMat0=    1 NMatS0=   3655 NMatT0=    0 NMatD0=    1 NMtDS0=    0 NMtDT0=    0
 Symmetry not used in FoFCou.
 Two-electron integral symmetry not used.
 Closed shell SCF:
 Using DIIS extrapolation, IDIIS=  1040.
 NGot=  8589934592 LenX=  8583230350 LenY=  8583222684
 Requested convergence on RMS density matrix=1.00D-08 within 128 cycles.
 Requested convergence on MAX density matrix=1.00D-06.
 Requested convergence on             energy=1.00D-06.
 No special actions if energy rises.
 Integral accuracy reduced to 1.0D-05 until final iterations.

 Cycle   1  Pass 0  IDiag  1:
 E= -284.227762436237    
 DIIS: error= 3.38D-02 at cycle   1 NSaved=   1.
 NSaved= 1 IEnMin= 1 EnMin= -284.227762436237     IErMin= 1 ErrMin= 3.38D-02
 ErrMax= 3.38D-02  0.00D+00 EMaxC= 1.00D-01 BMatC= 2.08D-01 BMatP= 2.08D-01
 IDIUse=3 WtCom= 6.62D-01 WtEn= 3.38D-01
 Coeff-Com:  0.100D+01
 Coeff-En:   0.100D+01
 Coeff:      0.100D+01
 Gap=     0.160 Goal=   None    Shift=    0.000
 GapD=    0.160 DampG=1.000 DampE=0.500 DampFc=0.5000 IDamp=-1.
 Damping current iteration by 5.00D-01
 RMSDP=1.13D-02 MaxDP=2.12D-01              OVMax= 2.87D-01

 Cycle   2  Pass 0  IDiag  1:
 E= -284.260944644975     Delta-E=       -0.033182208738 Rises=F Damp=T
 DIIS: error= 1.48D-02 at cycle   2 NSaved=   2.
 NSaved= 2 IEnMin= 2 EnMin= -284.260944644975     IErMin= 2 ErrMin= 1.48D-02
 ErrMax= 1.48D-02  0.00D+00 EMaxC= 1.00D-01 BMatC= 3.79D-02 BMatP= 2.08D-01
 IDIUse=3 WtCom= 8.52D-01 WtEn= 1.48D-01
 Coeff-Com:  0.258D+00 0.742D+00
 Coeff-En:   0.405D+00 0.595D+00
 Coeff:      0.280D+00 0.720D+00
 Gap=     0.246 Goal=   None    Shift=    0.000
 RMSDP=3.30D-03 MaxDP=5.61D-02 DE=-3.32D-02 OVMax= 1.93D-01

 Cycle   3  Pass 0  IDiag  1:
 E= -284.370539482418     Delta-E=       -0.109594837443 Rises=F Damp=F
 DIIS: error= 1.54D-02 at cycle   3 NSaved=   3.
 NSaved= 3 IEnMin= 3 EnMin= -284.370539482418     IErMin= 2 ErrMin= 1.48D-02
 ErrMax= 1.54D-02  0.00D+00 EMaxC= 1.00D-01 BMatC= 3.06D-02 BMatP= 3.79D-02
 IDIUse=3 WtCom= 8.46D-01 WtEn= 1.54D-01
 Coeff-Com:  0.132D+00 0.470D+00 0.398D+00
 Coeff-En:   0.000D+00 0.000D+00 0.100D+01
 Coeff:      0.112D+00 0.398D+00 0.491D+00
 Gap=     0.243 Goal=   None    Shift=    0.000
 RMSDP=2.34D-03 MaxDP=4.47D-02 DE=-1.10D-01 OVMax= 9.49D-02

 Cycle   4  Pass 0  IDiag  1:
 E= -284.389886546502     Delta-E=       -0.019347064084 Rises=F Damp=F
 DIIS: error= 7.91D-03 at cycle   4 NSaved=   4.
 NSaved= 4 IEnMin= 4 EnMin= -284.389886546502     IErMin= 4 ErrMin= 7.91D-03
 ErrMax= 7.91D-03  0.00D+00 EMaxC= 1.00D-01 BMatC= 7.82D-03 BMatP= 3.06D-02
 IDIUse=3 WtCom= 9.21D-01 WtEn= 7.91D-02
 Coeff-Com:  0.299D-01 0.747D-01 0.328D+00 0.567D+00
 Coeff-En:   0.000D+00 0.000D+00 0.239D+00 0.761D+00
 Coeff:      0.276D-01 0.688D-01 0.321D+00 0.582D+00
 Gap=     0.242 Goal=   None    Shift=    0.000
 RMSDP=8.80D-04 MaxDP=1.68D-02 DE=-1.93D-02 OVMax= 3.48D-02

 Cycle   5  Pass 0  IDiag  1:
 E= -284.395614509879     Delta-E=       -0.005727963377 Rises=F Damp=F
 DIIS: error= 1.13D-03 at cycle   5 NSaved=   5.
 NSaved= 5 IEnMin= 5 EnMin= -284.395614509879     IErMin= 5 ErrMin= 1.13D-03
 ErrMax= 1.13D-03  0.00D+00 EMaxC= 1.00D-01 BMatC= 2.99D-04 BMatP= 7.82D-03
 IDIUse=3 WtCom= 9.89D-01 WtEn= 1.13D-02
 Coeff-Com:  0.649D-02-0.297D-03 0.139D+00 0.322D+00 0.533D+00
 Coeff-En:   0.000D+00 0.000D+00 0.000D+00 0.000D+00 0.100D+01
 Coeff:      0.642D-02-0.294D-03 0.138D+00 0.318D+00 0.538D+00
 Gap=     0.236 Goal=   None    Shift=    0.000
 RMSDP=1.95D-04 MaxDP=2.82D-03 DE=-5.73D-03 OVMax= 5.34D-03

 Cycle   6  Pass 0  IDiag  1:
 E= -284.395863796886     Delta-E=       -0.000249287007 Rises=F Damp=F
 DIIS: error= 2.68D-04 at cycle   6 NSaved=   6.
 NSaved= 6 IEnMin= 6 EnMin= -284.395863796886     IErMin= 6 ErrMin= 2.68D-04
 ErrMax= 2.68D-04  0.00D+00 EMaxC= 1.00D-01 BMatC= 1.30D-05 BMatP= 2.99D-04
 IDIUse=3 WtCom= 9.97D-01 WtEn= 2.68D-03
 Coeff-Com:  0.140D-02-0.523D-02 0.418D-01 0.100D+00 0.247D+00 0.614D+00
 Coeff-En:   0.000D+00 0.000D+00 0.000D+00 0.000D+00 0.000D+00 0.100D+01
 Coeff:      0.140D-02-0.521D-02 0.416D-01 0.999D-01 0.247D+00 0.615D+00
 Gap=     0.237 Goal=   None    Shift=    0.000
 RMSDP=3.91D-05 MaxDP=6.13D-04 DE=-2.49D-04 OVMax= 6.69D-04

 Cycle   7  Pass 0  IDiag  1:
 E= -284.395873581232     Delta-E=       -0.000009784347 Rises=F Damp=F
 DIIS: error= 7.12D-05 at cycle   7 NSaved=   7.
 NSaved= 7 IEnMin= 7 EnMin= -284.395873581232     IErMin= 7 ErrMin= 7.12D-05
 ErrMax= 7.12D-05  0.00D+00 EMaxC= 1.00D-01 BMatC= 1.26D-06 BMatP= 1.30D-05
 IDIUse=1 WtCom= 1.00D+00 WtEn= 0.00D+00
 Coeff-Com:  0.425D-03-0.288D-02 0.126D-01 0.289D-01 0.947D-01 0.317D+00
 Coeff-Com:  0.549D+00
 Coeff:      0.425D-03-0.288D-02 0.126D-01 0.289D-01 0.947D-01 0.317D+00
 Coeff:      0.549D+00
 Gap=     0.236 Goal=   None    Shift=    0.000
 RMSDP=1.19D-05 MaxDP=2.08D-04 DE=-9.78D-06 OVMax= 2.22D-04

 Cycle   8  Pass 0  IDiag  1:
 E= -284.395874557460     Delta-E=       -0.000000976227 Rises=F Damp=F
 DIIS: error= 1.49D-05 at cycle   8 NSaved=   8.
 NSaved= 8 IEnMin= 8 EnMin= -284.395874557460     IErMin= 8 ErrMin= 1.49D-05
 ErrMax= 1.49D-05  0.00D+00 EMaxC= 1.00D-01 BMatC= 6.00D-08 BMatP= 1.26D-06
 IDIUse=1 WtCom= 1.00D+00 WtEn= 0.00D+00
 Coeff-Com:  0.108D-03-0.662D-03 0.150D-02 0.199D-02 0.152D-01 0.630D-01
 Coeff-Com:  0.199D+00 0.720D+00
 Coeff:      0.108D-03-0.662D-03 0.150D-02 0.199D-02 0.152D-01 0.630D-01
 Coeff:      0.199D+00 0.720D+00
 Gap=     0.236 Goal=   None    Shift=    0.000
 RMSDP=2.89D-06 MaxDP=4.03D-05 DE=-9.76D-07 OVMax= 5.93D-05

 Initial convergence to 1.0D-05 achieved.  Increase integral accuracy.
 Cycle   9  Pass 1  IDiag  1:
 E= -284.395875329159     Delta-E=       -0.000000771700 Rises=F Damp=F
 DIIS: error= 4.89D-06 at cycle   1 NSaved=   1.
 NSaved= 1 IEnMin= 1 EnMin= -284.395875329159     IErMin= 1 ErrMin= 4.89D-06
 ErrMax= 4.89D-06  0.00D+00 EMaxC= 1.00D-01 BMatC= 6.15D-09 BMatP= 6.15D-09
 IDIUse=1 WtCom= 1.00D+00 WtEn= 0.00D+00
 Coeff-Com:  0.100D+01
 Coeff:      0.100D+01
 Gap=     0.236 Goal=   None    Shift=    0.000
 RMSDP=2.89D-06 MaxDP=4.03D-05 DE=-7.72D-07 OVMax= 2.82D-05

 Cycle  10  Pass 1  IDiag  1:
 E= -284.395875327243     Delta-E=        0.000000001917 Rises=F Damp=F
 DIIS: error= 5.75D-06 at cycle   2 NSaved=   2.
 NSaved= 2 IEnMin= 1 EnMin= -284.395875329159     IErMin= 1 ErrMin= 4.89D-06
 ErrMax= 5.75D-06  0.00D+00 EMaxC= 1.00D-01 BMatC= 9.07D-09 BMatP= 6.15D-09
 IDIUse=1 WtCom= 1.00D+00 WtEn= 0.00D+00
 Coeff-Com:  0.551D+00 0.449D+00
 Coeff:      0.551D+00 0.449D+00
 Gap=     0.236 Goal=   None    Shift=    0.000
 RMSDP=9.19D-07 MaxDP=1.63D-05 DE= 1.92D-09 OVMax= 2.31D-05

 Cycle  11  Pass 1  IDiag  1:
 E= -284.395875334459     Delta-E=       -0.000000007216 Rises=F Damp=F
 DIIS: error= 2.13D-06 at cycle   3 NSaved=   3.
 NSaved= 3 IEnMin= 3 EnMin= -284.395875334459     IErMin= 3 ErrMin= 2.13D-06
 ErrMax= 2.13D-06  0.00D+00 EMaxC= 1.00D-01 BMatC= 6.64D-10 BMatP= 6.15D-09
 IDIUse=1 WtCom= 1.00D+00 WtEn= 0.00D+00
 Coeff-Com:  0.295D+00 0.280D+00 0.425D+00
 Coeff:      0.295D+00 0.280D+00 0.425D+00
 Gap=     0.236 Goal=   None    Shift=    0.000
 RMSDP=3.10D-07 MaxDP=7.27D-06 DE=-7.22D-09 OVMax= 1.17D-05

 Cycle  12  Pass 1  IDiag  1:
 E= -284.395875334908     Delta-E=       -0.000000000449 Rises=F Damp=F
 DIIS: error= 8.08D-07 at cycle   4 NSaved=   4.
 NSaved= 4 IEnMin= 4 EnMin= -284.395875334908     IErMin= 4 ErrMin= 8.08D-07
 ErrMax= 8.08D-07  0.00D+00 EMaxC= 1.00D-01 BMatC= 7.36D-11 BMatP= 6.64D-10
 IDIUse=1 WtCom= 1.00D+00 WtEn= 0.00D+00
 Coeff-Com:  0.285D-01 0.494D-01 0.256D+00 0.666D+00
 Coeff:      0.285D-01 0.494D-01 0.256D+00 0.666D+00
 Gap=     0.236 Goal=   None    Shift=    0.000
 RMSDP=9.48D-08 MaxDP=2.16D-06 DE=-4.49D-10 OVMax= 4.32D-06

 Cycle  13  Pass 1  IDiag  1:
 E= -284.395875334960     Delta-E=       -0.000000000052 Rises=F Damp=F
 DIIS: error= 2.60D-07 at cycle   5 NSaved=   5.
 NSaved= 5 IEnMin= 5 EnMin= -284.395875334960     IErMin= 5 ErrMin= 2.60D-07
 ErrMax= 2.60D-07  0.00D+00 EMaxC= 1.00D-01 BMatC= 1.03D-11 BMatP= 7.36D-11
 IDIUse=1 WtCom= 1.00D+00 WtEn= 0.00D+00
 Coeff-Com: -0.893D-02 0.455D-02 0.105D+00 0.391D+00 0.509D+00
 Coeff:     -0.893D-02 0.455D-02 0.105D+00 0.391D+00 0.509D+00
 Gap=     0.236 Goal=   None    Shift=    0.000
 RMSDP=3.27D-08 MaxDP=5.27D-07 DE=-5.21D-11 OVMax= 6.06D-07

 Cycle  14  Pass 1  IDiag  1:
 E= -284.395875334966     Delta-E=       -0.000000000006 Rises=F Damp=F
 DIIS: error= 3.05D-08 at cycle   6 NSaved=   6.
 NSaved= 6 IEnMin= 6 EnMin= -284.395875334966     IErMin= 6 ErrMin= 3.05D-08
 ErrMax= 3.05D-08  0.00D+00 EMaxC= 1.00D-01 BMatC= 2.59D-13 BMatP= 1.03D-11
 IDIUse=1 WtCom= 1.00D+00 WtEn= 0.00D+00
 Coeff-Com: -0.503D-02-0.386D-03 0.277D-01 0.134D+00 0.213D+00 0.631D+00
 Coeff:     -0.503D-02-0.386D-03 0.277D-01 0.134D+00 0.213D+00 0.631D+00
 Gap=     0.236 Goal=   None    Shift=    0.000
 RMSDP=6.53D-09 MaxDP=9.16D-08 DE=-6.08D-12 OVMax= 1.26D-07

 SCF Done:  E(RB3LYP) =  -284.395875335     A.U. after   14 cycles
            NFock= 14  Conv=0.65D-08     -V/T= 2.0102
 KE= 2.815303619705D+02 PE=-1.017876748609D+03 EE= 2.761532545487D+02
 Leave Link  502 at Fri Mar 14 15:41:16 2025, MaxMem=  8589934592 cpu:              22.1 elap:               3.3
 (Enter /home/enzo/gaussian_versions/gdv.j21/gdv/l601.exe)
 Copying SCF densities to generalized density rwf, IOpCl= 0 IROHF=0.

 **********************************************************************

            Population analysis using the SCF Density.

 **********************************************************************

 Orbital symmetries:
       Occupied  (A) (A) (A) (A) (A) (A) (A) (A) (A) (A) (A) (A)
                 (A) (A) (A) (A) (A) (A) (A) (A)
       Virtual   (A) (A) (A) (A) (A) (A) (A) (A) (A) (A) (A) (A)
                 (A) (A) (A) (A) (A) (A) (A) (A) (A) (A) (A) (A)
                 (A) (A) (A) (A) (A) (A) (A) (A) (A) (A) (A) (A)
                 (A) (A) (A) (A) (A) (A) (A) (A) (A) (A) (A) (A)
                 (A) (A) (A) (A) (A) (A) (A) (A) (A) (A) (A) (A)
                 (A) (A) (A) (A) (A)
 The electronic state is 1-A.
 Alpha  occ. eigenvalues --      -19.18720     -19.13044     -14.33330     -10.32221     -10.23492
 Alpha  occ. eigenvalues --       -1.06776      -0.98387      -0.89294      -0.71483      -0.60648
 Alpha  occ. eigenvalues --       -0.52020      -0.47020      -0.46548      -0.45178      -0.40468
 Alpha  occ. eigenvalues --       -0.39447      -0.35803      -0.30228      -0.26242      -0.24694
 Alpha virt. eigenvalues --       -0.01057       0.05053       0.08173       0.11049       0.14381
 Alpha virt. eigenvalues --        0.17554       0.21174       0.23369       0.31321       0.33955
 Alpha virt. eigenvalues --        0.53526       0.55453       0.56626       0.57950       0.63586
 Alpha virt. eigenvalues --        0.66292       0.70172       0.72519       0.78228       0.80264
 Alpha virt. eigenvalues --        0.82485       0.85814       0.88085       0.91568       0.92934
 Alpha virt. eigenvalues --        0.93720       0.94153       0.99517       1.06272       1.08940
 Alpha virt. eigenvalues --        1.16829       1.25089       1.36198       1.37008       1.43202
 Alpha virt. eigenvalues --        1.50048       1.57913       1.67905       1.70758       1.76215
 Alpha virt. eigenvalues --        1.78712       1.84475       1.84983       1.93613       1.95100
 Alpha virt. eigenvalues --        2.01238       2.06150       2.08515       2.15727       2.20946
 Alpha virt. eigenvalues --        2.25746       2.36675       2.43562       2.51140       2.60804
 Alpha virt. eigenvalues --        2.63163       2.71469       2.83792       2.92877       2.99795
 Alpha virt. eigenvalues --        3.74759       3.81172       3.99948       4.17633       4.47430
          Condensed to atoms (all electrons):
               1          2          3          4          5          6
     1  N    6.914305   0.296947  -0.062191  -0.000537   0.004575   0.311762
     2  C    0.296947   5.105186   0.307855  -0.076305  -0.075894  -0.032551
     3  C   -0.062191   0.307855   4.407820   0.546291   0.261654   0.005737
     4  O   -0.000537  -0.076305   0.546291   8.073661  -0.085291  -0.000075
     5  O    0.004575  -0.075894   0.261654  -0.085291   8.264374  -0.000118
     6  H    0.311762  -0.032551   0.005737  -0.000075  -0.000118   0.449865
     7  H    0.312294  -0.039345   0.000363   0.001154   0.000002  -0.030493
     8  H   -0.029004   0.345544  -0.025296   0.002871   0.003099  -0.011028
     9  H   -0.044759   0.375967  -0.045654   0.002220   0.002542   0.000777
    10  H   -0.000508   0.005841  -0.003870   0.005320   0.217449   0.000022
               7          8          9         10
     1  N    0.312294  -0.029004  -0.044759  -0.000508
     2  C   -0.039345   0.345544   0.375967   0.005841
     3  C    0.000363  -0.025296  -0.045654  -0.003870
     4  O    0.001154   0.002871   0.002220   0.005320
     5  O    0.000002   0.003099   0.002542   0.217449
     6  H   -0.030493  -0.011028   0.000777   0.000022
     7  H    0.452653   0.005804  -0.009903  -0.000002
     8  H    0.005804   0.572362  -0.031465  -0.000297
     9  H   -0.009903  -0.031465   0.582994  -0.000171
    10  H   -0.000002  -0.000297  -0.000171   0.354113
 Mulliken charges:
               1
     1  N   -0.702884
     2  C   -0.213246
     3  C    0.607291
     4  O   -0.469309
     5  O   -0.592393
     6  H    0.306102
     7  H    0.307473
     8  H    0.167410
     9  H    0.167451
    10  H    0.422104
 Sum of Mulliken charges =  -0.00000
 Mulliken charges with hydrogens summed into heavy atoms:
               1
     1  N   -0.089309
     2  C    0.121615
     3  C    0.607291
     4  O   -0.469309
     5  O   -0.170289
 Electronic spatial extent (au):  <R**2>=            424.0933
 Charge=             -0.0000 electrons
 Dipole moment (field-independent basis, Debye):
    X=              1.8313    Y=             -0.6819    Z=              0.4659  Tot=              2.0089
 Quadrupole moment (field-independent basis, Debye-Ang):
   XX=            -22.3643   YY=            -32.6852   ZZ=            -27.8076
   XY=              6.2807   XZ=              2.1833   YZ=              0.3241
 Traceless Quadrupole moment (field-independent basis, Debye-Ang):
   XX=              5.2547   YY=             -5.0661   ZZ=             -0.1886
   XY=              6.2807   XZ=              2.1833   YZ=              0.3241
 Octapole moment (field-independent basis, Debye-Ang**2):
  XXX=              2.4709  YYY=             -2.8666  ZZZ=             -1.6430  XYY=             -1.0239
  XXY=             -9.9334  XXZ=             -3.7739  XZZ=             -1.2979  YZZ=              0.2940
  YYZ=             -1.1444  XYZ=             -7.0891
 Hexadecapole moment (field-independent basis, Debye-Ang**3):
 XXXX=           -242.1111 YYYY=           -134.2773 ZZZZ=            -58.6458 XXXY=             19.6189
 XXXZ=              6.8872 YYYX=             13.0327 YYYZ=              2.1696 ZZZX=              0.2512
 ZZZY=             -3.1006 XXYY=            -66.1204 XXZZ=            -56.5292 YYZZ=            -31.2599
 XXYZ=              1.2768 YYXZ=              4.7930 ZZXY=              4.6787
 N-N= 1.757972567551D+02 E-N=-1.017876746200D+03  KE= 2.815303619705D+02
 No NMR shielding tensors so no spin-rotation constants.
 Leave Link  601 at Fri Mar 14 15:41:16 2025, MaxMem=  8589934592 cpu:               0.7 elap:               0.2
 (Enter /home/enzo/gaussian_versions/gdv.j21/gdv/l701.exe)
 ... and contract with generalized density number  0.
 Compute integral first derivatives.
 Leave Link  701 at Fri Mar 14 15:41:16 2025, MaxMem=  8589934592 cpu:               0.6 elap:               0.2
 (Enter /home/enzo/gaussian_versions/gdv.j21/gdv/l702.exe)
 L702 exits ... SP integral derivatives will be done elsewhere.
 Leave Link  702 at Fri Mar 14 15:41:16 2025, MaxMem=  8589934592 cpu:               0.1 elap:               0.2
 (Enter /home/enzo/gaussian_versions/gdv.j21/gdv/l703.exe)
 Integral derivatives from FoFJK, PRISM(SPDF).
 Compute integral first derivatives, UseDBF=F ICtDFT=           0.
 Calling FoFJK, ICntrl=      2127 FMM=F ISym2X=0 I1Cent= 0 IOpClX= 0 NMat=1 NMatS=1 NMatT=0.
 FoFJK:  IHMeth= 1 ICntrl=    2127 DoSepK=F KAlg= 0 I1Cent=           0 FoldK=F
 IRaf=         0 NMat=       1 IRICut=       1 DoRegI=T DoRafI=F ISym2E= 0 IDoP0=0 IntGTp=1.
 FoFCou: FMM=F IPFlag=           0 FMFlag=      100000 FMFlg1=         800
         NFxFlg=           0 DoJE=F BraDBF=F KetDBF=F FulRan=T
         wScrn=  0.000000 ICntrl=      2127 IOpCl=  0 I1Cent=           0 NGrid=           0
         NMat0=    1 NMatS0=      1 NMatT0=    0 NMatD0=    1 NMtDS0=    0 NMtDT0=    0
 Symmetry not used in FoFCou.
 Leave Link  703 at Fri Mar 14 15:41:17 2025, MaxMem=  8589934592 cpu:               3.9 elap:               0.5
 (Enter /home/enzo/gaussian_versions/gdv.j21/gdv/l716.exe)
 Dipole        = 7.20489495D-01-2.68297138D-01 1.83285034D-01
 ***** Axes restored to original set *****
 -------------------------------------------------------------------
 Center     Atomic                   Forces (Hartrees/Bohr)
 Number     Number              X              Y              Z
 -------------------------------------------------------------------
      1        7          -0.024378713    0.000685935   -0.007199583
      2        6          -0.016846191    0.002907285    0.017500435
      3        6           0.085251560   -0.041367683   -0.039270550
      4        8          -0.034184596    0.047461013    0.014540704
      5        8          -0.017277798    0.003792035   -0.000290852
      6        1           0.017314062   -0.007701332   -0.013210343
      7        1           0.001312991    0.017675435    0.013745467
      8        1           0.000470487   -0.001959515   -0.008262156
      9        1           0.014106037    0.007601423    0.003368164
     10        1          -0.025767838   -0.029094595    0.019078715
 -------------------------------------------------------------------
 Cartesian Forces:  Max     0.085251560 RMS     0.025141976
 Leave Link  716 at Fri Mar 14 15:41:17 2025, MaxMem=  8589934592 cpu:               0.2 elap:               0.2
 (Enter /home/enzo/gaussian_versions/gdv.j21/gdv/l103.exe)

 GradGradGradGradGradGradGradGradGradGradGradGradGradGradGradGradGradGrad
 Berny optimization.
 FormGI is forming the generalized inverse of G from B-inverse, IUseBI=4.
 Internal  Forces:  Max     0.060252179 RMS     0.018054652
 Search for a local minimum.
 Step number   1 out of a maximum of   46
 All quantities printed in internal units (Hartrees-Bohrs-Radians)
 RMS Force = .18055D-01 SwitMx=.10000D-02 MixMth= 1
 Mixed Optimization -- RFO/linear search
 Second derivative matrix not updated -- first step.
 ITU=  0
     Eigenvalues ---    0.00824   0.00929   0.01081   0.01843   0.04588
     Eigenvalues ---    0.05329   0.06670   0.09733   0.13114   0.16000
     Eigenvalues ---    0.16000   0.16000   0.21971   0.24995   0.25000
     Eigenvalues ---    0.32571   0.32620   0.32844   0.37254   0.40546
     Eigenvalues ---    0.40550   0.45646   0.47572   0.80572
 RFO step:  Lambda=-3.18772593D-02 EMin= 8.24286628D-03
 Linear search not attempted -- first point.
 Maximum step size (   0.300) exceeded in Quadratic search.
    -- Step size scaled by   0.917
 Iteration  1 RMS(Cart)=  0.07792284 RMS(Int)=  0.00433149
 Iteration  2 RMS(Cart)=  0.00434196 RMS(Int)=  0.00017771
 Iteration  3 RMS(Cart)=  0.00002798 RMS(Int)=  0.00017584
 Iteration  4 RMS(Cart)=  0.00000000 RMS(Int)=  0.00017584
 Variable       Old X    -DE/DX   Delta X   Delta X   Delta X     New X
                                 (Linear)    (Quad)   (Total)
    R1        2.75465   0.01174   0.00000   0.02662   0.02662   2.78127
    R2        1.97512  -0.02270   0.00000  -0.04759  -0.04759   1.92753
    R3        1.97518  -0.02223   0.00000  -0.04661  -0.04661   1.92857
    R4        2.82626   0.00703   0.00000   0.01790   0.01790   2.84416
    R5        2.09724  -0.00810   0.00000  -0.02074  -0.02074   2.07650
    R6        2.09811  -0.00904   0.00000  -0.02319  -0.02319   2.07492
    R7        2.37608  -0.06025   0.00000  -0.06598  -0.06598   2.31011
    R8        2.62398  -0.04093   0.00000  -0.07395  -0.07395   2.55003
    R9        1.91233  -0.03672   0.00000  -0.06898  -0.06898   1.84335
    A1        1.90302   0.00422   0.00000   0.01896   0.01891   1.92193
    A2        1.89807   0.00311   0.00000   0.01364   0.01360   1.91167
    A3        1.88721  -0.00400   0.00000  -0.02177  -0.02186   1.86535
    A4        1.92830  -0.00144   0.00000  -0.00568  -0.00555   1.92274
    A5        1.91933  -0.00337   0.00000  -0.01845  -0.01863   1.90071
    A6        1.91173   0.01279   0.00000   0.08229   0.08241   1.99415
    A7        1.91243   0.00228   0.00000   0.00061   0.00033   1.91276
    A8        1.91263  -0.01016   0.00000  -0.05980  -0.05981   1.85283
    A9        1.87873  -0.00010   0.00000   0.00100   0.00023   1.87896
   A10        2.10054   0.01491   0.00000   0.04865   0.04860   2.14913
   A11        2.08431  -0.03080   0.00000  -0.10009  -0.10014   1.98416
   A12        2.09799   0.01591   0.00000   0.05192   0.05187   2.14986
   A13        2.10378  -0.04287   0.00000  -0.20491  -0.20491   1.89887
    D1       -2.70842  -0.00240   0.00000  -0.01641  -0.01646  -2.72488
    D2       -0.59515  -0.00269   0.00000  -0.03142  -0.03146  -0.62661
    D3        1.46619   0.00287   0.00000   0.00830   0.00847   1.47466
    D4        1.52063  -0.00176   0.00000  -0.00876  -0.00886   1.51177
    D5       -2.64928  -0.00205   0.00000  -0.02377  -0.02386  -2.67314
    D6       -0.58795   0.00352   0.00000   0.01595   0.01607  -0.57188
    D7       -1.88700  -0.00409   0.00000  -0.02968  -0.02960  -1.91660
    D8        1.22615  -0.00316   0.00000  -0.00978  -0.00971   1.21644
    D9        2.27881  -0.00045   0.00000  -0.00343  -0.00321   2.27561
   D10       -0.89122   0.00048   0.00000   0.01647   0.01668  -0.87454
   D11        0.22104   0.00433   0.00000   0.03032   0.03003   0.25107
   D12       -2.94900   0.00525   0.00000   0.05022   0.04992  -2.89908
   D13       -2.80134  -0.00443   0.00000  -0.08243  -0.08244  -2.88378
   D14        0.31185  -0.00352   0.00000  -0.06261  -0.06260   0.24925
         Item               Value     Threshold  Converged?
 Maximum Force            0.060252     0.000450     NO 
 RMS     Force            0.018055     0.000300     NO 
 Maximum Displacement     0.257695     0.001800     NO 
 RMS     Displacement     0.079606     0.001200     NO 
 Predicted change in Energy=-1.753992D-02
 Lowest energy point so far.  Saving SCF results.
 GradGradGradGradGradGradGradGradGradGradGradGradGradGradGradGradGradGrad

 Leave Link  103 at Fri Mar 14 15:41:17 2025, MaxMem=  8589934592 cpu:               0.1 elap:               0.1
 (Enter /home/enzo/gaussian_versions/gdv.j21/gdv/l202.exe)
                          Input orientation:                          
 ---------------------------------------------------------------------
 Center     Atomic      Atomic             Coordinates (Angstroms)
 Number     Number       Type             X           Y           Z
 ---------------------------------------------------------------------
      1          7           0       -1.837758    0.206555   -0.430279
      2          6           0       -0.886421   -0.277996    0.582798
      3          6           0        0.526124   -0.104554    0.093053
      4          8           0        1.244082   -1.042488   -0.221927
      5          8           0        0.921717    1.183752    0.024471
      6          1           0       -2.720802    0.462311    0.011571
      7          1           0       -2.043477   -0.543217   -1.091378
      8          1           0       -1.028675    0.296776    1.508455
      9          1           0       -0.995191   -1.341942    0.831380
     10          1           0        1.735778    1.234525   -0.510551
 ---------------------------------------------------------------------
                    Distance matrix (angstroms):
                    1          2          3          4          5
     1  N    0.000000
     2  C    1.471787   0.000000
     3  C    2.441025   1.505063   0.000000
     4  O    3.331855   2.402306   1.222456   0.000000
     5  O    2.962502   2.391192   1.349418   2.262913   0.000000
     6  H    1.020004   2.058958   3.297044   4.247263   3.713299
     7  H    1.020554   2.052312   2.863241   3.437042   3.608312
     8  H    2.102723   1.098836   2.140520   3.154881   2.606331
     9  H    2.167843   1.098000   2.095389   2.492684   3.271814
    10  H    3.719318   3.218549   1.902822   2.347308   0.975460
                    6          7          8          9         10
     6  H    0.000000
     7  H    1.639009   0.000000
     8  H    2.265250   2.914539   0.000000
     9  H    2.627765   2.331064   1.773400   0.000000
    10  H    4.553025   4.216692   3.549360   3.987123   0.000000
 Stoichiometry    C2H5NO2
 Framework group  C1[X(C2H5NO2)]
 Deg. of freedom    24
 Full point group                 C1      NOp   1
 RotChk:  IX=3 Diff= 6.65D-02
 Largest Abelian subgroup         C1      NOp   1
 Largest concise Abelian subgroup C1      NOp   1
                         Standard orientation:                         
 ---------------------------------------------------------------------
 Center     Atomic      Atomic             Coordinates (Angstroms)
 Number     Number       Type             X           Y           Z
 ---------------------------------------------------------------------
      1          7           0        1.766752   -0.199810   -0.443128
      2          6           0        0.820407    0.299213    0.567597
      3          6           0       -0.594662    0.114304    0.089472
      4          8           0       -1.316855    1.045170   -0.236601
      5          8           0       -0.987463   -1.175901    0.044682
      6          1           0        2.653106   -0.446094   -0.002527
      7          1           0        1.966573    0.539380   -1.117813
      8          1           0        0.969729   -0.259782    1.501763
      9          1           0        0.928046    1.367393    0.797837
     10          1           0       -1.804642   -1.237483   -0.484420
 ---------------------------------------------------------------------
 Rotational constants (GHZ):           8.8249349           3.9691191           3.1476826
 Leave Link  202 at Fri Mar 14 15:41:17 2025, MaxMem=  8589934592 cpu:               0.1 elap:               0.1
 (Enter /home/enzo/gaussian_versions/gdv.j21/gdv/l301.exe)
 Standard basis: 6-31G(d) (6D, 7F)
 Ernie: Thresh=  0.10000D-02 Tol=  0.10000D-05 Strict=F.
 There are    85 symmetry adapted cartesian basis functions of A   symmetry.
 There are    85 symmetry adapted basis functions of A   symmetry.
    85 basis functions,   160 primitive gaussians,    85 cartesian basis functions
    20 alpha electrons       20 beta electrons
       nuclear repulsion energy       178.4797088913 Hartrees.
 IExCor=      4002 DFT=T Ex+Corr=B3LYP ScaHFX=  0.200000
 ScaDFX=  0.800000  0.720000  1.000000  0.810000  1.000000  0.000000
 ScaDFX=  0.000000  0.000000  0.000000  0.000000  0.000000  0.000000
 IRadAn=      5 IRanWt=     -1 IRanGd=            0 ICorTp=0 IEmpDi=  4
 NAtoms=   10 NActive=   10 NUniq=   10 SFac= 1.00D+00 NAtFMM=   60 NAOKFM=F Big=F
 Integral buffers will be    131072 words long.
 Raffenetti 2 integral format.
 Two-electron integral symmetry is turned on.
 Leave Link  301 at Fri Mar 14 15:41:17 2025, MaxMem=  8589934592 cpu:               0.3 elap:               0.1
 (Enter /home/enzo/gaussian_versions/gdv.j21/gdv/l302.exe)
 NPDir=0 NMtPBC=     1 NCelOv=     1 NCel=       1 NClECP=     1 NCelD=      1
         NCelK=      1 NCelE2=     1 NClLst=     1 CellRange=     0.0.
 One-electron integrals computed using PRISM.
 One-electron integral symmetry used in STVInt
 NBasis=    85 RedAO= T EigKep=  4.32D-03  NBF=    85
 NBsUse=    85 1.00D-06 EigRej= -1.00D+00 NBFU=    85
 Precomputing XC quadrature grid using
 IXCGrd= 4 IRadAn=           5 IRanWt=          -1 IRanGd=           0 AccXCQ= 0.00D+00.
 Generated NRdTot=       0 NPtTot=      219868 NUsed=           0 NTot=          64
 NSgBfM=    85    85    85    85    85 MxSgAt=    10 MxSgA2=    10 SizInc=   0.000
 NMBTot=     1967 MaxBatPerAtom=       83 MaxMicBPerAtom=      213 NBfPt=            16011212.
 Leave Link  302 at Fri Mar 14 15:41:18 2025, MaxMem=  8589934592 cpu:               0.8 elap:               0.2
 (Enter /home/enzo/gaussian_versions/gdv.j21/gdv/l303.exe)
 DipDrv:  MaxL=1.
 Leave Link  303 at Fri Mar 14 15:41:18 2025, MaxMem=  8589934592 cpu:               0.2 elap:               0.1
 (Enter /home/enzo/gaussian_versions/gdv.j21/gdv/l401.exe)
 Initial guess from the checkpoint file:  "/local/home/enzo/scratch/Gau-2409754.chk"
 B after Tr=     0.000000    0.000000   -0.000000
         Rot=    0.999531    0.002597    0.001838   -0.030466 Ang=   3.51 deg.
 AO Guess basis will be translated and rotated to current coordinates.
 JPrj=2 DoOrth=T DoCkMO=T.
 Generating alternative initial guess.
 ExpMin= 1.61D-01 ExpMax= 5.48D+03 ExpMxC= 8.25D+02 IAcc=3 IRadAn=         5 AccDes= 0.00D+00
 Harris functional with IExCor= 4002 and IRadAn=       5 diagonalized for initial guess.
 HarFok:  IExCor=    4002 AccDes= 0.00D+00 IRadAn=         5 IDoV= 1 UseB2=F ITyADJ=14 ICtDFT=  3500011
 FoFCou: FMM=F IPFlag=           0 FMFlag=      100000 FMFlg1=           0
         NFxFlg=           0 DoJE=T BraDBF=F KetDBF=T FulRan=T
         wScrn=  0.000000 ICntrl=       500 IOpCl=  0 I1Cent=   200000004 NGrid=           0
         NMat0=    1 NMatS0=      1 NMatT0=    0 NMatD0=    1 NMtDS0=    0 NMtDT0=    0
 Petite list used in FoFCou.
 Harris En= -284.437023190109    
 Leave Link  401 at Fri Mar 14 15:41:18 2025, MaxMem=  8589934592 cpu:               2.1 elap:               0.3
 (Enter /home/enzo/gaussian_versions/gdv.j21/gdv/l502.exe)
 Keep R1 ints in memory in canonical form, NReq=17617987.
 FoFCou: FMM=F IPFlag=           0 FMFlag=           0 FMFlg1=           0
         NFxFlg=           0 DoJE=F BraDBF=F KetDBF=F FulRan=T
         wScrn=  0.000000 ICntrl=       600 IOpCl=  0 I1Cent=           0 NGrid=           0
         NMat0=    1 NMatS0=   3655 NMatT0=    0 NMatD0=    1 NMtDS0=    0 NMtDT0=    0
 Symmetry not used in FoFCou.
 Two-electron integral symmetry not used.
 Closed shell SCF:
 Using DIIS extrapolation, IDIIS=  1040.
 NGot=  8589934592 LenX=  8583230350 LenY=  8583222684
 Requested convergence on RMS density matrix=1.00D-08 within 128 cycles.
 Requested convergence on MAX density matrix=1.00D-06.
 Requested convergence on             energy=1.00D-06.
 No special actions if energy rises.
 Integral accuracy reduced to 1.0D-05 until final iterations.

 Cycle   1  Pass 0  IDiag  1:
 E= -284.407542768193    
 DIIS: error= 4.86D-03 at cycle   1 NSaved=   1.
 NSaved= 1 IEnMin= 1 EnMin= -284.407542768193     IErMin= 1 ErrMin= 4.86D-03
 ErrMax= 4.86D-03  0.00D+00 EMaxC= 1.00D-01 BMatC= 4.57D-03 BMatP= 4.57D-03
 IDIUse=3 WtCom= 9.51D-01 WtEn= 4.86D-02
 Coeff-Com:  0.100D+01
 Coeff-En:   0.100D+01
 Coeff:      0.100D+01
 Gap=     1.641 Goal=   None    Shift=    0.000
 GapD=    1.641 DampG=2.000 DampE=1.000 DampFc=2.0000 IDamp=-1.
 RMSDP=1.30D-03 MaxDP=1.36D-02              OVMax= 2.06D-02

 Cycle   2  Pass 0  IDiag  1:
 E= -284.412686303282     Delta-E=       -0.005143535089 Rises=F Damp=F
 DIIS: error= 2.32D-03 at cycle   2 NSaved=   2.
 NSaved= 2 IEnMin= 2 EnMin= -284.412686303282     IErMin= 2 ErrMin= 2.32D-03
 ErrMax= 2.32D-03  0.00D+00 EMaxC= 1.00D-01 BMatC= 8.53D-04 BMatP= 4.57D-03
 IDIUse=3 WtCom= 9.77D-01 WtEn= 2.32D-02
 Coeff-Com:  0.217D+00 0.783D+00
 Coeff-En:   0.000D+00 0.100D+01
 Coeff:      0.212D+00 0.788D+00
 Gap=     0.248 Goal=   None    Shift=    0.000
 RMSDP=5.55D-04 MaxDP=1.17D-02 DE=-5.14D-03 OVMax= 1.50D-02

 Cycle   3  Pass 0  IDiag  1:
 E= -284.412690094124     Delta-E=       -0.000003790842 Rises=F Damp=F
 DIIS: error= 2.45D-03 at cycle   3 NSaved=   3.
 NSaved= 3 IEnMin= 3 EnMin= -284.412690094124     IErMin= 2 ErrMin= 2.32D-03
 ErrMax= 2.45D-03  0.00D+00 EMaxC= 1.00D-01 BMatC= 8.82D-04 BMatP= 8.53D-04
 IDIUse=3 WtCom= 9.76D-01 WtEn= 2.45D-02
 Coeff-Com:  0.221D-01 0.501D+00 0.477D+00
 Coeff-En:   0.000D+00 0.499D+00 0.501D+00
 Coeff:      0.216D-01 0.501D+00 0.478D+00
 Gap=     0.248 Goal=   None    Shift=    0.000
 RMSDP=3.28D-04 MaxDP=8.31D-03 DE=-3.79D-06 OVMax= 1.20D-02

 Cycle   4  Pass 0  IDiag  1:
 E= -284.413269992495     Delta-E=       -0.000579898371 Rises=F Damp=F
 DIIS: error= 9.05D-04 at cycle   4 NSaved=   4.
 NSaved= 4 IEnMin= 4 EnMin= -284.413269992495     IErMin= 4 ErrMin= 9.05D-04
 ErrMax= 9.05D-04  0.00D+00 EMaxC= 1.00D-01 BMatC= 1.06D-04 BMatP= 8.53D-04
 IDIUse=3 WtCom= 9.91D-01 WtEn= 9.05D-03
 Coeff-Com: -0.126D-01 0.238D+00 0.315D+00 0.459D+00
 Coeff-En:   0.000D+00 0.000D+00 0.851D-01 0.915D+00
 Coeff:     -0.125D-01 0.236D+00 0.313D+00 0.463D+00
 Gap=     0.247 Goal=   None    Shift=    0.000
 RMSDP=9.95D-05 MaxDP=1.86D-03 DE=-5.80D-04 OVMax= 3.75D-03

 Cycle   5  Pass 0  IDiag  1:
 E= -284.413349754913     Delta-E=       -0.000079762418 Rises=F Damp=F
 DIIS: error= 1.52D-04 at cycle   5 NSaved=   5.
 NSaved= 5 IEnMin= 5 EnMin= -284.413349754913     IErMin= 5 ErrMin= 1.52D-04
 ErrMax= 1.52D-04  0.00D+00 EMaxC= 1.00D-01 BMatC= 4.23D-06 BMatP= 1.06D-04
 IDIUse=3 WtCom= 9.98D-01 WtEn= 1.52D-03
 Coeff-Com: -0.816D-02 0.861D-01 0.130D+00 0.247D+00 0.545D+00
 Coeff-En:   0.000D+00 0.000D+00 0.000D+00 0.000D+00 0.100D+01
 Coeff:     -0.814D-02 0.859D-01 0.130D+00 0.247D+00 0.545D+00
 Gap=     0.247 Goal=   None    Shift=    0.000
 RMSDP=2.18D-05 MaxDP=3.70D-04 DE=-7.98D-05 OVMax= 6.35D-04

 Cycle   6  Pass 0  IDiag  1:
 E= -284.413352841714     Delta-E=       -0.000003086801 Rises=F Damp=F
 DIIS: error= 4.11D-05 at cycle   6 NSaved=   6.
 NSaved= 6 IEnMin= 6 EnMin= -284.413352841714     IErMin= 6 ErrMin= 4.11D-05
 ErrMax= 4.11D-05  0.00D+00 EMaxC= 1.00D-01 BMatC= 3.10D-07 BMatP= 4.23D-06
 IDIUse=1 WtCom= 1.00D+00 WtEn= 0.00D+00
 Coeff-Com: -0.293D-02 0.226D-01 0.381D-01 0.825D-01 0.278D+00 0.582D+00
 Coeff:     -0.293D-02 0.226D-01 0.381D-01 0.825D-01 0.278D+00 0.582D+00
 Gap=     0.247 Goal=   None    Shift=    0.000
 RMSDP=6.45D-06 MaxDP=9.11D-05 DE=-3.09D-06 OVMax= 1.12D-04

 Initial convergence to 1.0D-05 achieved.  Increase integral accuracy.
 Cycle   7  Pass 1  IDiag  1:
 E= -284.413349186201     Delta-E=        0.000003655513 Rises=F Damp=F
 DIIS: error= 6.69D-06 at cycle   1 NSaved=   1.
 NSaved= 1 IEnMin= 1 EnMin= -284.413349186201     IErMin= 1 ErrMin= 6.69D-06
 ErrMax= 6.69D-06  0.00D+00 EMaxC= 1.00D-01 BMatC= 1.13D-08 BMatP= 1.13D-08
 IDIUse=1 WtCom= 1.00D+00 WtEn= 0.00D+00
 Coeff-Com:  0.100D+01
 Coeff:      0.100D+01
 Gap=     0.247 Goal=   None    Shift=    0.000
 RMSDP=6.45D-06 MaxDP=9.11D-05 DE= 3.66D-06 OVMax= 5.71D-05

 Cycle   8  Pass 1  IDiag  1:
 E= -284.413349179999     Delta-E=        0.000000006201 Rises=F Damp=F
 DIIS: error= 1.02D-05 at cycle   2 NSaved=   2.
 NSaved= 2 IEnMin= 1 EnMin= -284.413349186201     IErMin= 1 ErrMin= 6.69D-06
 ErrMax= 1.02D-05  0.00D+00 EMaxC= 1.00D-01 BMatC= 2.11D-08 BMatP= 1.13D-08
 IDIUse=1 WtCom= 1.00D+00 WtEn= 0.00D+00
 Coeff-Com:  0.581D+00 0.419D+00
 Coeff:      0.581D+00 0.419D+00
 Gap=     0.247 Goal=   None    Shift=    0.000
 RMSDP=1.20D-06 MaxDP=2.43D-05 DE= 6.20D-09 OVMax= 3.48D-05

 Cycle   9  Pass 1  IDiag  1:
 E= -284.413349196244     Delta-E=       -0.000000016245 Rises=F Damp=F
 DIIS: error= 1.70D-06 at cycle   3 NSaved=   3.
 NSaved= 3 IEnMin= 3 EnMin= -284.413349196244     IErMin= 3 ErrMin= 1.70D-06
 ErrMax= 1.70D-06  0.00D+00 EMaxC= 1.00D-01 BMatC= 3.28D-10 BMatP= 1.13D-08
 IDIUse=1 WtCom= 1.00D+00 WtEn= 0.00D+00
 Coeff-Com:  0.196D+00 0.176D+00 0.628D+00
 Coeff:      0.196D+00 0.176D+00 0.628D+00
 Gap=     0.247 Goal=   None    Shift=    0.000
 RMSDP=2.20D-07 MaxDP=3.66D-06 DE=-1.62D-08 OVMax= 3.59D-06

 Cycle  10  Pass 1  IDiag  1:
 E= -284.413349196467     Delta-E=       -0.000000000223 Rises=F Damp=F
 DIIS: error= 4.38D-07 at cycle   4 NSaved=   4.
 NSaved= 4 IEnMin= 4 EnMin= -284.413349196467     IErMin= 4 ErrMin= 4.38D-07
 ErrMax= 4.38D-07  0.00D+00 EMaxC= 1.00D-01 BMatC= 2.86D-11 BMatP= 3.28D-10
 IDIUse=1 WtCom= 1.00D+00 WtEn= 0.00D+00
 Coeff-Com:  0.252D-01 0.321D-01 0.252D+00 0.691D+00
 Coeff:      0.252D-01 0.321D-01 0.252D+00 0.691D+00
 Gap=     0.247 Goal=   None    Shift=    0.000
 RMSDP=8.18D-08 MaxDP=1.71D-06 DE=-2.23D-10 OVMax= 2.51D-06

 Cycle  11  Pass 1  IDiag  1:
 E= -284.413349196482     Delta-E=       -0.000000000015 Rises=F Damp=F
 DIIS: error= 3.11D-07 at cycle   5 NSaved=   5.
 NSaved= 5 IEnMin= 5 EnMin= -284.413349196482     IErMin= 5 ErrMin= 3.11D-07
 ErrMax= 3.11D-07  0.00D+00 EMaxC= 1.00D-01 BMatC= 1.13D-11 BMatP= 2.86D-11
 IDIUse=1 WtCom= 1.00D+00 WtEn= 0.00D+00
 Coeff-Com: -0.656D-02-0.280D-03 0.852D-01 0.438D+00 0.484D+00
 Coeff:     -0.656D-02-0.280D-03 0.852D-01 0.438D+00 0.484D+00
 Gap=     0.247 Goal=   None    Shift=    0.000
 RMSDP=3.96D-08 MaxDP=8.61D-07 DE=-1.48D-11 OVMax= 1.50D-06

 Cycle  12  Pass 1  IDiag  1:
 E= -284.413349196489     Delta-E=       -0.000000000008 Rises=F Damp=F
 DIIS: error= 1.08D-07 at cycle   6 NSaved=   6.
 NSaved= 6 IEnMin= 6 EnMin= -284.413349196489     IErMin= 6 ErrMin= 1.08D-07
 ErrMax= 1.08D-07  0.00D+00 EMaxC= 1.00D-01 BMatC= 1.67D-12 BMatP= 1.13D-11
 IDIUse=1 WtCom= 1.00D+00 WtEn= 0.00D+00
 Coeff-Com: -0.798D-02-0.536D-02 0.131D-01 0.168D+00 0.313D+00 0.520D+00
 Coeff:     -0.798D-02-0.536D-02 0.131D-01 0.168D+00 0.313D+00 0.520D+00
 Gap=     0.247 Goal=   None    Shift=    0.000
 RMSDP=1.23D-08 MaxDP=2.13D-07 DE=-7.50D-12 OVMax= 4.76D-07

 Cycle  13  Pass 1  IDiag  1:
 E= -284.413349196492     Delta-E=       -0.000000000003 Rises=F Damp=F
 DIIS: error= 1.70D-08 at cycle   7 NSaved=   7.
 NSaved= 7 IEnMin= 7 EnMin= -284.413349196492     IErMin= 7 ErrMin= 1.70D-08
 ErrMax= 1.70D-08  0.00D+00 EMaxC= 1.00D-01 BMatC= 5.56D-14 BMatP= 1.67D-12
 IDIUse=1 WtCom= 1.00D+00 WtEn= 0.00D+00
 Coeff-Com: -0.358D-02-0.265D-02 0.175D-02 0.608D-01 0.128D+00 0.261D+00
 Coeff-Com:  0.555D+00
 Coeff:     -0.358D-02-0.265D-02 0.175D-02 0.608D-01 0.128D+00 0.261D+00
 Coeff:      0.555D+00
 Gap=     0.247 Goal=   None    Shift=    0.000
 RMSDP=2.83D-09 MaxDP=5.37D-08 DE=-3.13D-12 OVMax= 6.26D-08

 SCF Done:  E(RB3LYP) =  -284.413349196     A.U. after   13 cycles
            NFock= 13  Conv=0.28D-08     -V/T= 2.0090
 KE= 2.818813114147D+02 PE=-1.023353628044D+03 EE= 2.785792585412D+02
 Leave Link  502 at Fri Mar 14 15:41:21 2025, MaxMem=  8589934592 cpu:              21.6 elap:               2.9
 (Enter /home/enzo/gaussian_versions/gdv.j21/gdv/l701.exe)
 ... and contract with generalized density number  0.
 Compute integral first derivatives.
 Leave Link  701 at Fri Mar 14 15:41:21 2025, MaxMem=  8589934592 cpu:               0.9 elap:               0.3
 (Enter /home/enzo/gaussian_versions/gdv.j21/gdv/l702.exe)
 L702 exits ... SP integral derivatives will be done elsewhere.
 Leave Link  702 at Fri Mar 14 15:41:21 2025, MaxMem=  8589934592 cpu:               0.2 elap:               0.2
 (Enter /home/enzo/gaussian_versions/gdv.j21/gdv/l703.exe)
 Integral derivatives from FoFJK, PRISM(SPDF).
 Compute integral first derivatives, UseDBF=F ICtDFT=           0.
 Calling FoFJK, ICntrl=      2127 FMM=F ISym2X=0 I1Cent= 0 IOpClX= 0 NMat=1 NMatS=1 NMatT=0.
 FoFJK:  IHMeth= 1 ICntrl=    2127 DoSepK=F KAlg= 0 I1Cent=           0 FoldK=F
 IRaf=         0 NMat=       1 IRICut=       1 DoRegI=T DoRafI=F ISym2E= 0 IDoP0=0 IntGTp=1.
 FoFCou: FMM=F IPFlag=           0 FMFlag=      100000 FMFlg1=         800
         NFxFlg=           0 DoJE=F BraDBF=F KetDBF=F FulRan=T
         wScrn=  0.000000 ICntrl=      2127 IOpCl=  0 I1Cent=           0 NGrid=           0
         NMat0=    1 NMatS0=      1 NMatT0=    0 NMatD0=    1 NMtDS0=    0 NMtDT0=    0
 Symmetry not used in FoFCou.
 Leave Link  703 at Fri Mar 14 15:41:22 2025, MaxMem=  8589934592 cpu:               3.9 elap:               0.5
 (Enter /home/enzo/gaussian_versions/gdv.j21/gdv/l716.exe)
 Dipole        = 6.88654268D-01-1.66000245D-01 1.91217185D-01
 ***** Axes restored to original set *****
 -------------------------------------------------------------------
 Center     Atomic                   Forces (Hartrees/Bohr)
 Number     Number              X              Y              Z
 -------------------------------------------------------------------
      1        7          -0.001650025   -0.000577755    0.001038874
      2        6          -0.010368100    0.000584018    0.005408230
      3        6           0.019677285   -0.014846427   -0.006247350
      4        8          -0.007353657    0.013173182    0.000620341
      5        8          -0.006207938    0.004717872   -0.003237059
      6        1           0.002657614   -0.001626880   -0.001231169
      7        1           0.000615145    0.002471270    0.001327821
      8        1           0.001102950    0.000704664   -0.002806768
      9        1          -0.000022824    0.000063194    0.000742614
     10        1           0.001549550   -0.004663139    0.004384465
 -------------------------------------------------------------------
 Cartesian Forces:  Max     0.019677285 RMS     0.006218586
 Leave Link  716 at Fri Mar 14 15:41:22 2025, MaxMem=  8589934592 cpu:               0.2 elap:               0.1
 (Enter /home/enzo/gaussian_versions/gdv.j21/gdv/l103.exe)

 GradGradGradGradGradGradGradGradGradGradGradGradGradGradGradGradGradGrad
 Berny optimization.
 Using GEDIIS/GDIIS optimizer.
 FormGI is forming the generalized inverse of G from B-inverse, IUseBI=4.
 Internal  Forces:  Max     0.014585920 RMS     0.003617206
 Search for a local minimum.
 Step number   2 out of a maximum of   46
 All quantities printed in internal units (Hartrees-Bohrs-Radians)
 RMS Force = .36172D-02 SwitMx=.10000D-02 MixMth= 1
 Mixed Optimization -- RFO/linear search
 Update second derivatives using D2CorX and points    1    2
 DE= -1.75D-02 DEPred=-1.75D-02 R= 9.96D-01
 TightC=F SS=  1.41D+00  RLast= 3.28D-01 DXNew= 5.0454D-01 9.8342D-01
 Trust test= 9.96D-01 RLast= 3.28D-01 DXMaxT set to 5.05D-01
 ITU=  1  0
 Use linear search instead of GDIIS.
     Eigenvalues ---    0.00825   0.00928   0.01082   0.01802   0.04460
     Eigenvalues ---    0.05344   0.06623   0.09844   0.13333   0.15923
     Eigenvalues ---    0.16000   0.16621   0.21941   0.24397   0.25664
     Eigenvalues ---    0.32294   0.32608   0.32904   0.37498   0.40536
     Eigenvalues ---    0.40602   0.46194   0.49380   0.77123
 RFO step:  Lambda=-2.40419770D-03 EMin= 8.24549225D-03
 Quartic linear search produced a step of  0.16013.
 Iteration  1 RMS(Cart)=  0.04897313 RMS(Int)=  0.00582327
 Iteration  2 RMS(Cart)=  0.00506744 RMS(Int)=  0.00008198
 Iteration  3 RMS(Cart)=  0.00005999 RMS(Int)=  0.00005834
 Iteration  4 RMS(Cart)=  0.00000001 RMS(Int)=  0.00005834
 Variable       Old X    -DE/DX   Delta X   Delta X   Delta X     New X
                                 (Linear)    (Quad)   (Total)
    R1        2.78127  -0.00174   0.00426  -0.00929  -0.00502   2.77625
    R2        1.92753  -0.00324  -0.00762  -0.00232  -0.00994   1.91759
    R3        1.92857  -0.00280  -0.00746  -0.00121  -0.00867   1.91989
    R4        2.84416   0.00847   0.00287   0.02690   0.02977   2.87393
    R5        2.07650  -0.00214  -0.00332  -0.00440  -0.00772   2.06878
    R6        2.07492   0.00011  -0.00371   0.00389   0.00018   2.07510
    R7        2.31011  -0.01459  -0.01056  -0.01225  -0.02281   2.28730
    R8        2.55003  -0.00137  -0.01184   0.00707  -0.00478   2.54525
    R9        1.84335  -0.00135  -0.01104   0.00634  -0.00471   1.83865
    A1        1.92193  -0.00068   0.00303  -0.00854  -0.00552   1.91642
    A2        1.91167   0.00081   0.00218   0.00308   0.00525   1.91692
    A3        1.86535  -0.00017  -0.00350   0.00245  -0.00105   1.86430
    A4        1.92274  -0.00058  -0.00089  -0.00336  -0.00433   1.91841
    A5        1.90071  -0.00034  -0.00298  -0.00654  -0.00968   1.89103
    A6        1.99415   0.00075   0.01320  -0.00555   0.00765   2.00179
    A7        1.91276  -0.00078   0.00005  -0.01374  -0.01384   1.89892
    A8        1.85283   0.00047  -0.00958   0.02100   0.01143   1.86426
    A9        1.87896   0.00045   0.00004   0.00822   0.00820   1.88716
   A10        2.14913   0.00567   0.00778   0.01814   0.02586   2.17500
   A11        1.98416  -0.00471  -0.01604  -0.00548  -0.02156   1.96260
   A12        2.14986  -0.00096   0.00831  -0.01282  -0.00456   2.14530
   A13        1.89887  -0.00737  -0.03281  -0.01442  -0.04723   1.85164
    D1       -2.72488   0.00031  -0.00264  -0.01217  -0.01484  -2.73972
    D2       -0.62661  -0.00121  -0.00504  -0.03517  -0.04018  -0.66679
    D3        1.47466  -0.00039   0.00136  -0.03303  -0.03166   1.44300
    D4        1.51177   0.00043  -0.00142  -0.01196  -0.01342   1.49835
    D5       -2.67314  -0.00110  -0.00382  -0.03496  -0.03876  -2.71190
    D6       -0.57188  -0.00027   0.00257  -0.03283  -0.03024  -0.60212
    D7       -1.91660  -0.00047  -0.00474   0.01789   0.01324  -1.90336
    D8        1.21644  -0.00048  -0.00155  -0.00197  -0.00352   1.21292
    D9        2.27561   0.00081  -0.00051   0.03665   0.03615   2.31175
   D10       -0.87454   0.00079   0.00267   0.01679   0.01939  -0.85515
   D11        0.25107   0.00041   0.00481   0.02254   0.02737   0.27844
   D12       -2.89908   0.00039   0.00799   0.00268   0.01062  -2.88846
   D13       -2.88378  -0.00442  -0.01320  -0.18774  -0.20107  -3.08485
   D14        0.24925  -0.00440  -0.01002  -0.20743  -0.21732   0.03193
         Item               Value     Threshold  Converged?
 Maximum Force            0.014586     0.000450     NO 
 RMS     Force            0.003617     0.000300     NO 
 Maximum Displacement     0.194614     0.001800     NO 
 RMS     Displacement     0.050744     0.001200     NO 
 Predicted change in Energy=-1.921885D-03
 Lowest energy point so far.  Saving SCF results.
 GradGradGradGradGradGradGradGradGradGradGradGradGradGradGradGradGradGrad

 Leave Link  103 at Fri Mar 14 15:41:22 2025, MaxMem=  8589934592 cpu:               0.6 elap:               0.2
 (Enter /home/enzo/gaussian_versions/gdv.j21/gdv/l202.exe)
                          Input orientation:                          
 ---------------------------------------------------------------------
 Center     Atomic      Atomic             Coordinates (Angstroms)
 Number     Number       Type             X           Y           Z
 ---------------------------------------------------------------------
      1          7           0       -1.852090    0.195593   -0.426444
      2          6           0       -0.891241   -0.276431    0.579688
      3          6           0        0.528164   -0.103763    0.061658
      4          8           0        1.254450   -1.013380   -0.270208
      5          8           0        0.891613    1.190527   -0.021004
      6          1           0       -2.728374    0.440014    0.023098
      7          1           0       -2.057362   -0.551152   -1.084029
      8          1           0       -1.013106    0.329277    1.483429
      9          1           0       -1.001156   -1.332711    0.858971
     10          1           0        1.784481    1.195747   -0.407565
 ---------------------------------------------------------------------
                    Distance matrix (angstroms):
                    1          2          3          4          5
     1  N    0.000000
     2  C    1.469128   0.000000
     3  C    2.448156   1.520816   0.000000
     4  O    3.337157   2.422687   1.210385   0.000000
     5  O    2.946554   2.385659   1.346891   2.247434   0.000000
     6  H    1.014743   2.048937   3.301851   4.249856   3.697232
     7  H    1.015964   2.050186   2.863163   3.441520   3.586074
     8  H    2.090306   1.094751   2.141138   3.165404   2.575467
     9  H    2.170736   1.098093   2.117744   2.542593   3.274700
    10  H    3.771646   3.209590   1.867412   2.275971   0.972969
                    6          7          8          9         10
     6  H    0.000000
     7  H    1.630459   0.000000
     8  H    2.255433   2.908172   0.000000
     9  H    2.612379   2.345560   1.775470   0.000000
    10  H    4.595918   4.274228   3.486133   3.969507   0.000000
 Stoichiometry    C2H5NO2
 Framework group  C1[X(C2H5NO2)]
 Deg. of freedom    24
 Full point group                 C1      NOp   1
 RotChk:  IX=3 Diff= 2.50D-02
 Largest Abelian subgroup         C1      NOp   1
 Largest concise Abelian subgroup C1      NOp   1
                         Standard orientation:                         
 ---------------------------------------------------------------------
 Center     Atomic      Atomic             Coordinates (Angstroms)
 Number     Number       Type             X           Y           Z
 ---------------------------------------------------------------------
      1          7           0        1.768178   -0.186377   -0.447113
      2          6           0        0.829020    0.294408    0.575220
      3          6           0       -0.601055    0.119796    0.088107
      4          8           0       -1.333005    1.027893   -0.235374
      5          8           0       -0.967681   -1.174584    0.022683
      6          1           0        2.653330   -0.428623   -0.014070
      7          1           0        1.960618    0.555179   -1.114380
      8          1           0        0.968931   -0.304721    1.480730
      9          1           0        0.945972    1.352589    0.844263
     10          1           0       -1.868399   -1.181482   -0.345187
 ---------------------------------------------------------------------
 Rotational constants (GHZ):           8.9585575           3.9485779           3.1520651
 Leave Link  202 at Fri Mar 14 15:41:22 2025, MaxMem=  8589934592 cpu:               0.1 elap:               0.1
 (Enter /home/enzo/gaussian_versions/gdv.j21/gdv/l301.exe)
 Standard basis: 6-31G(d) (6D, 7F)
 Ernie: Thresh=  0.10000D-02 Tol=  0.10000D-05 Strict=F.
 There are    85 symmetry adapted cartesian basis functions of A   symmetry.
 There are    85 symmetry adapted basis functions of A   symmetry.
    85 basis functions,   160 primitive gaussians,    85 cartesian basis functions
    20 alpha electrons       20 beta electrons
       nuclear repulsion energy       178.7978430496 Hartrees.
 IExCor=      4002 DFT=T Ex+Corr=B3LYP ScaHFX=  0.200000
 ScaDFX=  0.800000  0.720000  1.000000  0.810000  1.000000  0.000000
 ScaDFX=  0.000000  0.000000  0.000000  0.000000  0.000000  0.000000
 IRadAn=      5 IRanWt=     -1 IRanGd=            0 ICorTp=0 IEmpDi=  4
 NAtoms=   10 NActive=   10 NUniq=   10 SFac= 1.00D+00 NAtFMM=   60 NAOKFM=F Big=F
 Integral buffers will be    131072 words long.
 Raffenetti 2 integral format.
 Two-electron integral symmetry is turned on.
 Leave Link  301 at Fri Mar 14 15:41:22 2025, MaxMem=  8589934592 cpu:               0.3 elap:               0.1
 (Enter /home/enzo/gaussian_versions/gdv.j21/gdv/l302.exe)
 NPDir=0 NMtPBC=     1 NCelOv=     1 NCel=       1 NClECP=     1 NCelD=      1
         NCelK=      1 NCelE2=     1 NClLst=     1 CellRange=     0.0.
 One-electron integrals computed using PRISM.
 One-electron integral symmetry used in STVInt
 NBasis=    85 RedAO= T EigKep=  4.19D-03  NBF=    85
 NBsUse=    85 1.00D-06 EigRej= -1.00D+00 NBFU=    85
 Precomputing XC quadrature grid using
 IXCGrd= 4 IRadAn=           5 IRanWt=          -1 IRanGd=           0 AccXCQ= 0.00D+00.
 Generated NRdTot=       0 NPtTot=      219750 NUsed=           0 NTot=          64
 NSgBfM=    85    85    85    85    85 MxSgAt=    10 MxSgA2=    10 SizInc=   0.000
 NMBTot=     1951 MaxBatPerAtom=       83 MaxMicBPerAtom=      210 NBfPt=            16004270.
 Leave Link  302 at Fri Mar 14 15:41:23 2025, MaxMem=  8589934592 cpu:               1.0 elap:               0.2
 (Enter /home/enzo/gaussian_versions/gdv.j21/gdv/l303.exe)
 DipDrv:  MaxL=1.
 Leave Link  303 at Fri Mar 14 15:41:23 2025, MaxMem=  8589934592 cpu:               0.2 elap:               0.1
 (Enter /home/enzo/gaussian_versions/gdv.j21/gdv/l401.exe)
 Initial guess from the checkpoint file:  "/local/home/enzo/scratch/Gau-2409754.chk"
 B after Tr=     0.000000   -0.000000    0.000000
         Rot=    0.999987   -0.004381   -0.001406   -0.002356 Ang=  -0.59 deg.
 AO Guess basis will be translated and rotated to current coordinates.
 JPrj=2 DoOrth=T DoCkMO=T.
 Generating alternative initial guess.
 ExpMin= 1.61D-01 ExpMax= 5.48D+03 ExpMxC= 8.25D+02 IAcc=3 IRadAn=         5 AccDes= 0.00D+00
 Harris functional with IExCor= 4002 and IRadAn=       5 diagonalized for initial guess.
 HarFok:  IExCor=    4002 AccDes= 0.00D+00 IRadAn=         5 IDoV= 1 UseB2=F ITyADJ=14 ICtDFT=  3500011
 FoFCou: FMM=F IPFlag=           0 FMFlag=      100000 FMFlg1=           0
         NFxFlg=           0 DoJE=T BraDBF=F KetDBF=T FulRan=T
         wScrn=  0.000000 ICntrl=       500 IOpCl=  0 I1Cent=   200000004 NGrid=           0
         NMat0=    1 NMatS0=      1 NMatT0=    0 NMatD0=    1 NMtDS0=    0 NMtDT0=    0
 Petite list used in FoFCou.
 Harris En= -284.438436817938    
 Leave Link  401 at Fri Mar 14 15:41:23 2025, MaxMem=  8589934592 cpu:               2.1 elap:               0.3
 (Enter /home/enzo/gaussian_versions/gdv.j21/gdv/l502.exe)
 Keep R1 ints in memory in canonical form, NReq=17617987.
 FoFCou: FMM=F IPFlag=           0 FMFlag=           0 FMFlg1=           0
         NFxFlg=           0 DoJE=F BraDBF=F KetDBF=F FulRan=T
         wScrn=  0.000000 ICntrl=       600 IOpCl=  0 I1Cent=           0 NGrid=           0
         NMat0=    1 NMatS0=   3655 NMatT0=    0 NMatD0=    1 NMtDS0=    0 NMtDT0=    0
 Symmetry not used in FoFCou.
 Two-electron integral symmetry not used.
 Closed shell SCF:
 Using DIIS extrapolation, IDIIS=  1040.
 NGot=  8589934592 LenX=  8583230350 LenY=  8583222684
 Requested convergence on RMS density matrix=1.00D-08 within 128 cycles.
 Requested convergence on MAX density matrix=1.00D-06.
 Requested convergence on             energy=1.00D-06.
 No special actions if energy rises.
 Integral accuracy reduced to 1.0D-05 until final iterations.

 Cycle   1  Pass 0  IDiag  1:
 E= -284.410508795506    
 DIIS: error= 5.29D-03 at cycle   1 NSaved=   1.
 NSaved= 1 IEnMin= 1 EnMin= -284.410508795506     IErMin= 1 ErrMin= 5.29D-03
 ErrMax= 5.29D-03  0.00D+00 EMaxC= 1.00D-01 BMatC= 2.91D-03 BMatP= 2.91D-03
 IDIUse=3 WtCom= 9.47D-01 WtEn= 5.29D-02
 Coeff-Com:  0.100D+01
 Coeff-En:   0.100D+01
 Coeff:      0.100D+01
 Gap=     1.600 Goal=   None    Shift=    0.000
 GapD=    1.600 DampG=2.000 DampE=1.000 DampFc=2.0000 IDamp=-1.
 RMSDP=1.07D-03 MaxDP=2.66D-02              OVMax= 3.02D-02

 Cycle   2  Pass 0  IDiag  1:
 E= -284.414899496506     Delta-E=       -0.004390701000 Rises=F Damp=F
 DIIS: error= 1.27D-03 at cycle   2 NSaved=   2.
 NSaved= 2 IEnMin= 2 EnMin= -284.414899496506     IErMin= 2 ErrMin= 1.27D-03
 ErrMax= 1.27D-03  0.00D+00 EMaxC= 1.00D-01 BMatC= 2.35D-04 BMatP= 2.91D-03
 IDIUse=3 WtCom= 9.87D-01 WtEn= 1.27D-02
 Coeff-Com:  0.648D-01 0.935D+00
 Coeff-En:   0.000D+00 0.100D+01
 Coeff:      0.640D-01 0.936D+00
 Gap=     0.251 Goal=   None    Shift=    0.000
 RMSDP=3.87D-04 MaxDP=8.42D-03 DE=-4.39D-03 OVMax= 1.52D-02

 Cycle   3  Pass 0  IDiag  1:
 E= -284.414529515359     Delta-E=        0.000369981147 Rises=F Damp=F
 DIIS: error= 2.73D-03 at cycle   3 NSaved=   3.
 NSaved= 3 IEnMin= 2 EnMin= -284.414899496506     IErMin= 2 ErrMin= 1.27D-03
 ErrMax= 2.73D-03  0.00D+00 EMaxC= 1.00D-01 BMatC= 7.71D-04 BMatP= 2.35D-04
 IDIUse=3 WtCom= 1.61D-01 WtEn= 8.39D-01
 Coeff-Com: -0.327D-01 0.668D+00 0.365D+00
 Coeff-En:   0.000D+00 0.707D+00 0.293D+00
 Coeff:     -0.526D-02 0.700D+00 0.305D+00
 Gap=     0.250 Goal=   None    Shift=    0.000
 RMSDP=2.23D-04 MaxDP=5.22D-03 DE= 3.70D-04 OVMax= 9.25D-03

 Cycle   4  Pass 0  IDiag  1:
 E= -284.415102073591     Delta-E=       -0.000572558232 Rises=F Damp=F
 DIIS: error= 2.12D-04 at cycle   4 NSaved=   4.
 NSaved= 4 IEnMin= 4 EnMin= -284.415102073591     IErMin= 4 ErrMin= 2.12D-04
 ErrMax= 2.12D-04  0.00D+00 EMaxC= 1.00D-01 BMatC= 9.94D-06 BMatP= 2.35D-04
 IDIUse=3 WtCom= 9.98D-01 WtEn= 2.12D-03
 Coeff-Com: -0.209D-01 0.229D+00 0.575D-01 0.734D+00
 Coeff-En:   0.000D+00 0.000D+00 0.000D+00 0.100D+01
 Coeff:     -0.209D-01 0.229D+00 0.573D-01 0.735D+00
 Gap=     0.250 Goal=   None    Shift=    0.000
 RMSDP=3.29D-05 MaxDP=4.43D-04 DE=-5.73D-04 OVMax= 9.44D-04

 Cycle   5  Pass 0  IDiag  1:
 E= -284.415109560277     Delta-E=       -0.000007486686 Rises=F Damp=F
 DIIS: error= 4.48D-05 at cycle   5 NSaved=   5.
 NSaved= 5 IEnMin= 5 EnMin= -284.415109560277     IErMin= 5 ErrMin= 4.48D-05
 ErrMax= 4.48D-05  0.00D+00 EMaxC= 1.00D-01 BMatC= 5.03D-07 BMatP= 9.94D-06
 IDIUse=1 WtCom= 1.00D+00 WtEn= 0.00D+00
 Coeff-Com: -0.809D-02 0.710D-01 0.102D-01 0.329D+00 0.597D+00
 Coeff:     -0.809D-02 0.710D-01 0.102D-01 0.329D+00 0.597D+00
 Gap=     0.250 Goal=   None    Shift=    0.000
 RMSDP=7.91D-06 MaxDP=1.46D-04 DE=-7.49D-06 OVMax= 1.67D-04

 Initial convergence to 1.0D-05 achieved.  Increase integral accuracy.
 Cycle   6  Pass 1  IDiag  1:
 E= -284.415108354318     Delta-E=        0.000001205959 Rises=F Damp=F
 DIIS: error= 1.69D-05 at cycle   1 NSaved=   1.
 NSaved= 1 IEnMin= 1 EnMin= -284.415108354318     IErMin= 1 ErrMin= 1.69D-05
 ErrMax= 1.69D-05  0.00D+00 EMaxC= 1.00D-01 BMatC= 5.76D-08 BMatP= 5.76D-08
 IDIUse=1 WtCom= 1.00D+00 WtEn= 0.00D+00
 Coeff-Com:  0.100D+01
 Coeff:      0.100D+01
 Gap=     0.250 Goal=   None    Shift=    0.000
 RMSDP=7.91D-06 MaxDP=1.46D-04 DE= 1.21D-06 OVMax= 1.10D-04

 Cycle   7  Pass 1  IDiag  1:
 E= -284.415108310941     Delta-E=        0.000000043377 Rises=F Damp=F
 DIIS: error= 2.43D-05 at cycle   2 NSaved=   2.
 NSaved= 2 IEnMin= 1 EnMin= -284.415108354318     IErMin= 1 ErrMin= 1.69D-05
 ErrMax= 2.43D-05  0.00D+00 EMaxC= 1.00D-01 BMatC= 1.20D-07 BMatP= 5.76D-08
 IDIUse=1 WtCom= 1.00D+00 WtEn= 0.00D+00
 Coeff-Com:  0.592D+00 0.408D+00
 Coeff:      0.592D+00 0.408D+00
 Gap=     0.250 Goal=   None    Shift=    0.000
 RMSDP=2.90D-06 MaxDP=5.28D-05 DE= 4.34D-08 OVMax= 6.93D-05

 Cycle   8  Pass 1  IDiag  1:
 E= -284.415108402207     Delta-E=       -0.000000091266 Rises=F Damp=F
 DIIS: error= 2.82D-06 at cycle   3 NSaved=   3.
 NSaved= 3 IEnMin= 3 EnMin= -284.415108402207     IErMin= 3 ErrMin= 2.82D-06
 ErrMax= 2.82D-06  0.00D+00 EMaxC= 1.00D-01 BMatC= 8.56D-10 BMatP= 5.76D-08
 IDIUse=1 WtCom= 1.00D+00 WtEn= 0.00D+00
 Coeff-Com:  0.245D+00 0.182D+00 0.573D+00
 Coeff:      0.245D+00 0.182D+00 0.573D+00
 Gap=     0.250 Goal=   None    Shift=    0.000
 RMSDP=4.23D-07 MaxDP=8.36D-06 DE=-9.13D-08 OVMax= 1.22D-05

 Cycle   9  Pass 1  IDiag  1:
 E= -284.415108402691     Delta-E=       -0.000000000483 Rises=F Damp=F
 DIIS: error= 1.56D-06 at cycle   4 NSaved=   4.
 NSaved= 4 IEnMin= 4 EnMin= -284.415108402691     IErMin= 4 ErrMin= 1.56D-06
 ErrMax= 1.56D-06  0.00D+00 EMaxC= 1.00D-01 BMatC= 3.13D-10 BMatP= 8.56D-10
 IDIUse=1 WtCom= 1.00D+00 WtEn= 0.00D+00
 Coeff-Com:  0.675D-01 0.549D-01 0.374D+00 0.503D+00
 Coeff:      0.675D-01 0.549D-01 0.374D+00 0.503D+00
 Gap=     0.250 Goal=   None    Shift=    0.000
 RMSDP=1.96D-07 MaxDP=4.56D-06 DE=-4.83D-10 OVMax= 7.92D-06

 Cycle  10  Pass 1  IDiag  1:
 E= -284.415108402914     Delta-E=       -0.000000000224 Rises=F Damp=F
 DIIS: error= 4.94D-07 at cycle   5 NSaved=   5.
 NSaved= 5 IEnMin= 5 EnMin= -284.415108402914     IErMin= 5 ErrMin= 4.94D-07
 ErrMax= 4.94D-07  0.00D+00 EMaxC= 1.00D-01 BMatC= 3.30D-11 BMatP= 3.13D-10
 IDIUse=1 WtCom= 1.00D+00 WtEn= 0.00D+00
 Coeff-Com: -0.146D-01-0.828D-02 0.830D-01 0.281D+00 0.659D+00
 Coeff:     -0.146D-01-0.828D-02 0.830D-01 0.281D+00 0.659D+00
 Gap=     0.250 Goal=   None    Shift=    0.000
 RMSDP=7.35D-08 MaxDP=1.38D-06 DE=-2.24D-10 OVMax= 2.50D-06

 Cycle  11  Pass 1  IDiag  1:
 E= -284.415108402935     Delta-E=       -0.000000000020 Rises=F Damp=F
 DIIS: error= 1.46D-07 at cycle   6 NSaved=   6.
 NSaved= 6 IEnMin= 6 EnMin= -284.415108402935     IErMin= 6 ErrMin= 1.46D-07
 ErrMax= 1.46D-07  0.00D+00 EMaxC= 1.00D-01 BMatC= 5.46D-12 BMatP= 3.30D-11
 IDIUse=1 WtCom= 1.00D+00 WtEn= 0.00D+00
 Coeff-Com: -0.146D-01-0.966D-02 0.171D-01 0.126D+00 0.397D+00 0.484D+00
 Coeff:     -0.146D-01-0.966D-02 0.171D-01 0.126D+00 0.397D+00 0.484D+00
 Gap=     0.250 Goal=   None    Shift=    0.000
 RMSDP=2.16D-08 MaxDP=3.72D-07 DE=-2.02D-11 OVMax= 5.52D-07

 Cycle  12  Pass 1  IDiag  1:
 E= -284.415108402941     Delta-E=       -0.000000000007 Rises=F Damp=F
 DIIS: error= 1.69D-08 at cycle   7 NSaved=   7.
 NSaved= 7 IEnMin= 7 EnMin= -284.415108402941     IErMin= 7 ErrMin= 1.69D-08
 ErrMax= 1.69D-08  0.00D+00 EMaxC= 1.00D-01 BMatC= 6.50D-14 BMatP= 5.46D-12
 IDIUse=1 WtCom= 1.00D+00 WtEn= 0.00D+00
 Coeff-Com: -0.453D-02-0.304D-02 0.287D-02 0.346D-01 0.112D+00 0.174D+00
 Coeff-Com:  0.684D+00
 Coeff:     -0.453D-02-0.304D-02 0.287D-02 0.346D-01 0.112D+00 0.174D+00
 Coeff:      0.684D+00
 Gap=     0.250 Goal=   None    Shift=    0.000
 RMSDP=3.59D-09 MaxDP=5.29D-08 DE=-6.71D-12 OVMax= 7.71D-08

 SCF Done:  E(RB3LYP) =  -284.415108403     A.U. after   12 cycles
            NFock= 12  Conv=0.36D-08     -V/T= 2.0088
 KE= 2.819450944806D+02 PE=-1.024005652499D+03 EE= 2.788476065661D+02
 Leave Link  502 at Fri Mar 14 15:41:26 2025, MaxMem=  8589934592 cpu:              21.1 elap:               3.0
 (Enter /home/enzo/gaussian_versions/gdv.j21/gdv/l701.exe)
 ... and contract with generalized density number  0.
 Compute integral first derivatives.
 Leave Link  701 at Fri Mar 14 15:41:26 2025, MaxMem=  8589934592 cpu:               1.1 elap:               0.3
 (Enter /home/enzo/gaussian_versions/gdv.j21/gdv/l702.exe)
 L702 exits ... SP integral derivatives will be done elsewhere.
 Leave Link  702 at Fri Mar 14 15:41:27 2025, MaxMem=  8589934592 cpu:               0.3 elap:               0.2
 (Enter /home/enzo/gaussian_versions/gdv.j21/gdv/l703.exe)
 Integral derivatives from FoFJK, PRISM(SPDF).
 Compute integral first derivatives, UseDBF=F ICtDFT=           0.
 Calling FoFJK, ICntrl=      2127 FMM=F ISym2X=0 I1Cent= 0 IOpClX= 0 NMat=1 NMatS=1 NMatT=0.
 FoFJK:  IHMeth= 1 ICntrl=    2127 DoSepK=F KAlg= 0 I1Cent=           0 FoldK=F
 IRaf=         0 NMat=       1 IRICut=       1 DoRegI=T DoRafI=F ISym2E= 0 IDoP0=0 IntGTp=1.
 FoFCou: FMM=F IPFlag=           0 FMFlag=      100000 FMFlg1=         800
         NFxFlg=           0 DoJE=F BraDBF=F KetDBF=F FulRan=T
         wScrn=  0.000000 ICntrl=      2127 IOpCl=  0 I1Cent=           0 NGrid=           0
         NMat0=    1 NMatS0=      1 NMatT0=    0 NMatD0=    1 NMtDS0=    0 NMtDT0=    0
 Symmetry not used in FoFCou.
 Leave Link  703 at Fri Mar 14 15:41:27 2025, MaxMem=  8589934592 cpu:               3.9 elap:               0.5
 (Enter /home/enzo/gaussian_versions/gdv.j21/gdv/l716.exe)
 Dipole        = 6.42869350D-01-1.14612849D-01 2.98550073D-01
 ***** Axes restored to original set *****
 -------------------------------------------------------------------
 Center     Atomic                   Forces (Hartrees/Bohr)
 Number     Number              X              Y              Z
 -------------------------------------------------------------------
      1        7           0.001420669    0.000426745    0.001237145
      2        6          -0.002615785    0.000328101    0.000301537
      3        6          -0.002430938   -0.001869168   -0.000777845
      4        8           0.002539427   -0.002471604   -0.000626342
      5        8          -0.001433756    0.003695089    0.001409561
      6        1          -0.001420659   -0.000146968    0.000437815
      7        1           0.000219295   -0.000468072   -0.001314268
      8        1           0.000935194    0.000783240   -0.000281953
      9        1           0.000338737   -0.000290107    0.000403946
     10        1           0.002447818    0.000012745   -0.000789596
 -------------------------------------------------------------------
 Cartesian Forces:  Max     0.003695089 RMS     0.001462843
 Leave Link  716 at Fri Mar 14 15:41:27 2025, MaxMem=  8589934592 cpu:               0.3 elap:               0.2
 (Enter /home/enzo/gaussian_versions/gdv.j21/gdv/l103.exe)

 GradGradGradGradGradGradGradGradGradGradGradGradGradGradGradGradGradGrad
 Berny optimization.
 Using GEDIIS/GDIIS optimizer.
 FormGI is forming the generalized inverse of G from B-inverse, IUseBI=4.
 Internal  Forces:  Max     0.003798922 RMS     0.001110006
 Search for a local minimum.
 Step number   3 out of a maximum of   46
 All quantities printed in internal units (Hartrees-Bohrs-Radians)
 RMS Force = .11100D-02 SwitMx=.10000D-02 MixMth= 1
 Mixed Optimization -- RFO/linear search
 Update second derivatives using D2CorX and points    1    2    3
 DE= -1.76D-03 DEPred=-1.92D-03 R= 9.15D-01
 TightC=F SS=  1.41D+00  RLast= 3.19D-01 DXNew= 8.4853D-01 9.5596D-01
 Trust test= 9.15D-01 RLast= 3.19D-01 DXMaxT set to 8.49D-01
 ITU=  1  1  0
 Use linear search instead of GDIIS.
     Eigenvalues ---    0.00818   0.00897   0.01076   0.02054   0.04470
     Eigenvalues ---    0.05361   0.06631   0.09784   0.13290   0.15925
     Eigenvalues ---    0.16024   0.16682   0.21977   0.23747   0.25572
     Eigenvalues ---    0.32056   0.32608   0.32799   0.37478   0.40551
     Eigenvalues ---    0.40972   0.46269   0.51825   0.80600
 RFO step:  Lambda=-3.35865944D-04 EMin= 8.18012782D-03
 Quartic linear search produced a step of  0.03077.
 Iteration  1 RMS(Cart)=  0.02764811 RMS(Int)=  0.00049469
 Iteration  2 RMS(Cart)=  0.00065919 RMS(Int)=  0.00022646
 Iteration  3 RMS(Cart)=  0.00000020 RMS(Int)=  0.00022646
 Variable       Old X    -DE/DX   Delta X   Delta X   Delta X     New X
                                 (Linear)    (Quad)   (Total)
    R1        2.77625  -0.00045  -0.00015  -0.00114  -0.00130   2.77495
    R2        1.91759   0.00139  -0.00031   0.00283   0.00253   1.92011
    R3        1.91989   0.00115  -0.00027   0.00229   0.00202   1.92191
    R4        2.87393   0.00124   0.00092   0.00472   0.00564   2.87956
    R5        2.06878   0.00010  -0.00024  -0.00006  -0.00030   2.06848
    R6        2.07510   0.00035   0.00001   0.00090   0.00090   2.07600
    R7        2.28730   0.00355  -0.00070   0.00340   0.00270   2.28999
    R8        2.54525   0.00380  -0.00015   0.00739   0.00724   2.55250
    R9        1.83865   0.00256  -0.00014   0.00502   0.00488   1.84352
    A1        1.91642   0.00018  -0.00017   0.00204   0.00187   1.91829
    A2        1.91692   0.00039   0.00016   0.00359   0.00375   1.92067
    A3        1.86430  -0.00011  -0.00003   0.00090   0.00086   1.86516
    A4        1.91841   0.00034  -0.00013   0.00056   0.00043   1.91884
    A5        1.89103   0.00020  -0.00030   0.00172   0.00140   1.89243
    A6        2.00179   0.00029   0.00024   0.00524   0.00547   2.00727
    A7        1.89892  -0.00069  -0.00043  -0.00766  -0.00809   1.89083
    A8        1.86426  -0.00048   0.00035  -0.00427  -0.00393   1.86033
    A9        1.88716   0.00027   0.00025   0.00367   0.00389   1.89105
   A10        2.17500   0.00081   0.00080   0.00483   0.00484   2.17984
   A11        1.96260  -0.00081  -0.00066  -0.00413  -0.00557   1.95703
   A12        2.14530   0.00002  -0.00014   0.00096   0.00004   2.14533
   A13        1.85164   0.00002  -0.00145  -0.00297  -0.00443   1.84721
    D1       -2.73972  -0.00018  -0.00046  -0.03856  -0.03901  -2.77873
    D2       -0.66679  -0.00070  -0.00124  -0.04648  -0.04772  -0.71451
    D3        1.44300  -0.00002  -0.00097  -0.03704  -0.03801   1.40499
    D4        1.49835  -0.00038  -0.00041  -0.04298  -0.04339   1.45496
    D5       -2.71190  -0.00090  -0.00119  -0.05090  -0.05210  -2.76401
    D6       -0.60212  -0.00022  -0.00093  -0.04146  -0.04239  -0.64451
    D7       -1.90336  -0.00031   0.00041  -0.01866  -0.01826  -1.92163
    D8        1.21292   0.00047  -0.00011   0.05365   0.05356   1.26648
    D9        2.31175  -0.00034   0.00111  -0.01650  -0.01540   2.29635
   D10       -0.85515   0.00044   0.00060   0.05581   0.05643  -0.79872
   D11        0.27844  -0.00005   0.00084  -0.01464  -0.01382   0.26462
   D12       -2.88846   0.00073   0.00033   0.05766   0.05800  -2.83046
   D13       -3.08485  -0.00061  -0.00619  -0.05313  -0.05922   3.13911
   D14        0.03193   0.00017  -0.00669   0.01782   0.01104   0.04297
         Item               Value     Threshold  Converged?
 Maximum Force            0.003799     0.000450     NO 
 RMS     Force            0.001110     0.000300     NO 
 Maximum Displacement     0.073509     0.001800     NO 
 RMS     Displacement     0.027712     0.001200     NO 
 Predicted change in Energy=-1.753068D-04
 Lowest energy point so far.  Saving SCF results.
 GradGradGradGradGradGradGradGradGradGradGradGradGradGradGradGradGradGrad

 Leave Link  103 at Fri Mar 14 15:41:27 2025, MaxMem=  8589934592 cpu:               0.1 elap:               0.1
 (Enter /home/enzo/gaussian_versions/gdv.j21/gdv/l202.exe)
                          Input orientation:                          
 ---------------------------------------------------------------------
 Center     Atomic      Atomic             Coordinates (Angstroms)
 Number     Number       Type             X           Y           Z
 ---------------------------------------------------------------------
      1          7           0       -1.870803    0.190362   -0.422275
      2          6           0       -0.894400   -0.267780    0.574251
      3          6           0        0.519455   -0.104079    0.030026
      4          8           0        1.251068   -1.017287   -0.285067
      5          8           0        0.901505    1.190784   -0.012622
      6          1           0       -2.753071    0.407951    0.032339
      7          1           0       -2.059143   -0.551169   -1.092361
      8          1           0       -0.993669    0.356041    1.468188
      9          1           0       -0.995325   -1.319899    0.873780
     10          1           0        1.809761    1.188799   -0.368666
 ---------------------------------------------------------------------
                    Distance matrix (angstroms):
                    1          2          3          4          5
     1  N    0.000000
     2  C    1.468442   0.000000
     3  C    2.450429   1.523799   0.000000
     4  O    3.350123   2.429655   1.211813   0.000000
     5  O    2.975627   2.386861   1.350723   2.252110   0.000000
     6  H    1.016079   2.050596   3.312342   4.262064   3.737751
     7  H    1.017033   2.052933   2.847597   3.438966   3.600789
     8  H    2.090614   1.094592   2.137654   3.162085   2.545836
     9  H    2.174192   1.098571   2.117710   2.545739   3.269129
    10  H    3.813961   3.212973   1.869593   2.277266   0.975551
                    6          7          8          9         10
     6  H    0.000000
     7  H    1.632912   0.000000
     8  H    2.271531   2.917993   0.000000
     9  H    2.604451   2.363973   1.778230   0.000000
    10  H    4.646500   4.303445   3.453511   3.963047   0.000000
 Stoichiometry    C2H5NO2
 Framework group  C1[X(C2H5NO2)]
 Deg. of freedom    24
 Full point group                 C1      NOp   1
 RotChk:  IX=3 Diff= 3.37D-02
 Largest Abelian subgroup         C1      NOp   1
 Largest concise Abelian subgroup C1      NOp   1
                         Standard orientation:                         
 ---------------------------------------------------------------------
 Center     Atomic      Atomic             Coordinates (Angstroms)
 Number     Number       Type             X           Y           Z
 ---------------------------------------------------------------------
      1          7           0        1.782765   -0.176820   -0.444786
      2          6           0        0.830680    0.269104    0.580401
      3          6           0       -0.595578    0.119952    0.065131
      4          8           0       -1.329952    1.041090   -0.218928
      5          8           0       -0.984184   -1.172495    0.010166
      6          1           0        2.673909   -0.405302   -0.013422
      7          1           0        1.959499    0.574679   -1.106882
      8          1           0        0.946954   -0.369486    1.461773
      9          1           0        0.942845    1.315825    0.894489
     10          1           0       -1.900078   -1.161074   -0.325553
 ---------------------------------------------------------------------
 Rotational constants (GHZ):           8.9718681           3.9142513           3.1270428
 Leave Link  202 at Fri Mar 14 15:41:27 2025, MaxMem=  8589934592 cpu:               0.1 elap:               0.1
 (Enter /home/enzo/gaussian_versions/gdv.j21/gdv/l301.exe)
 Standard basis: 6-31G(d) (6D, 7F)
 Ernie: Thresh=  0.10000D-02 Tol=  0.10000D-05 Strict=F.
 There are    85 symmetry adapted cartesian basis functions of A   symmetry.
 There are    85 symmetry adapted basis functions of A   symmetry.
    85 basis functions,   160 primitive gaussians,    85 cartesian basis functions
    20 alpha electrons       20 beta electrons
       nuclear repulsion energy       178.4542791787 Hartrees.
 IExCor=      4002 DFT=T Ex+Corr=B3LYP ScaHFX=  0.200000
 ScaDFX=  0.800000  0.720000  1.000000  0.810000  1.000000  0.000000
 ScaDFX=  0.000000  0.000000  0.000000  0.000000  0.000000  0.000000
 IRadAn=      5 IRanWt=     -1 IRanGd=            0 ICorTp=0 IEmpDi=  4
 NAtoms=   10 NActive=   10 NUniq=   10 SFac= 1.00D+00 NAtFMM=   60 NAOKFM=F Big=F
 Integral buffers will be    131072 words long.
 Raffenetti 2 integral format.
 Two-electron integral symmetry is turned on.
 Leave Link  301 at Fri Mar 14 15:41:28 2025, MaxMem=  8589934592 cpu:               0.4 elap:               0.1
 (Enter /home/enzo/gaussian_versions/gdv.j21/gdv/l302.exe)
 NPDir=0 NMtPBC=     1 NCelOv=     1 NCel=       1 NClECP=     1 NCelD=      1
         NCelK=      1 NCelE2=     1 NClLst=     1 CellRange=     0.0.
 One-electron integrals computed using PRISM.
 One-electron integral symmetry used in STVInt
 NBasis=    85 RedAO= T EigKep=  4.19D-03  NBF=    85
 NBsUse=    85 1.00D-06 EigRej= -1.00D+00 NBFU=    85
 Precomputing XC quadrature grid using
 IXCGrd= 4 IRadAn=           5 IRanWt=          -1 IRanGd=           0 AccXCQ= 0.00D+00.
 Generated NRdTot=       0 NPtTot=      219737 NUsed=           0 NTot=          64
 NSgBfM=    85    85    85    85    85 MxSgAt=    10 MxSgA2=    10 SizInc=   0.000
 NMBTot=     1976 MaxBatPerAtom=       83 MaxMicBPerAtom=      208 NBfPt=            15991857.
 Leave Link  302 at Fri Mar 14 15:41:28 2025, MaxMem=  8589934592 cpu:               1.1 elap:               0.2
 (Enter /home/enzo/gaussian_versions/gdv.j21/gdv/l303.exe)
 DipDrv:  MaxL=1.
 Leave Link  303 at Fri Mar 14 15:41:28 2025, MaxMem=  8589934592 cpu:               0.3 elap:               0.1
 (Enter /home/enzo/gaussian_versions/gdv.j21/gdv/l401.exe)
 Initial guess from the checkpoint file:  "/local/home/enzo/scratch/Gau-2409754.chk"
 B after Tr=    -0.000000   -0.000000   -0.000000
         Rot=    0.999955   -0.009220    0.000918    0.002203 Ang=  -1.09 deg.
 AO Guess basis will be translated and rotated to current coordinates.
 JPrj=2 DoOrth=T DoCkMO=T.
 Generating alternative initial guess.
 ExpMin= 1.61D-01 ExpMax= 5.48D+03 ExpMxC= 8.25D+02 IAcc=3 IRadAn=         5 AccDes= 0.00D+00
 Harris functional with IExCor= 4002 and IRadAn=       5 diagonalized for initial guess.
 HarFok:  IExCor=    4002 AccDes= 0.00D+00 IRadAn=         5 IDoV= 1 UseB2=F ITyADJ=14 ICtDFT=  3500011
 FoFCou: FMM=F IPFlag=           0 FMFlag=      100000 FMFlg1=           0
         NFxFlg=           0 DoJE=T BraDBF=F KetDBF=T FulRan=T
         wScrn=  0.000000 ICntrl=       500 IOpCl=  0 I1Cent=   200000004 NGrid=           0
         NMat0=    1 NMatS0=      1 NMatT0=    0 NMatD0=    1 NMtDS0=    0 NMtDT0=    0
 Petite list used in FoFCou.
 Harris En= -284.438048656886    
 Leave Link  401 at Fri Mar 14 15:41:29 2025, MaxMem=  8589934592 cpu:               4.6 elap:               0.7
 (Enter /home/enzo/gaussian_versions/gdv.j21/gdv/l502.exe)
 Keep R1 ints in memory in canonical form, NReq=17617987.
 FoFCou: FMM=F IPFlag=           0 FMFlag=           0 FMFlg1=           0
         NFxFlg=           0 DoJE=F BraDBF=F KetDBF=F FulRan=T
         wScrn=  0.000000 ICntrl=       600 IOpCl=  0 I1Cent=           0 NGrid=           0
         NMat0=    1 NMatS0=   3655 NMatT0=    0 NMatD0=    1 NMtDS0=    0 NMtDT0=    0
 Symmetry not used in FoFCou.
 Two-electron integral symmetry not used.
 Closed shell SCF:
 Using DIIS extrapolation, IDIIS=  1040.
 NGot=  8589934592 LenX=  8583230350 LenY=  8583222684
 Requested convergence on RMS density matrix=1.00D-08 within 128 cycles.
 Requested convergence on MAX density matrix=1.00D-06.
 Requested convergence on             energy=1.00D-06.
 No special actions if energy rises.
 Integral accuracy reduced to 1.0D-05 until final iterations.

 Cycle   1  Pass 0  IDiag  1:
 E= -284.413915298310    
 DIIS: error= 1.31D-03 at cycle   1 NSaved=   1.
 NSaved= 1 IEnMin= 1 EnMin= -284.413915298310     IErMin= 1 ErrMin= 1.31D-03
 ErrMax= 1.31D-03  0.00D+00 EMaxC= 1.00D-01 BMatC= 6.30D-04 BMatP= 6.30D-04
 IDIUse=3 WtCom= 9.87D-01 WtEn= 1.31D-02
 Coeff-Com:  0.100D+01
 Coeff-En:   0.100D+01
 Coeff:      0.100D+01
 Gap=     1.602 Goal=   None    Shift=    0.000
 GapD=    1.602 DampG=2.000 DampE=1.000 DampFc=2.0000 IDamp=-1.
 RMSDP=5.69D-04 MaxDP=6.74D-03              OVMax= 9.89D-03

 Cycle   2  Pass 0  IDiag  1:
 E= -284.415114021631     Delta-E=       -0.001198723321 Rises=F Damp=F
 DIIS: error= 3.22D-04 at cycle   2 NSaved=   2.
 NSaved= 2 IEnMin= 2 EnMin= -284.415114021631     IErMin= 2 ErrMin= 3.22D-04
 ErrMax= 3.22D-04  0.00D+00 EMaxC= 1.00D-01 BMatC= 1.53D-05 BMatP= 6.30D-04
 IDIUse=3 WtCom= 9.97D-01 WtEn= 3.22D-03
 Coeff-Com: -0.435D-01 0.104D+01
 Coeff-En:   0.000D+00 0.100D+01
 Coeff:     -0.434D-01 0.104D+01
 Gap=     0.248 Goal=   None    Shift=    0.000
 RMSDP=9.53D-05 MaxDP=1.71D-03 DE=-1.20D-03 OVMax= 2.85D-03

 Cycle   3  Pass 0  IDiag  1:
 E= -284.415114685431     Delta-E=       -0.000000663801 Rises=F Damp=F
 DIIS: error= 4.69D-04 at cycle   3 NSaved=   3.
 NSaved= 3 IEnMin= 3 EnMin= -284.415114685431     IErMin= 2 ErrMin= 3.22D-04
 ErrMax= 4.69D-04  0.00D+00 EMaxC= 1.00D-01 BMatC= 2.84D-05 BMatP= 1.53D-05
 IDIUse=3 WtCom= 3.16D-01 WtEn= 6.84D-01
 Coeff-Com: -0.463D-01 0.634D+00 0.412D+00
 Coeff-En:   0.000D+00 0.489D+00 0.511D+00
 Coeff:     -0.146D-01 0.535D+00 0.480D+00
 Gap=     0.248 Goal=   None    Shift=    0.000
 RMSDP=6.66D-05 MaxDP=1.40D-03 DE=-6.64D-07 OVMax= 2.79D-03

 Cycle   4  Pass 0  IDiag  1:
 E= -284.415130171046     Delta-E=       -0.000015485614 Rises=F Damp=F
 DIIS: error= 2.86D-04 at cycle   4 NSaved=   4.
 NSaved= 4 IEnMin= 4 EnMin= -284.415130171046     IErMin= 4 ErrMin= 2.86D-04
 ErrMax= 2.86D-04  0.00D+00 EMaxC= 1.00D-01 BMatC= 7.63D-06 BMatP= 1.53D-05
 IDIUse=3 WtCom= 9.97D-01 WtEn= 2.86D-03
 Coeff-Com: -0.207D-01 0.212D+00 0.344D+00 0.465D+00
 Coeff-En:   0.000D+00 0.000D+00 0.257D+00 0.743D+00
 Coeff:     -0.207D-01 0.211D+00 0.344D+00 0.466D+00
 Gap=     0.248 Goal=   None    Shift=    0.000
 RMSDP=2.62D-05 MaxDP=6.34D-04 DE=-1.55D-05 OVMax= 1.08D-03

 Cycle   5  Pass 0  IDiag  1:
 E= -284.415135868026     Delta-E=       -0.000005696981 Rises=F Damp=F
 DIIS: error= 3.50D-05 at cycle   5 NSaved=   5.
 NSaved= 5 IEnMin= 5 EnMin= -284.415135868026     IErMin= 5 ErrMin= 3.50D-05
 ErrMax= 3.50D-05  0.00D+00 EMaxC= 1.00D-01 BMatC= 1.88D-07 BMatP= 7.63D-06
 IDIUse=1 WtCom= 1.00D+00 WtEn= 0.00D+00
 Coeff-Com: -0.716D-02 0.585D-01 0.154D+00 0.255D+00 0.540D+00
 Coeff:     -0.716D-02 0.585D-01 0.154D+00 0.255D+00 0.540D+00
 Gap=     0.248 Goal=   None    Shift=    0.000
 RMSDP=4.35D-06 MaxDP=8.64D-05 DE=-5.70D-06 OVMax= 1.14D-04

 Initial convergence to 1.0D-05 achieved.  Increase integral accuracy.
 Cycle   6  Pass 1  IDiag  1:
 E= -284.415135862648     Delta-E=        0.000000005378 Rises=F Damp=F
 DIIS: error= 9.81D-06 at cycle   1 NSaved=   1.
 NSaved= 1 IEnMin= 1 EnMin= -284.415135862648     IErMin= 1 ErrMin= 9.81D-06
 ErrMax= 9.81D-06  0.00D+00 EMaxC= 1.00D-01 BMatC= 1.59D-08 BMatP= 1.59D-08
 IDIUse=1 WtCom= 1.00D+00 WtEn= 0.00D+00
 Coeff-Com:  0.100D+01
 Coeff:      0.100D+01
 Gap=     0.248 Goal=   None    Shift=    0.000
 RMSDP=4.35D-06 MaxDP=8.64D-05 DE= 5.38D-09 OVMax= 6.58D-05

 Cycle   7  Pass 1  IDiag  1:
 E= -284.415135847144     Delta-E=        0.000000015504 Rises=F Damp=F
 DIIS: error= 1.53D-05 at cycle   2 NSaved=   2.
 NSaved= 2 IEnMin= 1 EnMin= -284.415135862648     IErMin= 1 ErrMin= 9.81D-06
 ErrMax= 1.53D-05  0.00D+00 EMaxC= 1.00D-01 BMatC= 4.10D-08 BMatP= 1.59D-08
 IDIUse=1 WtCom= 1.00D+00 WtEn= 0.00D+00
 Coeff-Com:  0.620D+00 0.380D+00
 Coeff:      0.620D+00 0.380D+00
 Gap=     0.248 Goal=   None    Shift=    0.000
 RMSDP=1.64D-06 MaxDP=3.49D-05 DE= 1.55D-08 OVMax= 4.58D-05

 Cycle   8  Pass 1  IDiag  1:
 E= -284.415135877177     Delta-E=       -0.000000030033 Rises=F Damp=F
 DIIS: error= 2.73D-06 at cycle   3 NSaved=   3.
 NSaved= 3 IEnMin= 3 EnMin= -284.415135877177     IErMin= 3 ErrMin= 2.73D-06
 ErrMax= 2.73D-06  0.00D+00 EMaxC= 1.00D-01 BMatC= 6.77D-10 BMatP= 1.59D-08
 IDIUse=1 WtCom= 1.00D+00 WtEn= 0.00D+00
 Coeff-Com:  0.275D+00 0.190D+00 0.534D+00
 Coeff:      0.275D+00 0.190D+00 0.534D+00
 Gap=     0.248 Goal=   None    Shift=    0.000
 RMSDP=3.70D-07 MaxDP=8.88D-06 DE=-3.00D-08 OVMax= 1.42D-05

 Cycle   9  Pass 1  IDiag  1:
 E= -284.415135877568     Delta-E=       -0.000000000391 Rises=F Damp=F
 DIIS: error= 1.30D-06 at cycle   4 NSaved=   4.
 NSaved= 4 IEnMin= 4 EnMin= -284.415135877568     IErMin= 4 ErrMin= 1.30D-06
 ErrMax= 1.30D-06  0.00D+00 EMaxC= 1.00D-01 BMatC= 2.30D-10 BMatP= 6.77D-10
 IDIUse=1 WtCom= 1.00D+00 WtEn= 0.00D+00
 Coeff-Com:  0.495D-01 0.444D-01 0.367D+00 0.540D+00
 Coeff:      0.495D-01 0.444D-01 0.367D+00 0.540D+00
 Gap=     0.248 Goal=   None    Shift=    0.000
 RMSDP=1.67D-07 MaxDP=3.09D-06 DE=-3.91D-10 OVMax= 6.16D-06

 Cycle  10  Pass 1  IDiag  1:
 E= -284.415135877754     Delta-E=       -0.000000000186 Rises=F Damp=F
 DIIS: error= 2.84D-07 at cycle   5 NSaved=   5.
 NSaved= 5 IEnMin= 5 EnMin= -284.415135877754     IErMin= 5 ErrMin= 2.84D-07
 ErrMax= 2.84D-07  0.00D+00 EMaxC= 1.00D-01 BMatC= 1.05D-11 BMatP= 2.30D-10
 IDIUse=1 WtCom= 1.00D+00 WtEn= 0.00D+00
 Coeff-Com: -0.340D-01-0.198D-01 0.345D-01 0.209D+00 0.810D+00
 Coeff:     -0.340D-01-0.198D-01 0.345D-01 0.209D+00 0.810D+00
 Gap=     0.248 Goal=   None    Shift=    0.000
 RMSDP=6.04D-08 MaxDP=6.86D-07 DE=-1.86D-10 OVMax= 2.37D-06

 Cycle  11  Pass 1  IDiag  1:
 E= -284.415135877764     Delta-E=       -0.000000000010 Rises=F Damp=F
 DIIS: error= 3.98D-08 at cycle   6 NSaved=   6.
 NSaved= 6 IEnMin= 6 EnMin= -284.415135877764     IErMin= 6 ErrMin= 3.98D-08
 ErrMax= 3.98D-08  0.00D+00 EMaxC= 1.00D-01 BMatC= 4.74D-13 BMatP= 1.05D-11
 IDIUse=1 WtCom= 1.00D+00 WtEn= 0.00D+00
 Coeff-Com: -0.149D-01-0.939D-02 0.245D-03 0.645D-01 0.323D+00 0.637D+00
 Coeff:     -0.149D-01-0.939D-02 0.245D-03 0.645D-01 0.323D+00 0.637D+00
 Gap=     0.248 Goal=   None    Shift=    0.000
 RMSDP=1.05D-08 MaxDP=9.62D-08 DE=-1.02D-11 OVMax= 2.52D-07

 Cycle  12  Pass 1  IDiag  1:
 E= -284.415135877766     Delta-E=       -0.000000000002 Rises=F Damp=F
 DIIS: error= 1.06D-08 at cycle   7 NSaved=   7.
 NSaved= 7 IEnMin= 7 EnMin= -284.415135877766     IErMin= 7 ErrMin= 1.06D-08
 ErrMax= 1.06D-08  0.00D+00 EMaxC= 1.00D-01 BMatC= 2.40D-14 BMatP= 4.74D-13
 IDIUse=1 WtCom= 1.00D+00 WtEn= 0.00D+00
 Coeff-Com: -0.923D-03-0.733D-03-0.384D-02-0.188D-02 0.147D-01 0.176D+00
 Coeff-Com:  0.817D+00
 Coeff:     -0.923D-03-0.733D-03-0.384D-02-0.188D-02 0.147D-01 0.176D+00
 Coeff:      0.817D+00
 Gap=     0.248 Goal=   None    Shift=    0.000
 RMSDP=2.71D-09 MaxDP=4.68D-08 DE=-2.16D-12 OVMax= 9.94D-08

 SCF Done:  E(RB3LYP) =  -284.415135878     A.U. after   12 cycles
            NFock= 12  Conv=0.27D-08     -V/T= 2.0089
 KE= 2.819192916331D+02 PE=-1.023292464541D+03 EE= 2.785037578510D+02
 Leave Link  502 at Fri Mar 14 15:41:31 2025, MaxMem=  8589934592 cpu:              20.6 elap:               2.7
 (Enter /home/enzo/gaussian_versions/gdv.j21/gdv/l701.exe)
 ... and contract with generalized density number  0.
 Compute integral first derivatives.
 Leave Link  701 at Fri Mar 14 15:41:31 2025, MaxMem=  8589934592 cpu:               0.8 elap:               0.2
 (Enter /home/enzo/gaussian_versions/gdv.j21/gdv/l702.exe)
 L702 exits ... SP integral derivatives will be done elsewhere.
 Leave Link  702 at Fri Mar 14 15:41:32 2025, MaxMem=  8589934592 cpu:               0.2 elap:               0.1
 (Enter /home/enzo/gaussian_versions/gdv.j21/gdv/l703.exe)
 Integral derivatives from FoFJK, PRISM(SPDF).
 Compute integral first derivatives, UseDBF=F ICtDFT=           0.
 Calling FoFJK, ICntrl=      2127 FMM=F ISym2X=0 I1Cent= 0 IOpClX= 0 NMat=1 NMatS=1 NMatT=0.
 FoFJK:  IHMeth= 1 ICntrl=    2127 DoSepK=F KAlg= 0 I1Cent=           0 FoldK=F
 IRaf=         0 NMat=       1 IRICut=       1 DoRegI=T DoRafI=F ISym2E= 0 IDoP0=0 IntGTp=1.
 FoFCou: FMM=F IPFlag=           0 FMFlag=      100000 FMFlg1=         800
         NFxFlg=           0 DoJE=F BraDBF=F KetDBF=F FulRan=T
         wScrn=  0.000000 ICntrl=      2127 IOpCl=  0 I1Cent=           0 NGrid=           0
         NMat0=    1 NMatS0=      1 NMatT0=    0 NMatD0=    1 NMtDS0=    0 NMtDT0=    0
 Symmetry not used in FoFCou.
 Leave Link  703 at Fri Mar 14 15:41:32 2025, MaxMem=  8589934592 cpu:               4.0 elap:               0.5
 (Enter /home/enzo/gaussian_versions/gdv.j21/gdv/l716.exe)
 Dipole        = 6.22680329D-01-1.10909164D-01 3.02183948D-01
 ***** Axes restored to original set *****
 -------------------------------------------------------------------
 Center     Atomic                   Forces (Hartrees/Bohr)
 Number     Number              X              Y              Z
 -------------------------------------------------------------------
      1        7           0.000218706    0.000729814    0.001202759
      2        6          -0.001275250   -0.000195601   -0.003315043
      3        6           0.001403489   -0.001506027    0.007403274
      4        8          -0.000701708    0.000200603   -0.002656457
      5        8          -0.000128957    0.000782429   -0.001760518
      6        1          -0.000520813   -0.000550276    0.000053520
      7        1           0.000354053   -0.000142893   -0.000414401
      8        1           0.000625506    0.000578796   -0.000432166
      9        1          -0.000174710   -0.000241015    0.000332664
     10        1           0.000199685    0.000344171   -0.000413631
 -------------------------------------------------------------------
 Cartesian Forces:  Max     0.007403274 RMS     0.001706666
 Leave Link  716 at Fri Mar 14 15:41:32 2025, MaxMem=  8589934592 cpu:               0.1 elap:               0.1
 (Enter /home/enzo/gaussian_versions/gdv.j21/gdv/l103.exe)

 GradGradGradGradGradGradGradGradGradGradGradGradGradGradGradGradGradGrad
 Berny optimization.
 Using GEDIIS/GDIIS optimizer.
 FormGI is forming the generalized inverse of G from B-inverse, IUseBI=4.
 Internal  Forces:  Max     0.001617103 RMS     0.000744561
 Search for a local minimum.
 Step number   4 out of a maximum of   46
 All quantities printed in internal units (Hartrees-Bohrs-Radians)
 RMS Force = .74456D-03 SwitMx=.10000D-02 MixMth= 2
 Mixed Optimization -- En-DIIS/RFO-DIIS
 Update second derivatives using D2CorX and points    2    3    4
 DE= -2.75D-05 DEPred=-1.75D-04 R= 1.57D-01
 Trust test= 1.57D-01 RLast= 1.61D-01 DXMaxT set to 8.49D-01
 ITU=  0  1  1  0
 Use linear search instead of GDIIS.
     Eigenvalues ---    0.00424   0.00840   0.01868   0.04251   0.04692
     Eigenvalues ---    0.05327   0.06529   0.09613   0.13276   0.15953
     Eigenvalues ---    0.16023   0.16590   0.21908   0.23377   0.25711
     Eigenvalues ---    0.31898   0.32638   0.32759   0.37488   0.40550
     Eigenvalues ---    0.40949   0.46289   0.49552   0.80355
 RFO step:  Lambda=-3.43839813D-04 EMin= 4.24118754D-03
 Quartic linear search produced a step of -0.45669.
 Iteration  1 RMS(Cart)=  0.02597879 RMS(Int)=  0.00064588
 Iteration  2 RMS(Cart)=  0.00068469 RMS(Int)=  0.00009544
 Iteration  3 RMS(Cart)=  0.00000022 RMS(Int)=  0.00009544
 Variable       Old X    -DE/DX   Delta X   Delta X   Delta X     New X
                                 (Linear)    (Quad)   (Total)
    R1        2.77495  -0.00059   0.00059  -0.00312  -0.00253   2.77242
    R2        1.92011   0.00036  -0.00115   0.00277   0.00162   1.92173
    R3        1.92191   0.00031  -0.00092   0.00214   0.00121   1.92313
    R4        2.87956  -0.00022  -0.00257   0.01095   0.00838   2.88794
    R5        2.06848  -0.00008   0.00014  -0.00149  -0.00135   2.06713
    R6        2.07600   0.00034  -0.00041   0.00175   0.00134   2.07734
    R7        2.28999   0.00012  -0.00123   0.00117  -0.00006   2.28993
    R8        2.55250   0.00117  -0.00331   0.01077   0.00747   2.55996
    R9        1.84352   0.00034  -0.00223   0.00652   0.00429   1.84781
    A1        1.91829   0.00003  -0.00085   0.00195   0.00110   1.91939
    A2        1.92067  -0.00022  -0.00171   0.00492   0.00321   1.92388
    A3        1.86516  -0.00001  -0.00039   0.00033  -0.00007   1.86509
    A4        1.91884   0.00095  -0.00020   0.00227   0.00207   1.92091
    A5        1.89243  -0.00018  -0.00064  -0.00011  -0.00076   1.89167
    A6        2.00727  -0.00017  -0.00250   0.00969   0.00719   2.01446
    A7        1.89083  -0.00070   0.00370  -0.01642  -0.01274   1.87809
    A8        1.86033  -0.00024   0.00179  -0.00457  -0.00279   1.85754
    A9        1.89105   0.00029  -0.00178   0.00747   0.00567   1.89673
   A10        2.17984   0.00019  -0.00221   0.01100   0.00851   2.18835
   A11        1.95703   0.00037   0.00254  -0.00924  -0.00697   1.95006
   A12        2.14533  -0.00045  -0.00002  -0.00042  -0.00071   2.14463
   A13        1.84721   0.00059   0.00202  -0.01057  -0.00855   1.83867
    D1       -2.77873  -0.00017   0.01782  -0.07347  -0.05565  -2.83438
    D2       -0.71451  -0.00058   0.02179  -0.09208  -0.07029  -0.78480
    D3        1.40499  -0.00045   0.01736  -0.07594  -0.05859   1.34640
    D4        1.45496  -0.00005   0.01982  -0.07798  -0.05816   1.39680
    D5       -2.76401  -0.00045   0.02379  -0.09659  -0.07280  -2.83681
    D6       -0.64451  -0.00033   0.01936  -0.08045  -0.06109  -0.70560
    D7       -1.92163   0.00128   0.00834   0.04248   0.05089  -1.87074
    D8        1.26648  -0.00139  -0.02446   0.01073  -0.01379   1.25269
    D9        2.29635   0.00137   0.00703   0.05101   0.05810   2.35446
   D10       -0.79872  -0.00130  -0.02577   0.01926  -0.00657  -0.80530
   D11        0.26462   0.00150   0.00631   0.05284   0.05920   0.32382
   D12       -2.83046  -0.00117  -0.02649   0.02109  -0.00547  -2.83593
   D13        3.13911   0.00162   0.02704  -0.03356  -0.00671   3.13240
   D14        0.04297  -0.00102  -0.00504  -0.06494  -0.06979  -0.02682
         Item               Value     Threshold  Converged?
 Maximum Force            0.001617     0.000450     NO 
 RMS     Force            0.000745     0.000300     NO 
 Maximum Displacement     0.073379     0.001800     NO 
 RMS     Displacement     0.025937     0.001200     NO 
 Predicted change in Energy=-2.475773D-04
 Lowest energy point so far.  Saving SCF results.
 GradGradGradGradGradGradGradGradGradGradGradGradGradGradGradGradGradGrad

 Leave Link  103 at Fri Mar 14 15:41:32 2025, MaxMem=  8589934592 cpu:               0.1 elap:               0.1
 (Enter /home/enzo/gaussian_versions/gdv.j21/gdv/l202.exe)
                          Input orientation:                          
 ---------------------------------------------------------------------
 Center     Atomic      Atomic             Coordinates (Angstroms)
 Number     Number       Type             X           Y           Z
 ---------------------------------------------------------------------
      1          7           0       -1.871611    0.194913   -0.413348
      2          6           0       -0.899198   -0.263546    0.584958
      3          6           0        0.521162   -0.110075    0.042264
      4          8           0        1.237371   -1.019406   -0.316309
      5          8           0        0.897418    1.189915   -0.017730
      6          1           0       -2.769634    0.369121    0.030913
      7          1           0       -2.023988   -0.527442   -1.113810
      8          1           0       -0.986142    0.374110    1.469492
      9          1           0       -1.001452   -1.312903    0.896101
     10          1           0        1.811452    1.179036   -0.364939
 ---------------------------------------------------------------------
                    Distance matrix (angstroms):
                    1          2          3          4          5
     1  N    0.000000
     2  C    1.467102   0.000000
     3  C    2.454783   1.528231   0.000000
     4  O    3.339126   2.438962   1.211781   0.000000
     5  O    2.968849   2.388223   1.354674   2.255175   0.000000
     6  H    1.016937   2.050796   3.325522   4.254957   3.758103
     7  H    1.017675   2.054411   2.826391   3.393302   3.561645
     8  H    2.088362   1.093876   2.131521   3.174112   2.534791
     9  H    2.178381   1.099280   2.119950   2.562891   3.271833
    10  H    3.812584   3.214183   1.868815   2.272681   0.977820
                    6          7          8          9         10
     6  H    0.000000
     7  H    1.634075   0.000000
     8  H    2.291371   2.926324   0.000000
     9  H    2.589252   2.387943   1.781860   0.000000
    10  H    4.668941   4.264209   3.440869   3.963889   0.000000
 Stoichiometry    C2H5NO2
 Framework group  C1[X(C2H5NO2)]
 Deg. of freedom    24
 Full point group                 C1      NOp   1
 RotChk:  IX=3 Diff= 2.16D-02
 Largest Abelian subgroup         C1      NOp   1
 Largest concise Abelian subgroup C1      NOp   1
                         Standard orientation:                         
 ---------------------------------------------------------------------
 Center     Atomic      Atomic             Coordinates (Angstroms)
 Number     Number       Type             X           Y           Z
 ---------------------------------------------------------------------
      1          7           0        1.776717   -0.173469   -0.450904
      2          6           0        0.836718    0.258260    0.589481
      3          6           0       -0.600038    0.123773    0.086354
      4          8           0       -1.323966    1.044712   -0.223829
      5          8           0       -0.982092   -1.173076    0.000568
      6          1           0        2.687331   -0.362482   -0.039546
      7          1           0        1.909926    0.568427   -1.134650
      8          1           0        0.948609   -0.404831    1.452242
      9          1           0        0.951772    1.297972    0.927382
     10          1           0       -1.906267   -1.150084   -0.318029
 ---------------------------------------------------------------------
 Rotational constants (GHZ):           8.9165139           3.9184548           3.1372844
 Leave Link  202 at Fri Mar 14 15:41:32 2025, MaxMem=  8589934592 cpu:               0.2 elap:               0.1
 (Enter /home/enzo/gaussian_versions/gdv.j21/gdv/l301.exe)
 Standard basis: 6-31G(d) (6D, 7F)
 Ernie: Thresh=  0.10000D-02 Tol=  0.10000D-05 Strict=F.
 There are    85 symmetry adapted cartesian basis functions of A   symmetry.
 There are    85 symmetry adapted basis functions of A   symmetry.
    85 basis functions,   160 primitive gaussians,    85 cartesian basis functions
    20 alpha electrons       20 beta electrons
       nuclear repulsion energy       178.3522645652 Hartrees.
 IExCor=      4002 DFT=T Ex+Corr=B3LYP ScaHFX=  0.200000
 ScaDFX=  0.800000  0.720000  1.000000  0.810000  1.000000  0.000000
 ScaDFX=  0.000000  0.000000  0.000000  0.000000  0.000000  0.000000
 IRadAn=      5 IRanWt=     -1 IRanGd=            0 ICorTp=0 IEmpDi=  4
 NAtoms=   10 NActive=   10 NUniq=   10 SFac= 1.00D+00 NAtFMM=   60 NAOKFM=F Big=F
 Integral buffers will be    131072 words long.
 Raffenetti 2 integral format.
 Two-electron integral symmetry is turned on.
 Leave Link  301 at Fri Mar 14 15:41:33 2025, MaxMem=  8589934592 cpu:               0.3 elap:               0.1
 (Enter /home/enzo/gaussian_versions/gdv.j21/gdv/l302.exe)
 NPDir=0 NMtPBC=     1 NCelOv=     1 NCel=       1 NClECP=     1 NCelD=      1
         NCelK=      1 NCelE2=     1 NClLst=     1 CellRange=     0.0.
 One-electron integrals computed using PRISM.
 One-electron integral symmetry used in STVInt
 NBasis=    85 RedAO= T EigKep=  4.19D-03  NBF=    85
 NBsUse=    85 1.00D-06 EigRej= -1.00D+00 NBFU=    85
 Precomputing XC quadrature grid using
 IXCGrd= 4 IRadAn=           5 IRanWt=          -1 IRanGd=           0 AccXCQ= 0.00D+00.
 Generated NRdTot=       0 NPtTot=      219850 NUsed=           0 NTot=          64
 NSgBfM=    85    85    85    85    85 MxSgAt=    10 MxSgA2=    10 SizInc=   0.000
 NMBTot=     1975 MaxBatPerAtom=       83 MaxMicBPerAtom=      209 NBfPt=            15995465.
 Leave Link  302 at Fri Mar 14 15:41:33 2025, MaxMem=  8589934592 cpu:               1.0 elap:               0.2
 (Enter /home/enzo/gaussian_versions/gdv.j21/gdv/l303.exe)
 DipDrv:  MaxL=1.
 Leave Link  303 at Fri Mar 14 15:41:33 2025, MaxMem=  8589934592 cpu:               0.2 elap:               0.2
 (Enter /home/enzo/gaussian_versions/gdv.j21/gdv/l401.exe)
 Initial guess from the checkpoint file:  "/local/home/enzo/scratch/Gau-2409754.chk"
 B after Tr=    -0.000000    0.000000    0.000000
         Rot=    0.999992   -0.003676   -0.001274    0.000316 Ang=  -0.45 deg.
 AO Guess basis will be translated and rotated to current coordinates.
 JPrj=2 DoOrth=T DoCkMO=T.
 Generating alternative initial guess.
 ExpMin= 1.61D-01 ExpMax= 5.48D+03 ExpMxC= 8.25D+02 IAcc=3 IRadAn=         5 AccDes= 0.00D+00
 Harris functional with IExCor= 4002 and IRadAn=       5 diagonalized for initial guess.
 HarFok:  IExCor=    4002 AccDes= 0.00D+00 IRadAn=         5 IDoV= 1 UseB2=F ITyADJ=14 ICtDFT=  3500011
 FoFCou: FMM=F IPFlag=           0 FMFlag=      100000 FMFlg1=           0
         NFxFlg=           0 DoJE=T BraDBF=F KetDBF=T FulRan=T
         wScrn=  0.000000 ICntrl=       500 IOpCl=  0 I1Cent=   200000004 NGrid=           0
         NMat0=    1 NMatS0=      1 NMatT0=    0 NMatD0=    1 NMtDS0=    0 NMtDT0=    0
 Petite list used in FoFCou.
 Harris En= -284.437835742736    
 Leave Link  401 at Fri Mar 14 15:41:33 2025, MaxMem=  8589934592 cpu:               2.8 elap:               0.4
 (Enter /home/enzo/gaussian_versions/gdv.j21/gdv/l502.exe)
 Keep R1 ints in memory in canonical form, NReq=17617987.
 FoFCou: FMM=F IPFlag=           0 FMFlag=           0 FMFlg1=           0
         NFxFlg=           0 DoJE=F BraDBF=F KetDBF=F FulRan=T
         wScrn=  0.000000 ICntrl=       600 IOpCl=  0 I1Cent=           0 NGrid=           0
         NMat0=    1 NMatS0=   3655 NMatT0=    0 NMatD0=    1 NMtDS0=    0 NMtDT0=    0
 Symmetry not used in FoFCou.
 Two-electron integral symmetry not used.
 Closed shell SCF:
 Using DIIS extrapolation, IDIIS=  1040.
 NGot=  8589934592 LenX=  8583230350 LenY=  8583222684
 Requested convergence on RMS density matrix=1.00D-08 within 128 cycles.
 Requested convergence on MAX density matrix=1.00D-06.
 Requested convergence on             energy=1.00D-06.
 No special actions if energy rises.
 Integral accuracy reduced to 1.0D-05 until final iterations.

 Cycle   1  Pass 0  IDiag  1:
 E= -284.413936061628    
 DIIS: error= 1.79D-03 at cycle   1 NSaved=   1.
 NSaved= 1 IEnMin= 1 EnMin= -284.413936061628     IErMin= 1 ErrMin= 1.79D-03
 ErrMax= 1.79D-03  0.00D+00 EMaxC= 1.00D-01 BMatC= 7.38D-04 BMatP= 7.38D-04
 IDIUse=3 WtCom= 9.82D-01 WtEn= 1.79D-02
 Coeff-Com:  0.100D+01
 Coeff-En:   0.100D+01
 Coeff:      0.100D+01
 Gap=     1.600 Goal=   None    Shift=    0.000
 GapD=    1.600 DampG=2.000 DampE=1.000 DampFc=2.0000 IDamp=-1.
 RMSDP=6.41D-04 MaxDP=9.08D-03              OVMax= 1.16D-02

 Cycle   2  Pass 0  IDiag  1:
 E= -284.415270122640     Delta-E=       -0.001334061013 Rises=F Damp=F
 DIIS: error= 3.13D-04 at cycle   2 NSaved=   2.
 NSaved= 2 IEnMin= 2 EnMin= -284.415270122640     IErMin= 2 ErrMin= 3.13D-04
 ErrMax= 3.13D-04  0.00D+00 EMaxC= 1.00D-01 BMatC= 2.11D-05 BMatP= 7.38D-04
 IDIUse=3 WtCom= 9.97D-01 WtEn= 3.13D-03
 Coeff-Com: -0.449D-01 0.104D+01
 Coeff-En:   0.000D+00 0.100D+01
 Coeff:     -0.448D-01 0.104D+01
 Gap=     0.249 Goal=   None    Shift=    0.000
 RMSDP=1.19D-04 MaxDP=1.94D-03 DE=-1.33D-03 OVMax= 4.24D-03

 Cycle   3  Pass 0  IDiag  1:
 E= -284.415245171194     Delta-E=        0.000024951447 Rises=F Damp=F
 DIIS: error= 8.41D-04 at cycle   3 NSaved=   3.
 NSaved= 3 IEnMin= 2 EnMin= -284.415270122640     IErMin= 2 ErrMin= 3.13D-04
 ErrMax= 8.41D-04  0.00D+00 EMaxC= 1.00D-01 BMatC= 6.66D-05 BMatP= 2.11D-05
 IDIUse=3 WtCom= 2.56D-01 WtEn= 7.44D-01
 Coeff-Com: -0.538D-01 0.704D+00 0.350D+00
 Coeff-En:   0.000D+00 0.681D+00 0.319D+00
 Coeff:     -0.138D-01 0.687D+00 0.327D+00
 Gap=     0.248 Goal=   None    Shift=    0.000
 RMSDP=7.63D-05 MaxDP=1.67D-03 DE= 2.50D-05 OVMax= 3.19D-03

 Cycle   4  Pass 0  IDiag  1:
 E= -284.415294958790     Delta-E=       -0.000049787596 Rises=F Damp=F
 DIIS: error= 7.08D-05 at cycle   4 NSaved=   4.
 NSaved= 4 IEnMin= 4 EnMin= -284.415294958790     IErMin= 4 ErrMin= 7.08D-05
 ErrMax= 7.08D-05  0.00D+00 EMaxC= 1.00D-01 BMatC= 8.18D-07 BMatP= 2.11D-05
 IDIUse=1 WtCom= 1.00D+00 WtEn= 0.00D+00
 Coeff-Com: -0.172D-01 0.171D+00 0.136D+00 0.710D+00
 Coeff:     -0.172D-01 0.171D+00 0.136D+00 0.710D+00
 Gap=     0.248 Goal=   None    Shift=    0.000
 RMSDP=1.20D-05 MaxDP=2.22D-04 DE=-4.98D-05 OVMax= 3.24D-04

 Cycle   5  Pass 0  IDiag  1:
 E= -284.415295535955     Delta-E=       -0.000000577165 Rises=F Damp=F
 DIIS: error= 3.80D-05 at cycle   5 NSaved=   5.
 NSaved= 5 IEnMin= 5 EnMin= -284.415295535955     IErMin= 5 ErrMin= 3.80D-05
 ErrMax= 3.80D-05  0.00D+00 EMaxC= 1.00D-01 BMatC= 1.98D-07 BMatP= 8.18D-07
 IDIUse=1 WtCom= 1.00D+00 WtEn= 0.00D+00
 Coeff-Com: -0.488D-02 0.328D-01 0.467D-01 0.403D+00 0.522D+00
 Coeff:     -0.488D-02 0.328D-01 0.467D-01 0.403D+00 0.522D+00
 Gap=     0.248 Goal=   None    Shift=    0.000
 RMSDP=3.91D-06 MaxDP=7.41D-05 DE=-5.77D-07 OVMax= 9.17D-05

 Initial convergence to 1.0D-05 achieved.  Increase integral accuracy.
 Cycle   6  Pass 1  IDiag  1:
 E= -284.415297966711     Delta-E=       -0.000002430756 Rises=F Damp=F
 DIIS: error= 6.95D-06 at cycle   1 NSaved=   1.
 NSaved= 1 IEnMin= 1 EnMin= -284.415297966711     IErMin= 1 ErrMin= 6.95D-06
 ErrMax= 6.95D-06  0.00D+00 EMaxC= 1.00D-01 BMatC= 8.26D-09 BMatP= 8.26D-09
 IDIUse=1 WtCom= 1.00D+00 WtEn= 0.00D+00
 Coeff-Com:  0.100D+01
 Coeff:      0.100D+01
 Gap=     0.248 Goal=   None    Shift=    0.000
 RMSDP=3.91D-06 MaxDP=7.41D-05 DE=-2.43D-06 OVMax= 4.47D-05

 Cycle   7  Pass 1  IDiag  1:
 E= -284.415297961305     Delta-E=        0.000000005406 Rises=F Damp=F
 DIIS: error= 1.12D-05 at cycle   2 NSaved=   2.
 NSaved= 2 IEnMin= 1 EnMin= -284.415297966711     IErMin= 1 ErrMin= 6.95D-06
 ErrMax= 1.12D-05  0.00D+00 EMaxC= 1.00D-01 BMatC= 1.70D-08 BMatP= 8.26D-09
 IDIUse=1 WtCom= 1.00D+00 WtEn= 0.00D+00
 Coeff-Com:  0.593D+00 0.407D+00
 Coeff:      0.593D+00 0.407D+00
 Gap=     0.248 Goal=   None    Shift=    0.000
 RMSDP=1.07D-06 MaxDP=2.00D-05 DE= 5.41D-09 OVMax= 2.89D-05

 Cycle   8  Pass 1  IDiag  1:
 E= -284.415297974170     Delta-E=       -0.000000012865 Rises=F Damp=F
 DIIS: error= 1.05D-06 at cycle   3 NSaved=   3.
 NSaved= 3 IEnMin= 3 EnMin= -284.415297974170     IErMin= 3 ErrMin= 1.05D-06
 ErrMax= 1.05D-06  0.00D+00 EMaxC= 1.00D-01 BMatC= 2.14D-10 BMatP= 8.26D-09
 IDIUse=1 WtCom= 1.00D+00 WtEn= 0.00D+00
 Coeff-Com:  0.162D+00 0.153D+00 0.684D+00
 Coeff:      0.162D+00 0.153D+00 0.684D+00
 Gap=     0.248 Goal=   None    Shift=    0.000
 RMSDP=2.03D-07 MaxDP=4.18D-06 DE=-1.29D-08 OVMax= 5.85D-06

 Cycle   9  Pass 1  IDiag  1:
 E= -284.415297974294     Delta-E=       -0.000000000124 Rises=F Damp=F
 DIIS: error= 8.67D-07 at cycle   4 NSaved=   4.
 NSaved= 4 IEnMin= 4 EnMin= -284.415297974294     IErMin= 4 ErrMin= 8.67D-07
 ErrMax= 8.67D-07  0.00D+00 EMaxC= 1.00D-01 BMatC= 7.32D-11 BMatP= 2.14D-10
 IDIUse=1 WtCom= 1.00D+00 WtEn= 0.00D+00
 Coeff-Com:  0.480D-01 0.597D-01 0.416D+00 0.476D+00
 Coeff:      0.480D-01 0.597D-01 0.416D+00 0.476D+00
 Gap=     0.248 Goal=   None    Shift=    0.000
 RMSDP=1.05D-07 MaxDP=2.63D-06 DE=-1.24D-10 OVMax= 4.17D-06

 Cycle  10  Pass 1  IDiag  1:
 E= -284.415297974345     Delta-E=       -0.000000000051 Rises=F Damp=F
 DIIS: error= 3.08D-07 at cycle   5 NSaved=   5.
 NSaved= 5 IEnMin= 5 EnMin= -284.415297974345     IErMin= 5 ErrMin= 3.08D-07
 ErrMax= 3.08D-07  0.00D+00 EMaxC= 1.00D-01 BMatC= 1.22D-11 BMatP= 7.32D-11
 IDIUse=1 WtCom= 1.00D+00 WtEn= 0.00D+00
 Coeff-Com: -0.171D-01-0.493D-02 0.847D-01 0.309D+00 0.628D+00
 Coeff:     -0.171D-01-0.493D-02 0.847D-01 0.309D+00 0.628D+00
 Gap=     0.248 Goal=   None    Shift=    0.000
 RMSDP=3.99D-08 MaxDP=6.63D-07 DE=-5.06D-11 OVMax= 1.30D-06

 Cycle  11  Pass 1  IDiag  1:
 E= -284.415297974355     Delta-E=       -0.000000000010 Rises=F Damp=F
 DIIS: error= 5.83D-08 at cycle   6 NSaved=   6.
 NSaved= 6 IEnMin= 6 EnMin= -284.415297974355     IErMin= 6 ErrMin= 5.83D-08
 ErrMax= 5.83D-08  0.00D+00 EMaxC= 1.00D-01 BMatC= 6.77D-13 BMatP= 1.22D-11
 IDIUse=1 WtCom= 1.00D+00 WtEn= 0.00D+00
 Coeff-Com: -0.127D-01-0.760D-02 0.959D-02 0.115D+00 0.311D+00 0.585D+00
 Coeff:     -0.127D-01-0.760D-02 0.959D-02 0.115D+00 0.311D+00 0.585D+00
 Gap=     0.248 Goal=   None    Shift=    0.000
 RMSDP=1.01D-08 MaxDP=1.50D-07 DE=-1.03D-11 OVMax= 2.64D-07

 Cycle  12  Pass 1  IDiag  1:
 E= -284.415297974353     Delta-E=        0.000000000002 Rises=F Damp=F
 DIIS: error= 1.03D-08 at cycle   7 NSaved=   7.
 NSaved= 7 IEnMin= 6 EnMin= -284.415297974355     IErMin= 7 ErrMin= 1.03D-08
 ErrMax= 1.03D-08  0.00D+00 EMaxC= 1.00D-01 BMatC= 2.61D-14 BMatP= 6.77D-13
 IDIUse=1 WtCom= 1.00D+00 WtEn= 0.00D+00
 Coeff-Com: -0.350D-02-0.250D-02-0.276D-02 0.202D-01 0.673D-01 0.209D+00
 Coeff-Com:  0.713D+00
 Coeff:     -0.350D-02-0.250D-02-0.276D-02 0.202D-01 0.673D-01 0.209D+00
 Coeff:      0.713D+00
 Gap=     0.248 Goal=   None    Shift=    0.000
 RMSDP=2.38D-09 MaxDP=3.97D-08 DE= 1.71D-12 OVMax= 8.53D-08

 SCF Done:  E(RB3LYP) =  -284.415297974     A.U. after   12 cycles
            NFock= 12  Conv=0.24D-08     -V/T= 2.0089
 KE= 2.818984611905D+02 PE=-1.023064800145D+03 EE= 2.783987764146D+02
 Leave Link  502 at Fri Mar 14 15:41:35 2025, MaxMem=  8589934592 cpu:              17.1 elap:               2.0
 (Enter /home/enzo/gaussian_versions/gdv.j21/gdv/l701.exe)
 ... and contract with generalized density number  0.
 Compute integral first derivatives.
 Leave Link  701 at Fri Mar 14 15:41:36 2025, MaxMem=  8589934592 cpu:               1.3 elap:               0.3
 (Enter /home/enzo/gaussian_versions/gdv.j21/gdv/l702.exe)
 L702 exits ... SP integral derivatives will be done elsewhere.
 Leave Link  702 at Fri Mar 14 15:41:36 2025, MaxMem=  8589934592 cpu:               0.1 elap:               0.1
 (Enter /home/enzo/gaussian_versions/gdv.j21/gdv/l703.exe)
 Integral derivatives from FoFJK, PRISM(SPDF).
 Compute integral first derivatives, UseDBF=F ICtDFT=           0.
 Calling FoFJK, ICntrl=      2127 FMM=F ISym2X=0 I1Cent= 0 IOpClX= 0 NMat=1 NMatS=1 NMatT=0.
 FoFJK:  IHMeth= 1 ICntrl=    2127 DoSepK=F KAlg= 0 I1Cent=           0 FoldK=F
 IRaf=         0 NMat=       1 IRICut=       1 DoRegI=T DoRafI=F ISym2E= 0 IDoP0=0 IntGTp=1.
 FoFCou: FMM=F IPFlag=           0 FMFlag=      100000 FMFlg1=         800
         NFxFlg=           0 DoJE=F BraDBF=F KetDBF=F FulRan=T
         wScrn=  0.000000 ICntrl=      2127 IOpCl=  0 I1Cent=           0 NGrid=           0
         NMat0=    1 NMatS0=      1 NMatT0=    0 NMatD0=    1 NMtDS0=    0 NMtDT0=    0
 Symmetry not used in FoFCou.
 Leave Link  703 at Fri Mar 14 15:41:36 2025, MaxMem=  8589934592 cpu:               3.4 elap:               0.4
 (Enter /home/enzo/gaussian_versions/gdv.j21/gdv/l716.exe)
 Dipole        = 6.01295542D-01-9.05527924D-02 3.07385415D-01
 ***** Axes restored to original set *****
 -------------------------------------------------------------------
 Center     Atomic                   Forces (Hartrees/Bohr)
 Number     Number              X              Y              Z
 -------------------------------------------------------------------
      1        7           0.000438040    0.000550789    0.000638013
      2        6           0.002569537   -0.000611524   -0.001794907
      3        6          -0.003112992    0.002034652   -0.001376050
      4        8          -0.000553940    0.000397244    0.001281908
      5        8           0.003207775   -0.002815926    0.000877237
      6        1           0.000252194   -0.000645048    0.000131464
      7        1           0.000538414   -0.000148548    0.000161807
      8        1          -0.000739699    0.000183107    0.000325728
      9        1          -0.000743738   -0.000032313    0.000348634
     10        1          -0.001855591    0.001087567   -0.000593834
 -------------------------------------------------------------------
 Cartesian Forces:  Max     0.003207775 RMS     0.001355207
 Leave Link  716 at Fri Mar 14 15:41:37 2025, MaxMem=  8589934592 cpu:               0.1 elap:               0.2
 (Enter /home/enzo/gaussian_versions/gdv.j21/gdv/l103.exe)

 GradGradGradGradGradGradGradGradGradGradGradGradGradGradGradGradGradGrad
 Berny optimization.
 Using GEDIIS/GDIIS optimizer.
 FormGI is forming the generalized inverse of G from B-inverse, IUseBI=4.
 Internal  Forces:  Max     0.002148043 RMS     0.000892869
 Search for a local minimum.
 Step number   5 out of a maximum of   46
 All quantities printed in internal units (Hartrees-Bohrs-Radians)
 RMS Force = .89287D-03 SwitMx=.10000D-02 MixMth= 2
 Mixed Optimization -- En-DIIS/RFO-DIIS
 Swapping is turned off.
 Update second derivatives using D2CorX and points    2    3    4    5
 DE= -1.62D-04 DEPred=-2.48D-04 R= 6.55D-01
 TightC=F SS=  1.41D+00  RLast= 1.98D-01 DXNew= 1.4270D+00 5.9366D-01
 Trust test= 6.55D-01 RLast= 1.98D-01 DXMaxT set to 8.49D-01
 ITU=  1  0  1  1  0
     Eigenvalues ---    0.00331   0.00840   0.02504   0.04366   0.04596
     Eigenvalues ---    0.05499   0.06634   0.10114   0.13338   0.15908
     Eigenvalues ---    0.16077   0.17606   0.22552   0.24515   0.26468
     Eigenvalues ---    0.32160   0.32661   0.32753   0.38313   0.40563
     Eigenvalues ---    0.40814   0.46392   0.51524   0.80280
 En-DIIS/RFO-DIIS/Sim-DIIS IScMMF=       -3 using points:     5    4
 RFO step:  Lambda=-1.74297051D-04.
 NNeg= 0 NGDIIS= 2 SimSw=  2.50D-01 Rises=F DC= -1.62D-04 SmlDif=  1.00D-05
 NRisDI= 0 DoIntr=F SqrtH=F CThrHd= 10.0 CDAdj=  3.0
 RMS Error=  0.1315867486D-01 NUsed= 2 OKEnD=T EnDIS=F
 InvSVX:  RCond= 8.87D-03 Info=           0 Equed=N FErr=  1.49D-15 BErr=  3.73D-17
 DidBck=FF Rises=F RFO-DIIS coefs:    1.16041   -0.16041
 Iteration  1 RMS(Cart)=  0.01225805 RMS(Int)=  0.00020037
 Iteration  2 RMS(Cart)=  0.00018651 RMS(Int)=  0.00003475
 Iteration  3 RMS(Cart)=  0.00000006 RMS(Int)=  0.00003475
 Variable       Old X    -DE/DX   Delta X   Delta X   Delta X     New X
                                 (Linear)    (Quad)   (Total)
    R1        2.77242  -0.00152  -0.00041  -0.00219  -0.00259   2.76983
    R2        1.92173  -0.00028   0.00026  -0.00013   0.00013   1.92186
    R3        1.92313  -0.00009   0.00019   0.00012   0.00032   1.92344
    R4        2.88794  -0.00215   0.00134  -0.00505  -0.00371   2.88423
    R5        2.06713   0.00043  -0.00022   0.00104   0.00082   2.06795
    R6        2.07734   0.00020   0.00021   0.00033   0.00055   2.07788
    R7        2.28993  -0.00100  -0.00001   0.00004   0.00003   2.28996
    R8        2.55996  -0.00130   0.00120  -0.00166  -0.00046   2.55950
    R9        1.84781  -0.00154   0.00069  -0.00193  -0.00124   1.84657
    A1        1.91939  -0.00056   0.00018  -0.00289  -0.00272   1.91667
    A2        1.92388  -0.00081   0.00051  -0.00424  -0.00373   1.92015
    A3        1.86509   0.00038  -0.00001  -0.00067  -0.00070   1.86439
    A4        1.92091  -0.00091   0.00033  -0.00197  -0.00163   1.91928
    A5        1.89167  -0.00015  -0.00012  -0.00105  -0.00117   1.89049
    A6        2.01446  -0.00019   0.00115  -0.00260  -0.00144   2.01301
    A7        1.87809   0.00097  -0.00204   0.00588   0.00384   1.88193
    A8        1.85754   0.00064  -0.00045   0.00205   0.00160   1.85913
    A9        1.89673  -0.00025   0.00091  -0.00163  -0.00073   1.89600
   A10        2.18835  -0.00140   0.00136  -0.00420  -0.00295   2.18540
   A11        1.95006   0.00179  -0.00112   0.00524   0.00401   1.95407
   A12        2.14463  -0.00039  -0.00011  -0.00071  -0.00094   2.14368
   A13        1.83867   0.00184  -0.00137   0.00798   0.00661   1.84528
    D1       -2.83438  -0.00060  -0.00893  -0.01855  -0.02747  -2.86185
    D2       -0.78480  -0.00003  -0.01128  -0.01318  -0.02445  -0.80926
    D3        1.34640  -0.00061  -0.00940  -0.01790  -0.02730   1.31911
    D4        1.39680  -0.00024  -0.00933  -0.01342  -0.02276   1.37404
    D5       -2.83681   0.00033  -0.01168  -0.00806  -0.01974  -2.85655
    D6       -0.70560  -0.00025  -0.00980  -0.01278  -0.02258  -0.72818
    D7       -1.87074  -0.00007   0.00816  -0.00268   0.00549  -1.86525
    D8        1.25269   0.00041  -0.00221   0.01768   0.01546   1.26816
    D9        2.35446   0.00005   0.00932  -0.00376   0.00558   2.36003
   D10       -0.80530   0.00053  -0.00105   0.01661   0.01555  -0.78975
   D11        0.32382  -0.00045   0.00950  -0.00576   0.00374   0.32756
   D12       -2.83593   0.00003  -0.00088   0.01461   0.01371  -2.82222
   D13        3.13240   0.00091  -0.00108   0.02740   0.02629  -3.12450
   D14       -0.02682   0.00136  -0.01120   0.04712   0.03596   0.00914
         Item               Value     Threshold  Converged?
 Maximum Force            0.002148     0.000450     NO 
 RMS     Force            0.000893     0.000300     NO 
 Maximum Displacement     0.037413     0.001800     NO 
 RMS     Displacement     0.012245     0.001200     NO 
 Predicted change in Energy=-8.769860D-05
 Lowest energy point so far.  Saving SCF results.
 GradGradGradGradGradGradGradGradGradGradGradGradGradGradGradGradGradGrad

 Leave Link  103 at Fri Mar 14 15:41:37 2025, MaxMem=  8589934592 cpu:               0.2 elap:               0.1
 (Enter /home/enzo/gaussian_versions/gdv.j21/gdv/l202.exe)
                          Input orientation:                          
 ---------------------------------------------------------------------
 Center     Atomic      Atomic             Coordinates (Angstroms)
 Number     Number       Type             X           Y           Z
 ---------------------------------------------------------------------
      1          7           0       -1.871352    0.198212   -0.410394
      2          6           0       -0.900060   -0.259657    0.587258
      3          6           0        0.517493   -0.109183    0.041917
      4          8           0        1.227242   -1.021990   -0.320697
      5          8           0        0.907070    1.187151   -0.005295
      6          1           0       -2.774627    0.349322    0.031822
      7          1           0       -2.006907   -0.519232   -1.119549
      8          1           0       -0.988352    0.378889    1.471555
      9          1           0       -1.005228   -1.308697    0.899519
     10          1           0        1.810100    1.178906   -0.378542
 ---------------------------------------------------------------------
                    Distance matrix (angstroms):
                    1          2          3          4          5
     1  N    0.000000
     2  C    1.465730   0.000000
     3  C    2.450645   1.526269   0.000000
     4  O    3.331400   2.435354   1.211796   0.000000
     5  O    2.976866   2.389579   1.354429   2.254394   0.000000
     6  H    1.017003   2.047772   3.323911   4.244965   3.776007
     7  H    1.017842   2.050776   2.808868   3.369073   3.555920
     8  H    2.086640   1.094311   2.132990   3.175450   2.535152
     9  H    2.176424   1.099569   2.119668   2.560283   3.271823
    10  H    3.809969   3.216706   1.872642   2.277501   0.977162
                    6          7          8          9         10
     6  H    0.000000
     7  H    1.633840   0.000000
     8  H    2.294447   2.925388   0.000000
     9  H    2.575403   2.388148   1.781981   0.000000
    10  H    4.677214   4.242912   3.448799   3.968334   0.000000
 Stoichiometry    C2H5NO2
 Framework group  C1[X(C2H5NO2)]
 Deg. of freedom    24
 Full point group                 C1      NOp   1
 RotChk:  IX=3 Diff= 1.43D-02
 Largest Abelian subgroup         C1      NOp   1
 Largest concise Abelian subgroup C1      NOp   1
                         Standard orientation:                         
 ---------------------------------------------------------------------
 Center     Atomic      Atomic             Coordinates (Angstroms)
 Number     Number       Type             X           Y           Z
 ---------------------------------------------------------------------
      1          7           0        1.775238   -0.175854   -0.452872
      2          6           0        0.837823    0.246934    0.591574
      3          6           0       -0.596754    0.123504    0.085362
      4          8           0       -1.312587    1.052574   -0.219370
      5          8           0       -0.994452   -1.168424    0.000287
      6          1           0        2.690997   -0.347682   -0.045250
      7          1           0        1.892498    0.567996   -1.137664
      8          1           0        0.950153   -0.425782    1.447348
      9          1           0        0.958176    1.282637    0.940697
     10          1           0       -1.908580   -1.142027   -0.343979
 ---------------------------------------------------------------------
 Rotational constants (GHZ):           8.9107658           3.9231150           3.1417461
 Leave Link  202 at Fri Mar 14 15:41:37 2025, MaxMem=  8589934592 cpu:               0.3 elap:               0.1
 (Enter /home/enzo/gaussian_versions/gdv.j21/gdv/l301.exe)
 Standard basis: 6-31G(d) (6D, 7F)
 Ernie: Thresh=  0.10000D-02 Tol=  0.10000D-05 Strict=F.
 There are    85 symmetry adapted cartesian basis functions of A   symmetry.
 There are    85 symmetry adapted basis functions of A   symmetry.
    85 basis functions,   160 primitive gaussians,    85 cartesian basis functions
    20 alpha electrons       20 beta electrons
       nuclear repulsion energy       178.4260435565 Hartrees.
 IExCor=      4002 DFT=T Ex+Corr=B3LYP ScaHFX=  0.200000
 ScaDFX=  0.800000  0.720000  1.000000  0.810000  1.000000  0.000000
 ScaDFX=  0.000000  0.000000  0.000000  0.000000  0.000000  0.000000
 IRadAn=      5 IRanWt=     -1 IRanGd=            0 ICorTp=0 IEmpDi=  4
 NAtoms=   10 NActive=   10 NUniq=   10 SFac= 1.00D+00 NAtFMM=   60 NAOKFM=F Big=F
 Integral buffers will be    131072 words long.
 Raffenetti 2 integral format.
 Two-electron integral symmetry is turned on.
 Leave Link  301 at Fri Mar 14 15:41:37 2025, MaxMem=  8589934592 cpu:               0.4 elap:               0.2
 (Enter /home/enzo/gaussian_versions/gdv.j21/gdv/l302.exe)
 NPDir=0 NMtPBC=     1 NCelOv=     1 NCel=       1 NClECP=     1 NCelD=      1
         NCelK=      1 NCelE2=     1 NClLst=     1 CellRange=     0.0.
 One-electron integrals computed using PRISM.
 One-electron integral symmetry used in STVInt
 NBasis=    85 RedAO= T EigKep=  4.18D-03  NBF=    85
 NBsUse=    85 1.00D-06 EigRej= -1.00D+00 NBFU=    85
 Precomputing XC quadrature grid using
 IXCGrd= 4 IRadAn=           5 IRanWt=          -1 IRanGd=           0 AccXCQ= 0.00D+00.
 Generated NRdTot=       0 NPtTot=      219788 NUsed=           0 NTot=          64
 NSgBfM=    85    85    85    85    85 MxSgAt=    10 MxSgA2=    10 SizInc=   0.000
 NMBTot=     1973 MaxBatPerAtom=       83 MaxMicBPerAtom=      208 NBfPt=            15997892.
 Leave Link  302 at Fri Mar 14 15:41:37 2025, MaxMem=  8589934592 cpu:               1.0 elap:               0.2
 (Enter /home/enzo/gaussian_versions/gdv.j21/gdv/l303.exe)
 DipDrv:  MaxL=1.
 Leave Link  303 at Fri Mar 14 15:41:37 2025, MaxMem=  8589934592 cpu:               0.2 elap:               0.2
 (Enter /home/enzo/gaussian_versions/gdv.j21/gdv/l401.exe)
 Initial guess from the checkpoint file:  "/local/home/enzo/scratch/Gau-2409754.chk"
 B after Tr=     0.000000   -0.000000    0.000000
         Rot=    0.999993   -0.002907   -0.000250    0.002389 Ang=  -0.43 deg.
 AO Guess basis will be translated and rotated to current coordinates.
 JPrj=2 DoOrth=T DoCkMO=T.
 Generating alternative initial guess.
 ExpMin= 1.61D-01 ExpMax= 5.48D+03 ExpMxC= 8.25D+02 IAcc=3 IRadAn=         5 AccDes= 0.00D+00
 Harris functional with IExCor= 4002 and IRadAn=       5 diagonalized for initial guess.
 HarFok:  IExCor=    4002 AccDes= 0.00D+00 IRadAn=         5 IDoV= 1 UseB2=F ITyADJ=14 ICtDFT=  3500011
 FoFCou: FMM=F IPFlag=           0 FMFlag=      100000 FMFlg1=           0
         NFxFlg=           0 DoJE=T BraDBF=F KetDBF=T FulRan=T
         wScrn=  0.000000 ICntrl=       500 IOpCl=  0 I1Cent=   200000004 NGrid=           0
         NMat0=    1 NMatS0=      1 NMatT0=    0 NMatD0=    1 NMtDS0=    0 NMtDT0=    0
 Petite list used in FoFCou.
 Harris En= -284.438040685070    
 Leave Link  401 at Fri Mar 14 15:41:38 2025, MaxMem=  8589934592 cpu:               2.0 elap:               0.3
 (Enter /home/enzo/gaussian_versions/gdv.j21/gdv/l502.exe)
 Keep R1 ints in memory in canonical form, NReq=17617987.
 FoFCou: FMM=F IPFlag=           0 FMFlag=           0 FMFlg1=           0
         NFxFlg=           0 DoJE=F BraDBF=F KetDBF=F FulRan=T
         wScrn=  0.000000 ICntrl=       600 IOpCl=  0 I1Cent=           0 NGrid=           0
         NMat0=    1 NMatS0=   3655 NMatT0=    0 NMatD0=    1 NMtDS0=    0 NMtDT0=    0
 Symmetry not used in FoFCou.
 Two-electron integral symmetry not used.
 Closed shell SCF:
 Using DIIS extrapolation, IDIIS=  1040.
 NGot=  8589934592 LenX=  8583230350 LenY=  8583222684
 Requested convergence on RMS density matrix=1.00D-08 within 128 cycles.
 Requested convergence on MAX density matrix=1.00D-06.
 Requested convergence on             energy=1.00D-06.
 No special actions if energy rises.
 Integral accuracy reduced to 1.0D-05 until final iterations.

 Cycle   1  Pass 0  IDiag  1:
 E= -284.415180919207    
 DIIS: error= 7.09D-04 at cycle   1 NSaved=   1.
 NSaved= 1 IEnMin= 1 EnMin= -284.415180919207     IErMin= 1 ErrMin= 7.09D-04
 ErrMax= 7.09D-04  0.00D+00 EMaxC= 1.00D-01 BMatC= 1.45D-04 BMatP= 1.45D-04
 IDIUse=3 WtCom= 9.93D-01 WtEn= 7.09D-03
 Coeff-Com:  0.100D+01
 Coeff-En:   0.100D+01
 Coeff:      0.100D+01
 Gap=     1.602 Goal=   None    Shift=    0.000
 RMSDP=2.38D-04 MaxDP=4.41D-03              OVMax= 4.84D-03

 Cycle   2  Pass 0  IDiag  1:
 E= -284.415422478900     Delta-E=       -0.000241559693 Rises=F Damp=F
 DIIS: error= 1.15D-04 at cycle   2 NSaved=   2.
 NSaved= 2 IEnMin= 2 EnMin= -284.415422478900     IErMin= 2 ErrMin= 1.15D-04
 ErrMax= 1.15D-04  0.00D+00 EMaxC= 1.00D-01 BMatC= 2.61D-06 BMatP= 1.45D-04
 IDIUse=3 WtCom= 9.99D-01 WtEn= 1.15D-03
 Coeff-Com: -0.468D-01 0.105D+01
 Coeff-En:   0.000D+00 0.100D+01
 Coeff:     -0.467D-01 0.105D+01
 Gap=     0.248 Goal=   None    Shift=    0.000
 RMSDP=4.88D-05 MaxDP=7.24D-04 DE=-2.42D-04 OVMax= 1.46D-03

 Cycle   3  Pass 0  IDiag  1:
 E= -284.415421179611     Delta-E=        0.000001299289 Rises=F Damp=F
 DIIS: error= 2.40D-04 at cycle   3 NSaved=   3.
 NSaved= 3 IEnMin= 2 EnMin= -284.415422478900     IErMin= 2 ErrMin= 1.15D-04
 ErrMax= 2.40D-04  0.00D+00 EMaxC= 1.00D-01 BMatC= 6.94D-06 BMatP= 2.61D-06
 IDIUse=3 WtCom= 3.92D-01 WtEn= 6.08D-01
 Coeff-Com: -0.470D-01 0.685D+00 0.362D+00
 Coeff-En:   0.000D+00 0.589D+00 0.411D+00
 Coeff:     -0.185D-01 0.627D+00 0.391D+00
 Gap=     0.249 Goal=   None    Shift=    0.000
 RMSDP=2.92D-05 MaxDP=6.81D-04 DE= 1.30D-06 OVMax= 1.19D-03

 Cycle   4  Pass 0  IDiag  1:
 E= -284.415426024082     Delta-E=       -0.000004844470 Rises=F Damp=F
 DIIS: error= 7.64D-05 at cycle   4 NSaved=   4.
 NSaved= 4 IEnMin= 4 EnMin= -284.415426024082     IErMin= 4 ErrMin= 7.64D-05
 ErrMax= 7.64D-05  0.00D+00 EMaxC= 1.00D-01 BMatC= 6.21D-07 BMatP= 2.61D-06
 IDIUse=1 WtCom= 1.00D+00 WtEn= 0.00D+00
 Coeff-Com: -0.211D-01 0.224D+00 0.254D+00 0.543D+00
 Coeff:     -0.211D-01 0.224D+00 0.254D+00 0.543D+00
 Gap=     0.249 Goal=   None    Shift=    0.000
 RMSDP=7.85D-06 MaxDP=1.70D-04 DE=-4.84D-06 OVMax= 2.90D-04

 Initial convergence to 1.0D-05 achieved.  Increase integral accuracy.
 Cycle   5  Pass 1  IDiag  1:
 E= -284.415429172118     Delta-E=       -0.000003148037 Rises=F Damp=F
 DIIS: error= 5.81D-06 at cycle   1 NSaved=   1.
 NSaved= 1 IEnMin= 1 EnMin= -284.415429172118     IErMin= 1 ErrMin= 5.81D-06
 ErrMax= 5.81D-06  0.00D+00 EMaxC= 1.00D-01 BMatC= 6.77D-09 BMatP= 6.77D-09
 IDIUse=1 WtCom= 1.00D+00 WtEn= 0.00D+00
 Coeff-Com:  0.100D+01
 Coeff:      0.100D+01
 Gap=     0.249 Goal=   None    Shift=    0.000
 RMSDP=7.85D-06 MaxDP=1.70D-04 DE=-3.15D-06 OVMax= 3.93D-05

 Cycle   6  Pass 1  IDiag  1:
 E= -284.415429169322     Delta-E=        0.000000002796 Rises=F Damp=F
 DIIS: error= 6.98D-06 at cycle   2 NSaved=   2.
 NSaved= 2 IEnMin= 1 EnMin= -284.415429172118     IErMin= 1 ErrMin= 5.81D-06
 ErrMax= 6.98D-06  0.00D+00 EMaxC= 1.00D-01 BMatC= 1.18D-08 BMatP= 6.77D-09
 IDIUse=1 WtCom= 1.00D+00 WtEn= 0.00D+00
 Coeff-Com:  0.572D+00 0.428D+00
 Coeff:      0.572D+00 0.428D+00
 Gap=     0.249 Goal=   None    Shift=    0.000
 RMSDP=1.14D-06 MaxDP=2.03D-05 DE= 2.80D-09 OVMax= 3.40D-05

 Cycle   7  Pass 1  IDiag  1:
 E= -284.415429178876     Delta-E=       -0.000000009554 Rises=F Damp=F
 DIIS: error= 2.36D-06 at cycle   3 NSaved=   3.
 NSaved= 3 IEnMin= 3 EnMin= -284.415429178876     IErMin= 3 ErrMin= 2.36D-06
 ErrMax= 2.36D-06  0.00D+00 EMaxC= 1.00D-01 BMatC= 6.98D-10 BMatP= 6.77D-09
 IDIUse=1 WtCom= 1.00D+00 WtEn= 0.00D+00
 Coeff-Com:  0.308D+00 0.264D+00 0.428D+00
 Coeff:      0.308D+00 0.264D+00 0.428D+00
 Gap=     0.249 Goal=   None    Shift=    0.000
 RMSDP=2.88D-07 MaxDP=6.25D-06 DE=-9.55D-09 OVMax= 1.13D-05

 Cycle   8  Pass 1  IDiag  1:
 E= -284.415429179376     Delta-E=       -0.000000000501 Rises=F Damp=F
 DIIS: error= 6.57D-07 at cycle   4 NSaved=   4.
 NSaved= 4 IEnMin= 4 EnMin= -284.415429179376     IErMin= 4 ErrMin= 6.57D-07
 ErrMax= 6.57D-07  0.00D+00 EMaxC= 1.00D-01 BMatC= 5.22D-11 BMatP= 6.98D-10
 IDIUse=1 WtCom= 1.00D+00 WtEn= 0.00D+00
 Coeff-Com:  0.393D-02 0.172D-01 0.216D+00 0.763D+00
 Coeff:      0.393D-02 0.172D-01 0.216D+00 0.763D+00
 Gap=     0.249 Goal=   None    Shift=    0.000
 RMSDP=1.04D-07 MaxDP=1.37D-06 DE=-5.01D-10 OVMax= 2.62D-06

 Cycle   9  Pass 1  IDiag  1:
 E= -284.415429179422     Delta-E=       -0.000000000046 Rises=F Damp=F
 DIIS: error= 1.44D-07 at cycle   5 NSaved=   5.
 NSaved= 5 IEnMin= 5 EnMin= -284.415429179422     IErMin= 5 ErrMin= 1.44D-07
 ErrMax= 1.44D-07  0.00D+00 EMaxC= 1.00D-01 BMatC= 4.92D-12 BMatP= 5.22D-11
 IDIUse=1 WtCom= 1.00D+00 WtEn= 0.00D+00
 Coeff-Com: -0.226D-01-0.127D-01 0.686D-01 0.369D+00 0.598D+00
 Coeff:     -0.226D-01-0.127D-01 0.686D-01 0.369D+00 0.598D+00
 Gap=     0.249 Goal=   None    Shift=    0.000
 RMSDP=2.75D-08 MaxDP=5.79D-07 DE=-4.57D-11 OVMax= 6.25D-07

 Cycle  10  Pass 1  IDiag  1:
 E= -284.415429179426     Delta-E=       -0.000000000004 Rises=F Damp=F
 DIIS: error= 4.83D-08 at cycle   6 NSaved=   6.
 NSaved= 6 IEnMin= 6 EnMin= -284.415429179426     IErMin= 6 ErrMin= 4.83D-08
 ErrMax= 4.83D-08  0.00D+00 EMaxC= 1.00D-01 BMatC= 3.85D-13 BMatP= 4.92D-12
 IDIUse=1 WtCom= 1.00D+00 WtEn= 0.00D+00
 Coeff-Com: -0.117D-01-0.762D-02 0.196D-01 0.135D+00 0.296D+00 0.568D+00
 Coeff:     -0.117D-01-0.762D-02 0.196D-01 0.135D+00 0.296D+00 0.568D+00
 Gap=     0.249 Goal=   None    Shift=    0.000
 RMSDP=7.38D-09 MaxDP=1.12D-07 DE=-3.92D-12 OVMax= 1.38D-07

 SCF Done:  E(RB3LYP) =  -284.415429179     A.U. after   10 cycles
            NFock= 10  Conv=0.74D-08     -V/T= 2.0089
 KE= 2.819047269358D+02 PE=-1.023212249820D+03 EE= 2.784660501486D+02
 Leave Link  502 at Fri Mar 14 15:41:40 2025, MaxMem=  8589934592 cpu:              15.5 elap:               1.8
 (Enter /home/enzo/gaussian_versions/gdv.j21/gdv/l701.exe)
 ... and contract with generalized density number  0.
 Compute integral first derivatives.
 Leave Link  701 at Fri Mar 14 15:41:40 2025, MaxMem=  8589934592 cpu:               1.4 elap:               0.3
 (Enter /home/enzo/gaussian_versions/gdv.j21/gdv/l702.exe)
 L702 exits ... SP integral derivatives will be done elsewhere.
 Leave Link  702 at Fri Mar 14 15:41:40 2025, MaxMem=  8589934592 cpu:               0.1 elap:               0.1
 (Enter /home/enzo/gaussian_versions/gdv.j21/gdv/l703.exe)
 Integral derivatives from FoFJK, PRISM(SPDF).
 Compute integral first derivatives, UseDBF=F ICtDFT=           0.
 Calling FoFJK, ICntrl=      2127 FMM=F ISym2X=0 I1Cent= 0 IOpClX= 0 NMat=1 NMatS=1 NMatT=0.
 FoFJK:  IHMeth= 1 ICntrl=    2127 DoSepK=F KAlg= 0 I1Cent=           0 FoldK=F
 IRaf=         0 NMat=       1 IRICut=       1 DoRegI=T DoRafI=F ISym2E= 0 IDoP0=0 IntGTp=1.
 FoFCou: FMM=F IPFlag=           0 FMFlag=      100000 FMFlg1=         800
         NFxFlg=           0 DoJE=F BraDBF=F KetDBF=F FulRan=T
         wScrn=  0.000000 ICntrl=      2127 IOpCl=  0 I1Cent=           0 NGrid=           0
         NMat0=    1 NMatS0=      1 NMatT0=    0 NMatD0=    1 NMtDS0=    0 NMtDT0=    0
 Symmetry not used in FoFCou.
 Leave Link  703 at Fri Mar 14 15:41:40 2025, MaxMem=  8589934592 cpu:               4.0 elap:               0.5
 (Enter /home/enzo/gaussian_versions/gdv.j21/gdv/l716.exe)
 Dipole        = 5.95071266D-01-8.98848597D-02 2.85732576D-01
 ***** Axes restored to original set *****
 -------------------------------------------------------------------
 Center     Atomic                   Forces (Hartrees/Bohr)
 Number     Number              X              Y              Z
 -------------------------------------------------------------------
      1        7          -0.000129365    0.000618185   -0.000002258
      2        6           0.002110817   -0.000413534   -0.000807180
      3        6          -0.000849057    0.001584989    0.000015321
      4        8          -0.000730296    0.000240374    0.000267216
      5        8           0.001298225   -0.001999122    0.000052424
      6        1           0.000085826   -0.000517576   -0.000032682
      7        1           0.000270407   -0.000039935    0.000035033
      8        1          -0.000446539    0.000096326    0.000140773
      9        1          -0.000383525    0.000047600    0.000337689
     10        1          -0.001226494    0.000382693   -0.000006336
 -------------------------------------------------------------------
 Cartesian Forces:  Max     0.002110817 RMS     0.000769250
 Leave Link  716 at Fri Mar 14 15:41:41 2025, MaxMem=  8589934592 cpu:               0.2 elap:               0.2
 (Enter /home/enzo/gaussian_versions/gdv.j21/gdv/l103.exe)

 GradGradGradGradGradGradGradGradGradGradGradGradGradGradGradGradGradGrad
 Berny optimization.
 Using GEDIIS/GDIIS optimizer.
 FormGI is forming the generalized inverse of G from B-inverse, IUseBI=4.
 Internal  Forces:  Max     0.001528082 RMS     0.000538117
 Search for a local minimum.
 Step number   6 out of a maximum of   46
 All quantities printed in internal units (Hartrees-Bohrs-Radians)
 RMS Force = .53812D-03 SwitMx=.10000D-02 MixMth= 2
 Mixed Optimization -- En-DIIS/RFO-DIIS
 Swapping is turned off.
 Update second derivatives using D2CorX and points    2    3    4    5    6
 DE= -1.31D-04 DEPred=-8.77D-05 R= 1.50D+00
 TightC=F SS=  1.41D+00  RLast= 7.99D-02 DXNew= 1.4270D+00 2.3966D-01
 Trust test= 1.50D+00 RLast= 7.99D-02 DXMaxT set to 8.49D-01
 ITU=  1  1  0  1  1  0
     Eigenvalues ---    0.00179   0.00848   0.02226   0.04437   0.04723
     Eigenvalues ---    0.05438   0.06577   0.09918   0.13260   0.15944
     Eigenvalues ---    0.16125   0.16849   0.22279   0.23342   0.26131
     Eigenvalues ---    0.31708   0.32610   0.32794   0.39482   0.40551
     Eigenvalues ---    0.41065   0.46494   0.52692   0.84499
 En-DIIS/RFO-DIIS/Sim-DIIS IScMMF=       -3 using points:     6    5    4
 RFO step:  Lambda=-2.11653842D-04.
 NNeg= 0 NGDIIS= 3 SimSw=  2.50D-01 Rises=F DC= -1.31D-04 SmlDif=  1.00D-05
 NRisDI= 0 DoIntr=F SqrtH=F CThrHd= 10.0 CDAdj=  3.0
 RMS Error=  0.4549439664D-01 NUsed= 3 OKEnD=T EnDIS=F
 InvSVX:  RCond= 6.24D-04 Info=           0 Equed=N FErr=  5.56D-14 BErr=  2.03D-17
 Old DIIS coefficients:      3.81460     -1.95638     -0.85822
 DidBck=FF Rises=F RFO-DIIS coefs:    3.00000   -1.39016   -0.60984
 Iteration  1 RMS(Cart)=  0.05211810 RMS(Int)=  0.00221574
 Iteration  2 RMS(Cart)=  0.00210621 RMS(Int)=  0.00009069
 Iteration  3 RMS(Cart)=  0.00000236 RMS(Int)=  0.00009067
 Iteration  4 RMS(Cart)=  0.00000000 RMS(Int)=  0.00009067
 Variable       Old X    -DE/DX   Delta X   Delta X   Delta X     New X
                                 (Linear)    (Quad)   (Total)
    R1        2.76983  -0.00013  -0.00673   0.00386  -0.00287   2.76696
    R2        1.92186  -0.00017   0.00124   0.00007   0.00131   1.92317
    R3        1.92344  -0.00003   0.00137   0.00046   0.00183   1.92527
    R4        2.88423  -0.00150  -0.00231  -0.00450  -0.00681   2.87742
    R5        2.06795   0.00021   0.00082   0.00046   0.00128   2.06923
    R6        2.07788   0.00009   0.00191   0.00012   0.00202   2.07991
    R7        2.28996  -0.00069   0.00002  -0.00034  -0.00032   2.28964
    R8        2.55950  -0.00153   0.00363  -0.00531  -0.00168   2.55782
    R9        1.84657  -0.00113   0.00013  -0.00227  -0.00214   1.84443
    A1        1.91667  -0.00024  -0.00477  -0.00132  -0.00612   1.91054
    A2        1.92015  -0.00037  -0.00550  -0.00094  -0.00648   1.91367
    A3        1.86439   0.00010  -0.00143  -0.00274  -0.00425   1.86014
    A4        1.91928  -0.00064  -0.00201  -0.00458  -0.00659   1.91268
    A5        1.89049  -0.00006  -0.00281   0.00084  -0.00196   1.88853
    A6        2.01301  -0.00002   0.00150  -0.00135   0.00014   2.01315
    A7        1.88193   0.00065  -0.00010   0.00785   0.00774   1.88967
    A8        1.85913   0.00034   0.00149   0.00053   0.00200   1.86114
    A9        1.89600  -0.00020   0.00200  -0.00256  -0.00059   1.89541
   A10        2.18540  -0.00088  -0.00071  -0.00331  -0.00431   2.18109
   A11        1.95407   0.00077   0.00377  -0.00005   0.00342   1.95749
   A12        2.14368   0.00011  -0.00232   0.00346   0.00084   2.14453
   A13        1.84528   0.00062   0.00801  -0.00247   0.00555   1.85083
    D1       -2.86185  -0.00046  -0.08888  -0.03472  -0.12358  -2.98543
    D2       -0.80926  -0.00007  -0.09177  -0.02736  -0.11911  -0.92837
    D3        1.31911  -0.00040  -0.09032  -0.03098  -0.12128   1.19783
    D4        1.37404  -0.00022  -0.08098  -0.03005  -0.11105   1.26300
    D5       -2.85655   0.00017  -0.08388  -0.02269  -0.10658  -2.96313
    D6       -0.72818  -0.00016  -0.08243  -0.02630  -0.10875  -0.83694
    D7       -1.86525   0.00020   0.04202   0.02298   0.06501  -1.80023
    D8        1.26816   0.00011   0.02252   0.03728   0.05977   1.32793
    D9        2.36003   0.00026   0.04659   0.01995   0.06657   2.42660
   D10       -0.78975   0.00016   0.02709   0.03425   0.06133  -0.72841
   D11        0.32756   0.00000   0.04359   0.01880   0.06239   0.38996
   D12       -2.82222  -0.00009   0.02409   0.03310   0.05715  -2.76506
   D13       -3.12450   0.00050   0.04849  -0.01630   0.03212  -3.09237
   D14        0.00914   0.00040   0.02935  -0.00243   0.02698   0.03612
         Item               Value     Threshold  Converged?
 Maximum Force            0.001528     0.000450     NO 
 RMS     Force            0.000538     0.000300     NO 
 Maximum Displacement     0.174769     0.001800     NO 
 RMS     Displacement     0.052140     0.001200     NO 
 Predicted change in Energy=-1.126305D-04
 Lowest energy point so far.  Saving SCF results.
 GradGradGradGradGradGradGradGradGradGradGradGradGradGradGradGradGradGrad

 Leave Link  103 at Fri Mar 14 15:41:41 2025, MaxMem=  8589934592 cpu:               0.3 elap:               0.1
 (Enter /home/enzo/gaussian_versions/gdv.j21/gdv/l202.exe)
                          Input orientation:                          
 ---------------------------------------------------------------------
 Center     Atomic      Atomic             Coordinates (Angstroms)
 Number     Number       Type             X           Y           Z
 ---------------------------------------------------------------------
      1          7           0       -1.876056    0.204802   -0.397806
      2          6           0       -0.902915   -0.240125    0.601669
      3          6           0        0.505169   -0.107666    0.037516
      4          8           0        1.177694   -1.027624   -0.374094
      5          8           0        0.932466    1.176620    0.027819
      6          1           0       -2.799220    0.256838    0.027358
      7          1           0       -1.938759   -0.484509   -1.145397
      8          1           0       -0.985791    0.414984    1.475146
      9          1           0       -1.012363   -1.283700    0.933905
     10          1           0        1.815154    1.164102   -0.388523
 ---------------------------------------------------------------------
                    Distance matrix (angstroms):
                    1          2          3          4          5
     1  N    0.000000
     2  C    1.464211   0.000000
     3  C    2.440774   1.522667   0.000000
     4  O    3.293148   2.429239   1.211625   0.000000
     5  O    3.002230   2.388533   1.353539   2.253966   0.000000
     6  H    1.017695   2.042738   3.324448   4.198435   3.843369
     7  H    1.018811   2.045712   2.741183   3.256096   3.518483
     8  H    2.084394   1.094987   2.136096   3.190842   2.520824
     9  H    2.176019   1.100640   2.118838   2.563745   3.264434
    10  H    3.813840   3.215623   1.874824   2.282592   0.976030
                    6          7          8          9         10
     6  H    0.000000
     7  H    1.632588   0.000000
     8  H    2.325860   2.929929   0.000000
     9  H    2.527438   2.412553   1.783023   0.000000
    10  H    4.721073   4.169250   3.446699   3.966788   0.000000
 Stoichiometry    C2H5NO2
 Framework group  C1[X(C2H5NO2)]
 Deg. of freedom    24
 Full point group                 C1      NOp   1
 RotChk:  IX=3 Diff= 8.23D-02
 Largest Abelian subgroup         C1      NOp   1
 Largest concise Abelian subgroup C1      NOp   1
                         Standard orientation:                         
 ---------------------------------------------------------------------
 Center     Atomic      Atomic             Coordinates (Angstroms)
 Number     Number       Type             X           Y           Z
 ---------------------------------------------------------------------
      1          7           0        1.767867   -0.171313   -0.466230
      2          6           0        0.841494    0.186023    0.609901
      3          6           0       -0.589558    0.122924    0.093545
      4          8           0       -1.264613    1.085049   -0.200818
      5          8           0       -1.035230   -1.149994   -0.021017
      6          1           0        2.706291   -0.273470   -0.085928
      7          1           0        1.810797    0.585720   -1.146695
      8          1           0        0.949484   -0.550541    1.412901
      9          1           0        0.978917    1.191790    1.035292
     10          1           0       -1.933429   -1.088438   -0.397959
 ---------------------------------------------------------------------
 Rotational constants (GHZ):           8.8589805           3.9425774           3.1671260
 Leave Link  202 at Fri Mar 14 15:41:41 2025, MaxMem=  8589934592 cpu:               0.6 elap:               0.2
 (Enter /home/enzo/gaussian_versions/gdv.j21/gdv/l301.exe)
 Standard basis: 6-31G(d) (6D, 7F)
 Ernie: Thresh=  0.10000D-02 Tol=  0.10000D-05 Strict=F.
 There are    85 symmetry adapted cartesian basis functions of A   symmetry.
 There are    85 symmetry adapted basis functions of A   symmetry.
    85 basis functions,   160 primitive gaussians,    85 cartesian basis functions
    20 alpha electrons       20 beta electrons
       nuclear repulsion energy       178.6510820238 Hartrees.
 IExCor=      4002 DFT=T Ex+Corr=B3LYP ScaHFX=  0.200000
 ScaDFX=  0.800000  0.720000  1.000000  0.810000  1.000000  0.000000
 ScaDFX=  0.000000  0.000000  0.000000  0.000000  0.000000  0.000000
 IRadAn=      5 IRanWt=     -1 IRanGd=            0 ICorTp=0 IEmpDi=  4
 NAtoms=   10 NActive=   10 NUniq=   10 SFac= 1.00D+00 NAtFMM=   60 NAOKFM=F Big=F
 Integral buffers will be    131072 words long.
 Raffenetti 2 integral format.
 Two-electron integral symmetry is turned on.
 Leave Link  301 at Fri Mar 14 15:41:41 2025, MaxMem=  8589934592 cpu:               0.6 elap:               0.2
 (Enter /home/enzo/gaussian_versions/gdv.j21/gdv/l302.exe)
 NPDir=0 NMtPBC=     1 NCelOv=     1 NCel=       1 NClECP=     1 NCelD=      1
         NCelK=      1 NCelE2=     1 NClLst=     1 CellRange=     0.0.
 One-electron integrals computed using PRISM.
 One-electron integral symmetry used in STVInt
 NBasis=    85 RedAO= T EigKep=  4.15D-03  NBF=    85
 NBsUse=    85 1.00D-06 EigRej= -1.00D+00 NBFU=    85
 Precomputing XC quadrature grid using
 IXCGrd= 4 IRadAn=           5 IRanWt=          -1 IRanGd=           0 AccXCQ= 0.00D+00.
 Generated NRdTot=       0 NPtTot=      219619 NUsed=           0 NTot=          64
 NSgBfM=    85    85    85    85    85 MxSgAt=    10 MxSgA2=    10 SizInc=   0.000
 NMBTot=     1964 MaxBatPerAtom=       83 MaxMicBPerAtom=      205 NBfPt=            16001080.
 Leave Link  302 at Fri Mar 14 15:41:41 2025, MaxMem=  8589934592 cpu:               1.0 elap:               0.2
 (Enter /home/enzo/gaussian_versions/gdv.j21/gdv/l303.exe)
 DipDrv:  MaxL=1.
 Leave Link  303 at Fri Mar 14 15:41:42 2025, MaxMem=  8589934592 cpu:               0.2 elap:               0.2
 (Enter /home/enzo/gaussian_versions/gdv.j21/gdv/l401.exe)
 Initial guess from the checkpoint file:  "/local/home/enzo/scratch/Gau-2409754.chk"
 B after Tr=    -0.000000    0.000000    0.000000
         Rot=    0.999786   -0.018619   -0.001133    0.008993 Ang=  -2.37 deg.
 AO Guess basis will be translated and rotated to current coordinates.
 JPrj=2 DoOrth=T DoCkMO=T.
 Generating alternative initial guess.
 ExpMin= 1.61D-01 ExpMax= 5.48D+03 ExpMxC= 8.25D+02 IAcc=3 IRadAn=         5 AccDes= 0.00D+00
 Harris functional with IExCor= 4002 and IRadAn=       5 diagonalized for initial guess.
 HarFok:  IExCor=    4002 AccDes= 0.00D+00 IRadAn=         5 IDoV= 1 UseB2=F ITyADJ=14 ICtDFT=  3500011
 FoFCou: FMM=F IPFlag=           0 FMFlag=      100000 FMFlg1=           0
         NFxFlg=           0 DoJE=T BraDBF=F KetDBF=T FulRan=T
         wScrn=  0.000000 ICntrl=       500 IOpCl=  0 I1Cent=   200000004 NGrid=           0
         NMat0=    1 NMatS0=      1 NMatT0=    0 NMatD0=    1 NMtDS0=    0 NMtDT0=    0
 Petite list used in FoFCou.
 Harris En= -284.437947319540    
 Leave Link  401 at Fri Mar 14 15:41:42 2025, MaxMem=  8589934592 cpu:               2.2 elap:               0.3
 (Enter /home/enzo/gaussian_versions/gdv.j21/gdv/l502.exe)
 Keep R1 ints in memory in canonical form, NReq=17617987.
 FoFCou: FMM=F IPFlag=           0 FMFlag=           0 FMFlg1=           0
         NFxFlg=           0 DoJE=F BraDBF=F KetDBF=F FulRan=T
         wScrn=  0.000000 ICntrl=       600 IOpCl=  0 I1Cent=           0 NGrid=           0
         NMat0=    1 NMatS0=   3655 NMatT0=    0 NMatD0=    1 NMtDS0=    0 NMtDT0=    0
 Symmetry not used in FoFCou.
 Two-electron integral symmetry not used.
 Closed shell SCF:
 Using DIIS extrapolation, IDIIS=  1040.
 NGot=  8589934592 LenX=  8583230350 LenY=  8583222684
 Requested convergence on RMS density matrix=1.00D-08 within 128 cycles.
 Requested convergence on MAX density matrix=1.00D-06.
 Requested convergence on             energy=1.00D-06.
 No special actions if energy rises.
 Integral accuracy reduced to 1.0D-05 until final iterations.

 Cycle   1  Pass 0  IDiag  1:
 E= -284.412128035134    
 DIIS: error= 2.83D-03 at cycle   1 NSaved=   1.
 NSaved= 1 IEnMin= 1 EnMin= -284.412128035134     IErMin= 1 ErrMin= 2.83D-03
 ErrMax= 2.83D-03  0.00D+00 EMaxC= 1.00D-01 BMatC= 1.84D-03 BMatP= 1.84D-03
 IDIUse=3 WtCom= 9.72D-01 WtEn= 2.83D-02
 Coeff-Com:  0.100D+01
 Coeff-En:   0.100D+01
 Coeff:      0.100D+01
 Gap=     1.597 Goal=   None    Shift=    0.000
 GapD=    1.597 DampG=2.000 DampE=1.000 DampFc=2.0000 IDamp=-1.
 RMSDP=8.67D-04 MaxDP=1.55D-02              OVMax= 2.12D-02

 Cycle   2  Pass 0  IDiag  1:
 E= -284.415533612386     Delta-E=       -0.003405577251 Rises=F Damp=F
 DIIS: error= 3.24D-04 at cycle   2 NSaved=   2.
 NSaved= 2 IEnMin= 2 EnMin= -284.415533612386     IErMin= 2 ErrMin= 3.24D-04
 ErrMax= 3.24D-04  0.00D+00 EMaxC= 1.00D-01 BMatC= 2.26D-05 BMatP= 1.84D-03
 IDIUse=3 WtCom= 9.97D-01 WtEn= 3.24D-03
 Coeff-Com: -0.721D-01 0.107D+01
 Coeff-En:   0.000D+00 0.100D+01
 Coeff:     -0.719D-01 0.107D+01
 Gap=     0.250 Goal=   None    Shift=    0.000
 RMSDP=1.31D-04 MaxDP=2.37D-03 DE=-3.41D-03 OVMax= 3.93D-03

 Cycle   3  Pass 0  IDiag  1:
 E= -284.415566404159     Delta-E=       -0.000032791774 Rises=F Damp=F
 DIIS: error= 2.18D-04 at cycle   3 NSaved=   3.
 NSaved= 3 IEnMin= 3 EnMin= -284.415566404159     IErMin= 3 ErrMin= 2.18D-04
 ErrMax= 2.18D-04  0.00D+00 EMaxC= 1.00D-01 BMatC= 1.48D-05 BMatP= 2.26D-05
 IDIUse=3 WtCom= 9.98D-01 WtEn= 2.18D-03
 Coeff-Com: -0.437D-01 0.545D+00 0.499D+00
 Coeff-En:   0.000D+00 0.000D+00 0.100D+01
 Coeff:     -0.436D-01 0.543D+00 0.500D+00
 Gap=     0.249 Goal=   None    Shift=    0.000
 RMSDP=4.57D-05 MaxDP=9.90D-04 DE=-3.28D-05 OVMax= 1.60D-03

 Cycle   4  Pass 0  IDiag  1:
 E= -284.415575307264     Delta-E=       -0.000008903105 Rises=F Damp=F
 DIIS: error= 1.83D-04 at cycle   4 NSaved=   4.
 NSaved= 4 IEnMin= 4 EnMin= -284.415575307264     IErMin= 4 ErrMin= 1.83D-04
 ErrMax= 1.83D-04  0.00D+00 EMaxC= 1.00D-01 BMatC= 3.64D-06 BMatP= 1.48D-05
 IDIUse=3 WtCom= 9.98D-01 WtEn= 1.83D-03
 Coeff-Com: -0.171D-01 0.187D+00 0.334D+00 0.496D+00
 Coeff-En:   0.000D+00 0.000D+00 0.205D+00 0.795D+00
 Coeff:     -0.171D-01 0.186D+00 0.334D+00 0.497D+00
 Gap=     0.249 Goal=   None    Shift=    0.000
 RMSDP=2.04D-05 MaxDP=4.91D-04 DE=-8.90D-06 OVMax= 7.89D-04

 Cycle   5  Pass 0  IDiag  1:
 E= -284.415577893578     Delta-E=       -0.000002586314 Rises=F Damp=F
 DIIS: error= 3.54D-05 at cycle   5 NSaved=   5.
 NSaved= 5 IEnMin= 5 EnMin= -284.415577893578     IErMin= 5 ErrMin= 3.54D-05
 ErrMax= 3.54D-05  0.00D+00 EMaxC= 1.00D-01 BMatC= 2.59D-07 BMatP= 3.64D-06
 IDIUse=1 WtCom= 1.00D+00 WtEn= 0.00D+00
 Coeff-Com: -0.397D-02 0.356D-01 0.122D+00 0.273D+00 0.572D+00
 Coeff:     -0.397D-02 0.356D-01 0.122D+00 0.273D+00 0.572D+00
 Gap=     0.249 Goal=   None    Shift=    0.000
 RMSDP=6.12D-06 MaxDP=1.15D-04 DE=-2.59D-06 OVMax= 1.76D-04

 Initial convergence to 1.0D-05 achieved.  Increase integral accuracy.
 Cycle   6  Pass 1  IDiag  1:
 E= -284.415577881708     Delta-E=        0.000000011870 Rises=F Damp=F
 DIIS: error= 1.09D-05 at cycle   1 NSaved=   1.
 NSaved= 1 IEnMin= 1 EnMin= -284.415577881708     IErMin= 1 ErrMin= 1.09D-05
 ErrMax= 1.09D-05  0.00D+00 EMaxC= 1.00D-01 BMatC= 2.96D-08 BMatP= 2.96D-08
 IDIUse=1 WtCom= 1.00D+00 WtEn= 0.00D+00
 Coeff-Com:  0.100D+01
 Coeff:      0.100D+01
 Gap=     0.249 Goal=   None    Shift=    0.000
 RMSDP=6.12D-06 MaxDP=1.15D-04 DE= 1.19D-08 OVMax= 9.85D-05

 Cycle   7  Pass 1  IDiag  1:
 E= -284.415577849288     Delta-E=        0.000000032420 Rises=F Damp=F
 DIIS: error= 1.58D-05 at cycle   2 NSaved=   2.
 NSaved= 2 IEnMin= 1 EnMin= -284.415577881708     IErMin= 1 ErrMin= 1.09D-05
 ErrMax= 1.58D-05  0.00D+00 EMaxC= 1.00D-01 BMatC= 7.32D-08 BMatP= 2.96D-08
 IDIUse=1 WtCom= 1.00D+00 WtEn= 0.00D+00
 Coeff-Com:  0.614D+00 0.386D+00
 Coeff:      0.614D+00 0.386D+00
 Gap=     0.249 Goal=   None    Shift=    0.000
 RMSDP=2.53D-06 MaxDP=4.24D-05 DE= 3.24D-08 OVMax= 7.93D-05

 Cycle   8  Pass 1  IDiag  1:
 E= -284.415577905614     Delta-E=       -0.000000056326 Rises=F Damp=F
 DIIS: error= 4.37D-06 at cycle   3 NSaved=   3.
 NSaved= 3 IEnMin= 3 EnMin= -284.415577905614     IErMin= 3 ErrMin= 4.37D-06
 ErrMax= 4.37D-06  0.00D+00 EMaxC= 1.00D-01 BMatC= 1.96D-09 BMatP= 2.96D-08
 IDIUse=1 WtCom= 1.00D+00 WtEn= 0.00D+00
 Coeff-Com:  0.339D+00 0.232D+00 0.430D+00
 Coeff:      0.339D+00 0.232D+00 0.430D+00
 Gap=     0.249 Goal=   None    Shift=    0.000
 RMSDP=4.95D-07 MaxDP=1.12D-05 DE=-5.63D-08 OVMax= 1.89D-05

 Cycle   9  Pass 1  IDiag  1:
 E= -284.415577906997     Delta-E=       -0.000000001383 Rises=F Damp=F
 DIIS: error= 8.50D-07 at cycle   4 NSaved=   4.
 NSaved= 4 IEnMin= 4 EnMin= -284.415577906997     IErMin= 4 ErrMin= 8.50D-07
 ErrMax= 8.50D-07  0.00D+00 EMaxC= 1.00D-01 BMatC= 1.83D-10 BMatP= 1.96D-09
 IDIUse=1 WtCom= 1.00D+00 WtEn= 0.00D+00
 Coeff-Com:  0.899D-01 0.666D-01 0.252D+00 0.592D+00
 Coeff:      0.899D-01 0.666D-01 0.252D+00 0.592D+00
 Gap=     0.249 Goal=   None    Shift=    0.000
 RMSDP=1.35D-07 MaxDP=2.69D-06 DE=-1.38D-09 OVMax= 4.00D-06

 Cycle  10  Pass 1  IDiag  1:
 E= -284.415577907140     Delta-E=       -0.000000000143 Rises=F Damp=F
 DIIS: error= 1.94D-07 at cycle   5 NSaved=   5.
 NSaved= 5 IEnMin= 5 EnMin= -284.415577907140     IErMin= 5 ErrMin= 1.94D-07
 ErrMax= 1.94D-07  0.00D+00 EMaxC= 1.00D-01 BMatC= 7.26D-12 BMatP= 1.83D-10
 IDIUse=1 WtCom= 1.00D+00 WtEn= 0.00D+00
 Coeff-Com: -0.101D-01-0.549D-02 0.366D-01 0.205D+00 0.774D+00
 Coeff:     -0.101D-01-0.549D-02 0.366D-01 0.205D+00 0.774D+00
 Gap=     0.249 Goal=   None    Shift=    0.000
 RMSDP=4.28D-08 MaxDP=5.12D-07 DE=-1.43D-10 OVMax= 8.62D-07

 Cycle  11  Pass 1  IDiag  1:
 E= -284.415577907144     Delta-E=       -0.000000000004 Rises=F Damp=F
 DIIS: error= 1.11D-07 at cycle   6 NSaved=   6.
 NSaved= 6 IEnMin= 6 EnMin= -284.415577907144     IErMin= 6 ErrMin= 1.11D-07
 ErrMax= 1.11D-07  0.00D+00 EMaxC= 1.00D-01 BMatC= 2.54D-12 BMatP= 7.26D-12
 IDIUse=1 WtCom= 1.00D+00 WtEn= 0.00D+00
 Coeff-Com: -0.137D-01-0.892D-02 0.133D-02 0.764D-01 0.470D+00 0.475D+00
 Coeff:     -0.137D-01-0.892D-02 0.133D-02 0.764D-01 0.470D+00 0.475D+00
 Gap=     0.249 Goal=   None    Shift=    0.000
 RMSDP=1.35D-08 MaxDP=2.50D-07 DE=-3.87D-12 OVMax= 3.17D-07

 Cycle  12  Pass 1  IDiag  1:
 E= -284.415577907145     Delta-E=       -0.000000000001 Rises=F Damp=F
 DIIS: error= 9.05D-09 at cycle   7 NSaved=   7.
 NSaved= 7 IEnMin= 7 EnMin= -284.415577907145     IErMin= 7 ErrMin= 9.05D-09
 ErrMax= 9.05D-09  0.00D+00 EMaxC= 1.00D-01 BMatC= 1.79D-14 BMatP= 2.54D-12
 IDIUse=1 WtCom= 1.00D+00 WtEn= 0.00D+00
 Coeff-Com: -0.334D-02-0.224D-02-0.248D-02 0.785D-02 0.782D-01 0.119D+00
 Coeff-Com:  0.803D+00
 Coeff:     -0.334D-02-0.224D-02-0.248D-02 0.785D-02 0.782D-01 0.119D+00
 Coeff:      0.803D+00
 Gap=     0.249 Goal=   None    Shift=    0.000
 RMSDP=2.19D-09 MaxDP=2.25D-08 DE=-7.96D-13 OVMax= 4.90D-08

 SCF Done:  E(RB3LYP) =  -284.415577907     A.U. after   12 cycles
            NFock= 12  Conv=0.22D-08     -V/T= 2.0089
 KE= 2.819158303591D+02 PE=-1.023641500087D+03 EE= 2.786590097964D+02
 Leave Link  502 at Fri Mar 14 15:41:44 2025, MaxMem=  8589934592 cpu:              14.8 elap:               1.7
 (Enter /home/enzo/gaussian_versions/gdv.j21/gdv/l701.exe)
 ... and contract with generalized density number  0.
 Compute integral first derivatives.
 Leave Link  701 at Fri Mar 14 15:41:44 2025, MaxMem=  8589934592 cpu:               0.8 elap:               0.3
 (Enter /home/enzo/gaussian_versions/gdv.j21/gdv/l702.exe)
 L702 exits ... SP integral derivatives will be done elsewhere.
 Leave Link  702 at Fri Mar 14 15:41:44 2025, MaxMem=  8589934592 cpu:               0.2 elap:               0.2
 (Enter /home/enzo/gaussian_versions/gdv.j21/gdv/l703.exe)
 Integral derivatives from FoFJK, PRISM(SPDF).
 Compute integral first derivatives, UseDBF=F ICtDFT=           0.
 Calling FoFJK, ICntrl=      2127 FMM=F ISym2X=0 I1Cent= 0 IOpClX= 0 NMat=1 NMatS=1 NMatT=0.
 FoFJK:  IHMeth= 1 ICntrl=    2127 DoSepK=F KAlg= 0 I1Cent=           0 FoldK=F
 IRaf=         0 NMat=       1 IRICut=       1 DoRegI=T DoRafI=F ISym2E= 0 IDoP0=0 IntGTp=1.
 FoFCou: FMM=F IPFlag=           0 FMFlag=      100000 FMFlg1=         800
         NFxFlg=           0 DoJE=F BraDBF=F KetDBF=F FulRan=T
         wScrn=  0.000000 ICntrl=      2127 IOpCl=  0 I1Cent=           0 NGrid=           0
         NMat0=    1 NMatS0=      1 NMatT0=    0 NMatD0=    1 NMtDS0=    0 NMtDT0=    0
 Symmetry not used in FoFCou.
 Leave Link  703 at Fri Mar 14 15:41:45 2025, MaxMem=  8589934592 cpu:               3.6 elap:               0.4
 (Enter /home/enzo/gaussian_versions/gdv.j21/gdv/l716.exe)
 Dipole        = 5.40633955D-01-8.18047820D-02 2.53803101D-01
 ***** Axes restored to original set *****
 -------------------------------------------------------------------
 Center     Atomic                   Forces (Hartrees/Bohr)
 Number     Number              X              Y              Z
 -------------------------------------------------------------------
      1        7          -0.000913740    0.000392122   -0.001388273
      2        6           0.001475990   -0.000583079    0.001487328
      3        6           0.000462007    0.001327814    0.000307788
      4        8          -0.000394957   -0.000016735   -0.000482420
      5        8          -0.000290636   -0.001047269   -0.000214736
      6        1           0.000125360   -0.000042399   -0.000151259
      7        1          -0.000075740   -0.000018870    0.000275752
      8        1          -0.000290227   -0.000167981   -0.000142700
      9        1          -0.000043812    0.000230580    0.000065819
     10        1          -0.000054243   -0.000074183    0.000242702
 -------------------------------------------------------------------
 Cartesian Forces:  Max     0.001487328 RMS     0.000624937
 Leave Link  716 at Fri Mar 14 15:41:45 2025, MaxMem=  8589934592 cpu:               0.1 elap:               0.1
 (Enter /home/enzo/gaussian_versions/gdv.j21/gdv/l103.exe)

 GradGradGradGradGradGradGradGradGradGradGradGradGradGradGradGradGradGrad
 Berny optimization.
 Using GEDIIS/GDIIS optimizer.
 FormGI is forming the generalized inverse of G from B-inverse, IUseBI=4.
 Internal  Forces:  Max     0.001537699 RMS     0.000384990
 Search for a local minimum.
 Step number   7 out of a maximum of   46
 All quantities printed in internal units (Hartrees-Bohrs-Radians)
 RMS Force = .38499D-03 SwitMx=.10000D-02 MixMth= 2
 Mixed Optimization -- En-DIIS/RFO-DIIS
 Swapping is turned off.
 Update second derivatives using D2CorX and points    4    5    6    7
 DE= -1.49D-04 DEPred=-1.13D-04 R= 1.32D+00
 TightC=F SS=  1.41D+00  RLast= 3.24D-01 DXNew= 1.4270D+00 9.7185D-01
 Trust test= 1.32D+00 RLast= 3.24D-01 DXMaxT set to 9.72D-01
 ITU=  1  1  1  0  1  1  0
     Eigenvalues ---    0.00132   0.00916   0.02401   0.04338   0.04534
     Eigenvalues ---    0.05608   0.06595   0.09833   0.13231   0.15858
     Eigenvalues ---    0.16120   0.16680   0.22356   0.23273   0.26108
     Eigenvalues ---    0.31789   0.32608   0.32789   0.40544   0.40988
     Eigenvalues ---    0.41513   0.46904   0.53561   0.84359
 En-DIIS/RFO-DIIS/Sim-DIIS IScMMF=       -3 using points:     7    6    5    4
 RFO step:  Lambda=-6.30413529D-05.
 NNeg= 0 NGDIIS= 4 SimSw=  2.50D-01 Rises=F DC= -1.49D-04 SmlDif=  1.00D-05
 NRisDI= 0 DoIntr=F SqrtH=F CThrHd= 10.0 CDAdj=  3.0
 RMS Error=  0.2419687358D-01 NUsed= 4 OKEnD=T EnDIS=F
 InvSVX:  RCond= 2.56D-05 Info=           0 Equed=N FErr=  3.05D-12 BErr=  3.90D-17
 DidBck=FF Rises=F RFO-DIIS coefs:    0.82047    1.79965   -1.06395   -0.55617
 Iteration  1 RMS(Cart)=  0.02327144 RMS(Int)=  0.00039280
 Iteration  2 RMS(Cart)=  0.00036389 RMS(Int)=  0.00009270
 Iteration  3 RMS(Cart)=  0.00000006 RMS(Int)=  0.00009270
 Variable       Old X    -DE/DX   Delta X   Delta X   Delta X     New X
                                 (Linear)    (Quad)   (Total)
    R1        2.76696   0.00154  -0.00509   0.00492  -0.00017   2.76679
    R2        1.92317  -0.00018   0.00087  -0.00033   0.00054   1.92370
    R3        1.92527  -0.00019   0.00086  -0.00020   0.00066   1.92593
    R4        2.87742  -0.00019  -0.00013  -0.00179  -0.00192   2.87550
    R5        2.06923  -0.00019   0.00035  -0.00017   0.00017   2.06940
    R6        2.07991  -0.00019   0.00127  -0.00059   0.00068   2.08059
    R7        2.28964  -0.00004   0.00007  -0.00004   0.00003   2.28967
    R8        2.55782  -0.00117   0.00371  -0.00409  -0.00038   2.55744
    R9        1.84443  -0.00015   0.00075  -0.00106  -0.00031   1.84412
    A1        1.91054   0.00011  -0.00269   0.00049  -0.00225   1.90830
    A2        1.91367  -0.00019  -0.00309   0.00004  -0.00309   1.91058
    A3        1.86014  -0.00006  -0.00040  -0.00149  -0.00198   1.85816
    A4        1.91268  -0.00064  -0.00031  -0.00295  -0.00327   1.90941
    A5        1.88853   0.00014  -0.00197   0.00151  -0.00047   1.88806
    A6        2.01315   0.00001   0.00163  -0.00166  -0.00002   2.01313
    A7        1.88967   0.00039  -0.00226   0.00515   0.00287   1.89254
    A8        1.86114   0.00027   0.00067   0.00030   0.00097   1.86211
    A9        1.89541  -0.00015   0.00208  -0.00188   0.00019   1.89559
   A10        2.18109  -0.00035   0.00073  -0.00193  -0.00151   2.17958
   A11        1.95749   0.00025   0.00200  -0.00024   0.00145   1.95894
   A12        2.14453   0.00010  -0.00207   0.00229  -0.00009   2.14444
   A13        1.85083  -0.00009   0.00496  -0.00276   0.00221   1.85303
    D1       -2.98543  -0.00012  -0.05327   0.00336  -0.04989  -3.03531
    D2       -0.92837   0.00007  -0.05733   0.00876  -0.04854  -0.97691
    D3        1.19783  -0.00000  -0.05504   0.00634  -0.04867   1.14916
    D4        1.26300   0.00000  -0.04928   0.00485  -0.04445   1.21854
    D5       -2.96313   0.00019  -0.05334   0.01025  -0.04311  -3.00624
    D6       -0.83694   0.00012  -0.05104   0.00783  -0.04323  -0.88017
    D7       -1.80023   0.00036   0.02553   0.01302   0.03856  -1.76167
    D8        1.32793   0.00018   0.00665   0.02257   0.02922   1.35715
    D9        2.42660   0.00032   0.02940   0.00990   0.03931   2.46591
   D10       -0.72841   0.00014   0.01052   0.01945   0.02997  -0.69845
   D11        0.38996   0.00016   0.02779   0.00935   0.03714   0.42710
   D12       -2.76506  -0.00003   0.00891   0.01890   0.02780  -2.73727
   D13       -3.09237  -0.00009   0.03309  -0.02069   0.01236  -3.08001
   D14        0.03612  -0.00027   0.01460  -0.01141   0.00322   0.03934
         Item               Value     Threshold  Converged?
 Maximum Force            0.001538     0.000450     NO 
 RMS     Force            0.000385     0.000300     NO 
 Maximum Displacement     0.073642     0.001800     NO 
 RMS     Displacement     0.023273     0.001200     NO 
 Predicted change in Energy=-1.731793D-05
 Lowest energy point so far.  Saving SCF results.
 GradGradGradGradGradGradGradGradGradGradGradGradGradGradGradGradGradGrad

 Leave Link  103 at Fri Mar 14 15:41:45 2025, MaxMem=  8589934592 cpu:               0.7 elap:               0.2
 (Enter /home/enzo/gaussian_versions/gdv.j21/gdv/l202.exe)
                          Input orientation:                          
 ---------------------------------------------------------------------
 Center     Atomic      Atomic             Coordinates (Angstroms)
 Number     Number       Type             X           Y           Z
 ---------------------------------------------------------------------
      1          7           0       -1.878378    0.205392   -0.393473
      2          6           0       -0.904333   -0.231554    0.608507
      3          6           0        0.500079   -0.106839    0.036234
      4          8           0        1.153208   -1.027557   -0.403966
      5          8           0        0.944683    1.171358    0.043984
      6          1           0       -2.807395    0.217869    0.022529
      7          1           0       -1.911315   -0.472782   -1.153528
      8          1           0       -0.985112    0.432250    1.475708
      9          1           0       -1.014992   -1.272063    0.950989
     10          1           0        1.818933    1.157649   -0.389391
 ---------------------------------------------------------------------
                    Distance matrix (angstroms):
                    1          2          3          4          5
     1  N    0.000000
     2  C    1.464121   0.000000
     3  C    2.437047   1.521651   0.000000
     4  O    3.272734   2.427385   1.211641   0.000000
     5  O    3.015648   2.388663   1.353337   2.253745   0.000000
     6  H    1.017981   2.041322   3.323403   4.173650   3.871394
     7  H    1.019160   2.043764   2.713719   3.203267   3.506274
     8  H    2.084041   1.095079   2.137403   3.199472   2.514005
     9  H    2.176209   1.100999   2.118954   2.568420   3.260873
    10  H    3.817973   3.215876   1.876022   2.284409   0.975866
                    6          7          8          9         10
     6  H    0.000000
     7  H    1.631891   0.000000
     8  H    2.340599   2.930839   0.000000
     9  H    2.508912   2.423064   1.783510   0.000000
    10  H    4.738752   4.142096   3.444918   3.966264   0.000000
 Stoichiometry    C2H5NO2
 Framework group  C1[X(C2H5NO2)]
 Deg. of freedom    24
 Full point group                 C1      NOp   1
 RotChk:  IX=3 Diff= 4.64D-02
 Largest Abelian subgroup         C1      NOp   1
 Largest concise Abelian subgroup C1      NOp   1
                         Standard orientation:                         
 ---------------------------------------------------------------------
 Center     Atomic      Atomic             Coordinates (Angstroms)
 Number     Number       Type             X           Y           Z
 ---------------------------------------------------------------------
      1          7           0        1.764130   -0.166653   -0.473995
      2          6           0        0.843394    0.152752    0.618651
      3          6           0       -0.586708    0.122551    0.099692
      4          8           0       -1.239573    1.101338   -0.189821
      5          8           0       -1.056259   -1.139579   -0.034730
      6          1           0        2.709845   -0.245647   -0.105664
      7          1           0        1.777806    0.602531   -1.142469
      8          1           0        0.948233   -0.617521    1.389941
      9          1           0        0.989749    1.139256    1.085115
     10          1           0       -1.947997   -1.057937   -0.422611
 ---------------------------------------------------------------------
 Rotational constants (GHZ):           8.8321940           3.9507126           3.1786960
 Leave Link  202 at Fri Mar 14 15:41:45 2025, MaxMem=  8589934592 cpu:               0.4 elap:               0.2
 (Enter /home/enzo/gaussian_versions/gdv.j21/gdv/l301.exe)
 Standard basis: 6-31G(d) (6D, 7F)
 Ernie: Thresh=  0.10000D-02 Tol=  0.10000D-05 Strict=F.
 There are    85 symmetry adapted cartesian basis functions of A   symmetry.
 There are    85 symmetry adapted basis functions of A   symmetry.
    85 basis functions,   160 primitive gaussians,    85 cartesian basis functions
    20 alpha electrons       20 beta electrons
       nuclear repulsion energy       178.7279536725 Hartrees.
 IExCor=      4002 DFT=T Ex+Corr=B3LYP ScaHFX=  0.200000
 ScaDFX=  0.800000  0.720000  1.000000  0.810000  1.000000  0.000000
 ScaDFX=  0.000000  0.000000  0.000000  0.000000  0.000000  0.000000
 IRadAn=      5 IRanWt=     -1 IRanGd=            0 ICorTp=0 IEmpDi=  4
 NAtoms=   10 NActive=   10 NUniq=   10 SFac= 1.00D+00 NAtFMM=   60 NAOKFM=F Big=F
 Integral buffers will be    131072 words long.
 Raffenetti 2 integral format.
 Two-electron integral symmetry is turned on.
 Leave Link  301 at Fri Mar 14 15:41:45 2025, MaxMem=  8589934592 cpu:               0.3 elap:               0.2
 (Enter /home/enzo/gaussian_versions/gdv.j21/gdv/l302.exe)
 NPDir=0 NMtPBC=     1 NCelOv=     1 NCel=       1 NClECP=     1 NCelD=      1
         NCelK=      1 NCelE2=     1 NClLst=     1 CellRange=     0.0.
 One-electron integrals computed using PRISM.
 One-electron integral symmetry used in STVInt
 NBasis=    85 RedAO= T EigKep=  4.14D-03  NBF=    85
 NBsUse=    85 1.00D-06 EigRej= -1.00D+00 NBFU=    85
 Precomputing XC quadrature grid using
 IXCGrd= 4 IRadAn=           5 IRanWt=          -1 IRanGd=           0 AccXCQ= 0.00D+00.
 Generated NRdTot=       0 NPtTot=      219750 NUsed=           0 NTot=          64
 NSgBfM=    85    85    85    85    85 MxSgAt=    10 MxSgA2=    10 SizInc=   0.000
 NMBTot=     1958 MaxBatPerAtom=       83 MaxMicBPerAtom=      208 NBfPt=            16010409.
 Leave Link  302 at Fri Mar 14 15:41:46 2025, MaxMem=  8589934592 cpu:               0.8 elap:               0.2
 (Enter /home/enzo/gaussian_versions/gdv.j21/gdv/l303.exe)
 DipDrv:  MaxL=1.
 Leave Link  303 at Fri Mar 14 15:41:46 2025, MaxMem=  8589934592 cpu:               0.2 elap:               0.1
 (Enter /home/enzo/gaussian_versions/gdv.j21/gdv/l401.exe)
 Initial guess from the checkpoint file:  "/local/home/enzo/scratch/Gau-2409754.chk"
 B after Tr=     0.000000   -0.000000   -0.000000
         Rot=    0.999931   -0.010756   -0.000533    0.004792 Ang=  -1.35 deg.
 AO Guess basis will be translated and rotated to current coordinates.
 JPrj=2 DoOrth=T DoCkMO=T.
 Generating alternative initial guess.
 ExpMin= 1.61D-01 ExpMax= 5.48D+03 ExpMxC= 8.25D+02 IAcc=3 IRadAn=         5 AccDes= 0.00D+00
 Harris functional with IExCor= 4002 and IRadAn=       5 diagonalized for initial guess.
 HarFok:  IExCor=    4002 AccDes= 0.00D+00 IRadAn=         5 IDoV= 1 UseB2=F ITyADJ=14 ICtDFT=  3500011
 FoFCou: FMM=F IPFlag=           0 FMFlag=      100000 FMFlg1=           0
         NFxFlg=           0 DoJE=T BraDBF=F KetDBF=T FulRan=T
         wScrn=  0.000000 ICntrl=       500 IOpCl=  0 I1Cent=   200000004 NGrid=           0
         NMat0=    1 NMatS0=      1 NMatT0=    0 NMatD0=    1 NMtDS0=    0 NMtDT0=    0
 Petite list used in FoFCou.
 Harris En= -284.437826013559    
 Leave Link  401 at Fri Mar 14 15:41:46 2025, MaxMem=  8589934592 cpu:               2.8 elap:               0.3
 (Enter /home/enzo/gaussian_versions/gdv.j21/gdv/l502.exe)
 Keep R1 ints in memory in canonical form, NReq=17617987.
 FoFCou: FMM=F IPFlag=           0 FMFlag=           0 FMFlg1=           0
         NFxFlg=           0 DoJE=F BraDBF=F KetDBF=F FulRan=T
         wScrn=  0.000000 ICntrl=       600 IOpCl=  0 I1Cent=           0 NGrid=           0
         NMat0=    1 NMatS0=   3655 NMatT0=    0 NMatD0=    1 NMtDS0=    0 NMtDT0=    0
 Symmetry not used in FoFCou.
 Two-electron integral symmetry not used.
 Closed shell SCF:
 Using DIIS extrapolation, IDIIS=  1040.
 NGot=  8589934592 LenX=  8583230350 LenY=  8583222684
 Requested convergence on RMS density matrix=1.00D-08 within 128 cycles.
 Requested convergence on MAX density matrix=1.00D-06.
 Requested convergence on             energy=1.00D-06.
 No special actions if energy rises.
 Integral accuracy reduced to 1.0D-05 until final iterations.

 Cycle   1  Pass 0  IDiag  1:
 E= -284.414864182719    
 DIIS: error= 1.16D-03 at cycle   1 NSaved=   1.
 NSaved= 1 IEnMin= 1 EnMin= -284.414864182719     IErMin= 1 ErrMin= 1.16D-03
 ErrMax= 1.16D-03  0.00D+00 EMaxC= 1.00D-01 BMatC= 3.90D-04 BMatP= 3.90D-04
 IDIUse=3 WtCom= 9.88D-01 WtEn= 1.16D-02
 Coeff-Com:  0.100D+01
 Coeff-En:   0.100D+01
 Coeff:      0.100D+01
 Gap=     1.594 Goal=   None    Shift=    0.000
 GapD=    1.594 DampG=2.000 DampE=1.000 DampFc=2.0000 IDamp=-1.
 RMSDP=4.06D-04 MaxDP=6.18D-03              OVMax= 8.19D-03

 Cycle   2  Pass 0  IDiag  1:
 E= -284.415590967675     Delta-E=       -0.000726784956 Rises=F Damp=F
 DIIS: error= 1.35D-04 at cycle   2 NSaved=   2.
 NSaved= 2 IEnMin= 2 EnMin= -284.415590967675     IErMin= 2 ErrMin= 1.35D-04
 ErrMax= 1.35D-04  0.00D+00 EMaxC= 1.00D-01 BMatC= 4.71D-06 BMatP= 3.90D-04
 IDIUse=3 WtCom= 9.99D-01 WtEn= 1.35D-03
 Coeff-Com: -0.752D-01 0.108D+01
 Coeff-En:   0.000D+00 0.100D+01
 Coeff:     -0.751D-01 0.108D+01
 Gap=     0.249 Goal=   None    Shift=    0.000
 RMSDP=5.49D-05 MaxDP=9.44D-04 DE=-7.27D-04 OVMax= 1.53D-03

 Cycle   3  Pass 0  IDiag  1:
 E= -284.415599180701     Delta-E=       -0.000008213026 Rises=F Damp=F
 DIIS: error= 7.14D-05 at cycle   3 NSaved=   3.
 NSaved= 3 IEnMin= 3 EnMin= -284.415599180701     IErMin= 3 ErrMin= 7.14D-05
 ErrMax= 7.14D-05  0.00D+00 EMaxC= 1.00D-01 BMatC= 1.15D-06 BMatP= 4.71D-06
 IDIUse=1 WtCom= 1.00D+00 WtEn= 0.00D+00
 Coeff-Com: -0.332D-01 0.396D+00 0.637D+00
 Coeff:     -0.332D-01 0.396D+00 0.637D+00
 Gap=     0.249 Goal=   None    Shift=    0.000
 RMSDP=1.55D-05 MaxDP=3.05D-04 DE=-8.21D-06 OVMax= 5.17D-04

 Cycle   4  Pass 0  IDiag  1:
 E= -284.415599591719     Delta-E=       -0.000000411017 Rises=F Damp=F
 DIIS: error= 7.54D-05 at cycle   4 NSaved=   4.
 NSaved= 4 IEnMin= 4 EnMin= -284.415599591719     IErMin= 3 ErrMin= 7.14D-05
 ErrMax= 7.54D-05  0.00D+00 EMaxC= 1.00D-01 BMatC= 7.16D-07 BMatP= 1.15D-06
 IDIUse=1 WtCom= 1.00D+00 WtEn= 0.00D+00
 Coeff-Com: -0.143D-01 0.154D+00 0.438D+00 0.421D+00
 Coeff:     -0.143D-01 0.154D+00 0.438D+00 0.421D+00
 Gap=     0.249 Goal=   None    Shift=    0.000
 RMSDP=8.34D-06 MaxDP=2.11D-04 DE=-4.11D-07 OVMax= 3.32D-04

 Initial convergence to 1.0D-05 achieved.  Increase integral accuracy.
 Cycle   5  Pass 1  IDiag  1:
 E= -284.415595904493     Delta-E=        0.000003687226 Rises=F Damp=F
 DIIS: error= 1.33D-05 at cycle   1 NSaved=   1.
 NSaved= 1 IEnMin= 1 EnMin= -284.415595904493     IErMin= 1 ErrMin= 1.33D-05
 ErrMax= 1.33D-05  0.00D+00 EMaxC= 1.00D-01 BMatC= 2.98D-08 BMatP= 2.98D-08
 IDIUse=1 WtCom= 1.00D+00 WtEn= 0.00D+00
 Coeff-Com:  0.100D+01
 Coeff:      0.100D+01
 Gap=     0.249 Goal=   None    Shift=    0.000
 RMSDP=8.34D-06 MaxDP=2.11D-04 DE= 3.69D-06 OVMax= 1.74D-04

 Cycle   6  Pass 1  IDiag  1:
 E= -284.415595841845     Delta-E=        0.000000062648 Rises=F Damp=F
 DIIS: error= 3.07D-05 at cycle   2 NSaved=   2.
 NSaved= 2 IEnMin= 1 EnMin= -284.415595904493     IErMin= 1 ErrMin= 1.33D-05
 ErrMax= 3.07D-05  0.00D+00 EMaxC= 1.00D-01 BMatC= 1.15D-07 BMatP= 2.98D-08
 IDIUse=1 WtCom= 1.00D+00 WtEn= 0.00D+00
 Coeff-Com:  0.667D+00 0.333D+00
 Coeff:      0.667D+00 0.333D+00
 Gap=     0.249 Goal=   None    Shift=    0.000
 RMSDP=3.25D-06 MaxDP=7.40D-05 DE= 6.26D-08 OVMax= 1.32D-04

 Cycle   7  Pass 1  IDiag  1:
 E= -284.415595928468     Delta-E=       -0.000000086623 Rises=F Damp=F
 DIIS: error= 2.85D-06 at cycle   3 NSaved=   3.
 NSaved= 3 IEnMin= 3 EnMin= -284.415595928468     IErMin= 3 ErrMin= 2.85D-06
 ErrMax= 2.85D-06  0.00D+00 EMaxC= 1.00D-01 BMatC= 1.68D-09 BMatP= 2.98D-08
 IDIUse=1 WtCom= 1.00D+00 WtEn= 0.00D+00
 Coeff-Com:  0.292D+00 0.175D+00 0.533D+00
 Coeff:      0.292D+00 0.175D+00 0.533D+00
 Gap=     0.249 Goal=   None    Shift=    0.000
 RMSDP=4.26D-07 MaxDP=6.90D-06 DE=-8.66D-08 OVMax= 1.05D-05

 Cycle   8  Pass 1  IDiag  1:
 E= -284.415595929773     Delta-E=       -0.000000001305 Rises=F Damp=F
 DIIS: error= 7.72D-07 at cycle   4 NSaved=   4.
 NSaved= 4 IEnMin= 4 EnMin= -284.415595929773     IErMin= 4 ErrMin= 7.72D-07
 ErrMax= 7.72D-07  0.00D+00 EMaxC= 1.00D-01 BMatC= 9.01D-11 BMatP= 1.68D-09
 IDIUse=1 WtCom= 1.00D+00 WtEn= 0.00D+00
 Coeff-Com:  0.720D-01 0.496D-01 0.233D+00 0.646D+00
 Coeff:      0.720D-01 0.496D-01 0.233D+00 0.646D+00
 Gap=     0.249 Goal=   None    Shift=    0.000
 RMSDP=1.19D-07 MaxDP=2.25D-06 DE=-1.30D-09 OVMax= 2.60D-06

 Cycle   9  Pass 1  IDiag  1:
 E= -284.415595929841     Delta-E=       -0.000000000068 Rises=F Damp=F
 DIIS: error= 2.81D-07 at cycle   5 NSaved=   5.
 NSaved= 5 IEnMin= 5 EnMin= -284.415595929841     IErMin= 5 ErrMin= 2.81D-07
 ErrMax= 2.81D-07  0.00D+00 EMaxC= 1.00D-01 BMatC= 1.53D-11 BMatP= 9.01D-11
 IDIUse=1 WtCom= 1.00D+00 WtEn= 0.00D+00
 Coeff-Com: -0.184D-01-0.727D-02 0.165D-01 0.319D+00 0.690D+00
 Coeff:     -0.184D-01-0.727D-02 0.165D-01 0.319D+00 0.690D+00
 Gap=     0.249 Goal=   None    Shift=    0.000
 RMSDP=4.77D-08 MaxDP=6.08D-07 DE=-6.81D-11 OVMax= 1.20D-06

 Cycle  10  Pass 1  IDiag  1:
 E= -284.415595929854     Delta-E=       -0.000000000013 Rises=F Damp=F
 DIIS: error= 8.96D-08 at cycle   6 NSaved=   6.
 NSaved= 6 IEnMin= 6 EnMin= -284.415595929854     IErMin= 6 ErrMin= 8.96D-08
 ErrMax= 8.96D-08  0.00D+00 EMaxC= 1.00D-01 BMatC= 1.04D-12 BMatP= 1.53D-11
 IDIUse=1 WtCom= 1.00D+00 WtEn= 0.00D+00
 Coeff-Com: -0.135D-01-0.652D-02-0.402D-02 0.131D+00 0.347D+00 0.546D+00
 Coeff:     -0.135D-01-0.652D-02-0.402D-02 0.131D+00 0.347D+00 0.546D+00
 Gap=     0.249 Goal=   None    Shift=    0.000
 RMSDP=1.09D-08 MaxDP=2.04D-07 DE=-1.30D-11 OVMax= 1.84D-07

 Cycle  11  Pass 1  IDiag  1:
 E= -284.415595929855     Delta-E=       -0.000000000002 Rises=F Damp=F
 DIIS: error= 1.27D-08 at cycle   7 NSaved=   7.
 NSaved= 7 IEnMin= 7 EnMin= -284.415595929855     IErMin= 7 ErrMin= 1.27D-08
 ErrMax= 1.27D-08  0.00D+00 EMaxC= 1.00D-01 BMatC= 4.50D-14 BMatP= 1.04D-12
 IDIUse=1 WtCom= 1.00D+00 WtEn= 0.00D+00
 Coeff-Com: -0.522D-02-0.263D-02-0.283D-02 0.405D-01 0.116D+00 0.243D+00
 Coeff-Com:  0.611D+00
 Coeff:     -0.522D-02-0.263D-02-0.283D-02 0.405D-01 0.116D+00 0.243D+00
 Coeff:      0.611D+00
 Gap=     0.249 Goal=   None    Shift=    0.000
 RMSDP=2.46D-09 MaxDP=4.18D-08 DE=-1.59D-12 OVMax= 5.28D-08

 SCF Done:  E(RB3LYP) =  -284.415595930     A.U. after   11 cycles
            NFock= 11  Conv=0.25D-08     -V/T= 2.0089
 KE= 2.819179297038D+02 PE=-1.023784782218D+03 EE= 2.787233029122D+02
 Leave Link  502 at Fri Mar 14 15:41:47 2025, MaxMem=  8589934592 cpu:              12.6 elap:               1.3
 (Enter /home/enzo/gaussian_versions/gdv.j21/gdv/l701.exe)
 ... and contract with generalized density number  0.
 Compute integral first derivatives.
 Leave Link  701 at Fri Mar 14 15:41:48 2025, MaxMem=  8589934592 cpu:               2.2 elap:               0.4
 (Enter /home/enzo/gaussian_versions/gdv.j21/gdv/l702.exe)
 L702 exits ... SP integral derivatives will be done elsewhere.
 Leave Link  702 at Fri Mar 14 15:41:48 2025, MaxMem=  8589934592 cpu:               0.2 elap:               0.2
 (Enter /home/enzo/gaussian_versions/gdv.j21/gdv/l703.exe)
 Integral derivatives from FoFJK, PRISM(SPDF).
 Compute integral first derivatives, UseDBF=F ICtDFT=           0.
 Calling FoFJK, ICntrl=      2127 FMM=F ISym2X=0 I1Cent= 0 IOpClX= 0 NMat=1 NMatS=1 NMatT=0.
 FoFJK:  IHMeth= 1 ICntrl=    2127 DoSepK=F KAlg= 0 I1Cent=           0 FoldK=F
 IRaf=         0 NMat=       1 IRICut=       1 DoRegI=T DoRafI=F ISym2E= 0 IDoP0=0 IntGTp=1.
 FoFCou: FMM=F IPFlag=           0 FMFlag=      100000 FMFlg1=         800
         NFxFlg=           0 DoJE=F BraDBF=F KetDBF=F FulRan=T
         wScrn=  0.000000 ICntrl=      2127 IOpCl=  0 I1Cent=           0 NGrid=           0
         NMat0=    1 NMatS0=      1 NMatT0=    0 NMatD0=    1 NMtDS0=    0 NMtDT0=    0
 Symmetry not used in FoFCou.
 Leave Link  703 at Fri Mar 14 15:41:48 2025, MaxMem=  8589934592 cpu:               3.6 elap:               0.5
 (Enter /home/enzo/gaussian_versions/gdv.j21/gdv/l716.exe)
 Dipole        = 5.15178904D-01-8.09557301D-02 2.48136544D-01
 ***** Axes restored to original set *****
 -------------------------------------------------------------------
 Center     Atomic                   Forces (Hartrees/Bohr)
 Number     Number              X              Y              Z
 -------------------------------------------------------------------
      1        7          -0.001000718    0.000107223   -0.001860889
      2        6           0.001437240   -0.000453708    0.002413644
      3        6           0.000658955    0.001375852   -0.000541459
      4        8          -0.000302017   -0.000115635   -0.000368466
      5        8          -0.000623926   -0.000775424    0.000049958
      6        1           0.000161537    0.000181510   -0.000142156
      7        1          -0.000219266   -0.000044679    0.000330491
      8        1          -0.000290674   -0.000283643   -0.000130580
      9        1           0.000047756    0.000290854   -0.000069232
     10        1           0.000131114   -0.000282349    0.000318690
 -------------------------------------------------------------------
 Cartesian Forces:  Max     0.002413644 RMS     0.000755811
 Leave Link  716 at Fri Mar 14 15:41:49 2025, MaxMem=  8589934592 cpu:               0.1 elap:               0.2
 (Enter /home/enzo/gaussian_versions/gdv.j21/gdv/l103.exe)

 GradGradGradGradGradGradGradGradGradGradGradGradGradGradGradGradGradGrad
 Berny optimization.
 Using GEDIIS/GDIIS optimizer.
 FormGI is forming the generalized inverse of G from B-inverse, IUseBI=4.
 Internal  Forces:  Max     0.001921658 RMS     0.000454942
 Search for a local minimum.
 Step number   8 out of a maximum of   46
 All quantities printed in internal units (Hartrees-Bohrs-Radians)
 RMS Force = .45494D-03 SwitMx=.10000D-02 MixMth= 2
 Mixed Optimization -- En-DIIS/RFO-DIIS
 Swapping is turned off.
 Update second derivatives using D2CorX and points    5    6    7    8
 DE= -1.80D-05 DEPred=-1.73D-05 R= 1.04D+00
 TightC=F SS=  1.41D+00  RLast= 1.42D-01 DXNew= 1.6344D+00 4.2500D-01
 Trust test= 1.04D+00 RLast= 1.42D-01 DXMaxT set to 9.72D-01
 ITU=  1  1  1  1  0  1  1  0
     Eigenvalues ---    0.00110   0.00982   0.02533   0.04345   0.04574
     Eigenvalues ---    0.05805   0.06606   0.09805   0.13344   0.15861
     Eigenvalues ---    0.16118   0.16777   0.22279   0.23421   0.26230
     Eigenvalues ---    0.31880   0.32614   0.32791   0.40547   0.41014
     Eigenvalues ---    0.42291   0.47068   0.53476   0.84371
 En-DIIS/RFO-DIIS/Sim-DIIS IScMMF=       -3 using points:     8    7    6    5    4
 RFO step:  Lambda=-5.77684115D-05.
 NNeg= 0 NGDIIS= 5 SimSw=  2.50D-01 Rises=F DC= -1.80D-05 SmlDif=  1.00D-05
 NRisDI= 0 DoIntr=F SqrtH=F CThrHd= 10.0 CDAdj=  3.0
 RMS Error=  0.1708219935D-01 NUsed= 5 OKEnD=T EnDIS=F
 InvSVX:  RCond= 4.81D-07 Info=           0 Equed=N FErr=  3.93D-11 BErr=  8.90D-17
 Old DIIS coefficients:     -6.04080      9.38953     -0.84452     -0.34505     -1.15915
 DidBck=TT Rises=F RFO-DIIS coefs:   -1.33299    3.00000   -0.23983   -0.09799   -0.32918
 Iteration  1 RMS(Cart)=  0.01146994 RMS(Int)=  0.00011393
 Iteration  2 RMS(Cart)=  0.00009131 RMS(Int)=  0.00006344
 Iteration  3 RMS(Cart)=  0.00000000 RMS(Int)=  0.00006344
 Variable       Old X    -DE/DX   Delta X   Delta X   Delta X     New X
                                 (Linear)    (Quad)   (Total)
    R1        2.76679   0.00192  -0.00346   0.00461   0.00115   2.76794
    R2        1.92370  -0.00020   0.00020  -0.00007   0.00014   1.92384
    R3        1.92593  -0.00021   0.00021  -0.00008   0.00014   1.92607
    R4        2.87550   0.00009   0.00111  -0.00246  -0.00135   2.87415
    R5        2.06940  -0.00025   0.00035  -0.00037  -0.00002   2.06938
    R6        2.08059  -0.00030   0.00044  -0.00023   0.00022   2.08080
    R7        2.28967   0.00006  -0.00029   0.00041   0.00012   2.28979
    R8        2.55744  -0.00116   0.00203  -0.00324  -0.00121   2.55622
    R9        1.84412  -0.00002   0.00018  -0.00043  -0.00025   1.84387
    A1        1.90830   0.00018   0.00036  -0.00158  -0.00125   1.90704
    A2        1.91058  -0.00009   0.00236  -0.00463  -0.00231   1.90827
    A3        1.85816  -0.00009   0.00146  -0.00299  -0.00160   1.85655
    A4        1.90941  -0.00078   0.00321  -0.00540  -0.00218   1.90723
    A5        1.88806   0.00029  -0.00097   0.00008  -0.00089   1.88717
    A6        2.01313  -0.00001   0.00189  -0.00170   0.00020   2.01333
    A7        1.89254   0.00038  -0.00409   0.00703   0.00292   1.89547
    A8        1.86211   0.00031  -0.00117   0.00192   0.00075   1.86286
    A9        1.89559  -0.00016   0.00073  -0.00126  -0.00055   1.89505
   A10        2.17958  -0.00026   0.00219  -0.00334  -0.00135   2.17822
   A11        1.95894   0.00001  -0.00168   0.00331   0.00142   1.96036
   A12        2.14444   0.00025   0.00013  -0.00010  -0.00017   2.14426
   A13        1.85303  -0.00042  -0.00143   0.00327   0.00184   1.85487
    D1       -3.03531  -0.00001   0.00390  -0.02926  -0.02534  -3.06066
    D2       -0.97691   0.00018   0.00021  -0.02380  -0.02357  -1.00047
    D3        1.14916   0.00018   0.00170  -0.02653  -0.02481   1.12435
    D4        1.21854   0.00005   0.00077  -0.02215  -0.02141   1.19714
    D5       -3.00624   0.00024  -0.00292  -0.01669  -0.01963  -3.02587
    D6       -0.88017   0.00024  -0.00143  -0.01942  -0.02088  -0.90105
    D7       -1.76167   0.00032  -0.02751   0.04559   0.01808  -1.74359
    D8        1.35715   0.00043  -0.02623   0.03963   0.01339   1.37054
    D9        2.46591   0.00019  -0.02580   0.04449   0.01870   2.48461
   D10       -0.69845   0.00030  -0.02452   0.03853   0.01401  -0.68444
   D11        0.42710   0.00003  -0.02395   0.04141   0.01746   0.44456
   D12       -2.73727   0.00014  -0.02267   0.03545   0.01277  -2.72449
   D13       -3.08001  -0.00039   0.00160   0.00231   0.00391  -3.07610
   D14        0.03934  -0.00029   0.00286  -0.00356  -0.00069   0.03866
         Item               Value     Threshold  Converged?
 Maximum Force            0.001922     0.000450     NO 
 RMS     Force            0.000455     0.000300     NO 
 Maximum Displacement     0.037078     0.001800     NO 
 RMS     Displacement     0.011473     0.001200     NO 
 Predicted change in Energy=-1.612276D-06
 Lowest energy point so far.  Saving SCF results.
 GradGradGradGradGradGradGradGradGradGradGradGradGradGradGradGradGradGrad

 Leave Link  103 at Fri Mar 14 15:41:49 2025, MaxMem=  8589934592 cpu:               0.4 elap:               0.2
 (Enter /home/enzo/gaussian_versions/gdv.j21/gdv/l202.exe)
                          Input orientation:                          
 ---------------------------------------------------------------------
 Center     Atomic      Atomic             Coordinates (Angstroms)
 Number     Number       Type             X           Y           Z
 ---------------------------------------------------------------------
      1          7           0       -1.879541    0.206181   -0.391385
      2          6           0       -0.904714   -0.227381    0.612196
      3          6           0        0.497400   -0.106037    0.035486
      4          8           0        1.140637   -1.027170   -0.418367
      5          8           0        0.950547    1.168411    0.050501
      6          1           0       -2.810907    0.198248    0.019620
      7          1           0       -1.897608   -0.466432   -1.156958
      8          1           0       -0.985859    0.440004    1.476597
      9          1           0       -1.015853   -1.266360    0.959503
     10          1           0        1.821277    1.154258   -0.389600
 ---------------------------------------------------------------------
                    Distance matrix (angstroms):
                    1          2          3          4          5
     1  N    0.000000
     2  C    1.464731   0.000000
     3  C    2.435066   1.520935   0.000000
     4  O    3.262416   2.425940   1.211702   0.000000
     5  O    3.021679   2.388667   1.352695   2.253119   0.000000
     6  H    1.018053   2.041048   3.322309   4.160311   3.884676
     7  H    1.019233   2.042764   2.699605   3.176614   3.498950
     8  H    2.083914   1.095069   2.138930   3.203978   2.512767
     9  H    2.176977   1.101114   2.118984   2.570251   3.259007
    10  H    3.820327   3.216138   1.876616   2.285328   0.975735
                    6          7          8          9         10
     6  H    0.000000
     7  H    1.631028   0.000000
     8  H    2.347771   2.930618   0.000000
     9  H    2.500135   2.428329   1.783245   0.000000
    10  H    4.747477   4.128628   3.445702   3.965952   0.000000
 Stoichiometry    C2H5NO2
 Framework group  C1[X(C2H5NO2)]
 Deg. of freedom    24
 Full point group                 C1      NOp   1
 RotChk:  IX=3 Diff= 2.18D-02
 Largest Abelian subgroup         C1      NOp   1
 Largest concise Abelian subgroup C1      NOp   1
                         Standard orientation:                         
 ---------------------------------------------------------------------
 Center     Atomic      Atomic             Coordinates (Angstroms)
 Number     Number       Type             X           Y           Z
 ---------------------------------------------------------------------
      1          7           0        1.762158   -0.164895   -0.477809
      2          6           0        0.843952    0.136853    0.622774
      3          6           0       -0.585228    0.122023    0.102710
      4          8           0       -1.226948    1.108904   -0.184489
      5          8           0       -1.066460   -1.133934   -0.041423
      6          1           0        2.711092   -0.230947   -0.115053
      7          1           0        1.761072    0.609727   -1.140226
      8          1           0        0.948712   -0.648325    1.378881
      9          1           0        0.994578    1.113657    1.108178
     10          1           0       -1.955643   -1.042863   -0.432727
 ---------------------------------------------------------------------
 Rotational constants (GHZ):           8.8212300           3.9553120           3.1851129
 Leave Link  202 at Fri Mar 14 15:41:49 2025, MaxMem=  8589934592 cpu:               0.3 elap:               0.2
 (Enter /home/enzo/gaussian_versions/gdv.j21/gdv/l301.exe)
 Standard basis: 6-31G(d) (6D, 7F)
 Ernie: Thresh=  0.10000D-02 Tol=  0.10000D-05 Strict=F.
 There are    85 symmetry adapted cartesian basis functions of A   symmetry.
 There are    85 symmetry adapted basis functions of A   symmetry.
    85 basis functions,   160 primitive gaussians,    85 cartesian basis functions
    20 alpha electrons       20 beta electrons
       nuclear repulsion energy       178.7775159491 Hartrees.
 IExCor=      4002 DFT=T Ex+Corr=B3LYP ScaHFX=  0.200000
 ScaDFX=  0.800000  0.720000  1.000000  0.810000  1.000000  0.000000
 ScaDFX=  0.000000  0.000000  0.000000  0.000000  0.000000  0.000000
 IRadAn=      5 IRanWt=     -1 IRanGd=            0 ICorTp=0 IEmpDi=  4
 NAtoms=   10 NActive=   10 NUniq=   10 SFac= 1.00D+00 NAtFMM=   60 NAOKFM=F Big=F
 Integral buffers will be    131072 words long.
 Raffenetti 2 integral format.
 Two-electron integral symmetry is turned on.
 Leave Link  301 at Fri Mar 14 15:41:49 2025, MaxMem=  8589934592 cpu:               0.6 elap:               0.2
 (Enter /home/enzo/gaussian_versions/gdv.j21/gdv/l302.exe)
 NPDir=0 NMtPBC=     1 NCelOv=     1 NCel=       1 NClECP=     1 NCelD=      1
         NCelK=      1 NCelE2=     1 NClLst=     1 CellRange=     0.0.
 One-electron integrals computed using PRISM.
 One-electron integral symmetry used in STVInt
 NBasis=    85 RedAO= T EigKep=  4.14D-03  NBF=    85
 NBsUse=    85 1.00D-06 EigRej= -1.00D+00 NBFU=    85
 Precomputing XC quadrature grid using
 IXCGrd= 4 IRadAn=           5 IRanWt=          -1 IRanGd=           0 AccXCQ= 0.00D+00.
 Generated NRdTot=       0 NPtTot=      219551 NUsed=           0 NTot=          64
 NSgBfM=    85    85    85    85    85 MxSgAt=    10 MxSgA2=    10 SizInc=   0.000
 NMBTot=     1958 MaxBatPerAtom=       83 MaxMicBPerAtom=      202 NBfPt=            16010890.
 Leave Link  302 at Fri Mar 14 15:41:50 2025, MaxMem=  8589934592 cpu:               1.0 elap:               0.3
 (Enter /home/enzo/gaussian_versions/gdv.j21/gdv/l303.exe)
 DipDrv:  MaxL=1.
 Leave Link  303 at Fri Mar 14 15:41:50 2025, MaxMem=  8589934592 cpu:               0.4 elap:               0.2
 (Enter /home/enzo/gaussian_versions/gdv.j21/gdv/l401.exe)
 Initial guess from the checkpoint file:  "/local/home/enzo/scratch/Gau-2409754.chk"
 B after Tr=    -0.000000    0.000000    0.000000
         Rot=    0.999984   -0.005078   -0.000295    0.002366 Ang=  -0.64 deg.
 AO Guess basis will be translated and rotated to current coordinates.
 JPrj=2 DoOrth=T DoCkMO=T.
 Generating alternative initial guess.
 ExpMin= 1.61D-01 ExpMax= 5.48D+03 ExpMxC= 8.25D+02 IAcc=3 IRadAn=         5 AccDes= 0.00D+00
 Harris functional with IExCor= 4002 and IRadAn=       5 diagonalized for initial guess.
 HarFok:  IExCor=    4002 AccDes= 0.00D+00 IRadAn=         5 IDoV= 1 UseB2=F ITyADJ=14 ICtDFT=  3500011
 FoFCou: FMM=F IPFlag=           0 FMFlag=      100000 FMFlg1=           0
         NFxFlg=           0 DoJE=T BraDBF=F KetDBF=T FulRan=T
         wScrn=  0.000000 ICntrl=       500 IOpCl=  0 I1Cent=   200000004 NGrid=           0
         NMat0=    1 NMatS0=      1 NMatT0=    0 NMatD0=    1 NMtDS0=    0 NMtDT0=    0
 Petite list used in FoFCou.
 Harris En= -284.437773802323    
 Leave Link  401 at Fri Mar 14 15:41:50 2025, MaxMem=  8589934592 cpu:               2.7 elap:               0.4
 (Enter /home/enzo/gaussian_versions/gdv.j21/gdv/l502.exe)
 Keep R1 ints in memory in canonical form, NReq=17617987.
 FoFCou: FMM=F IPFlag=           0 FMFlag=           0 FMFlg1=           0
         NFxFlg=           0 DoJE=F BraDBF=F KetDBF=F FulRan=T
         wScrn=  0.000000 ICntrl=       600 IOpCl=  0 I1Cent=           0 NGrid=           0
         NMat0=    1 NMatS0=   3655 NMatT0=    0 NMatD0=    1 NMtDS0=    0 NMtDT0=    0
 Symmetry not used in FoFCou.
 Two-electron integral symmetry not used.
 Closed shell SCF:
 Using DIIS extrapolation, IDIIS=  1040.
 NGot=  8589934592 LenX=  8583230350 LenY=  8583222684
 Requested convergence on RMS density matrix=1.00D-08 within 128 cycles.
 Requested convergence on MAX density matrix=1.00D-06.
 Requested convergence on             energy=1.00D-06.
 No special actions if energy rises.
 Integral accuracy reduced to 1.0D-05 until final iterations.

 Cycle   1  Pass 0  IDiag  1:
 E= -284.415427172197    
 DIIS: error= 5.93D-04 at cycle   1 NSaved=   1.
 NSaved= 1 IEnMin= 1 EnMin= -284.415427172197     IErMin= 1 ErrMin= 5.93D-04
 ErrMax= 5.93D-04  0.00D+00 EMaxC= 1.00D-01 BMatC= 9.35D-05 BMatP= 9.35D-05
 IDIUse=3 WtCom= 9.94D-01 WtEn= 5.93D-03
 Coeff-Com:  0.100D+01
 Coeff-En:   0.100D+01
 Coeff:      0.100D+01
 Gap=     1.593 Goal=   None    Shift=    0.000
 RMSDP=2.00D-04 MaxDP=3.23D-03              OVMax= 4.11D-03

 Cycle   2  Pass 0  IDiag  1:
 E= -284.415601312558     Delta-E=       -0.000174140361 Rises=F Damp=F
 DIIS: error= 6.99D-05 at cycle   2 NSaved=   2.
 NSaved= 2 IEnMin= 2 EnMin= -284.415601312558     IErMin= 2 ErrMin= 6.99D-05
 ErrMax= 6.99D-05  0.00D+00 EMaxC= 1.00D-01 BMatC= 1.23D-06 BMatP= 9.35D-05
 IDIUse=1 WtCom= 1.00D+00 WtEn= 0.00D+00
 Coeff-Com: -0.725D-01 0.107D+01
 Coeff:     -0.725D-01 0.107D+01
 Gap=     0.249 Goal=   None    Shift=    0.000
 RMSDP=2.83D-05 MaxDP=4.88D-04 DE=-1.74D-04 OVMax= 7.85D-04

 Cycle   3  Pass 0  IDiag  1:
 E= -284.415602913708     Delta-E=       -0.000001601150 Rises=F Damp=F
 DIIS: error= 6.34D-05 at cycle   3 NSaved=   3.
 NSaved= 3 IEnMin= 3 EnMin= -284.415602913708     IErMin= 3 ErrMin= 6.34D-05
 ErrMax= 6.34D-05  0.00D+00 EMaxC= 1.00D-01 BMatC= 8.65D-07 BMatP= 1.23D-06
 IDIUse=1 WtCom= 1.00D+00 WtEn= 0.00D+00
 Coeff-Com: -0.439D-01 0.551D+00 0.492D+00
 Coeff:     -0.439D-01 0.551D+00 0.492D+00
 Gap=     0.249 Goal=   None    Shift=    0.000
 RMSDP=1.18D-05 MaxDP=2.58D-04 DE=-1.60D-06 OVMax= 4.74D-04

 Cycle   4  Pass 0  IDiag  1:
 E= -284.415603382177     Delta-E=       -0.000000468469 Rises=F Damp=F
 DIIS: error= 5.13D-05 at cycle   4 NSaved=   4.
 NSaved= 4 IEnMin= 4 EnMin= -284.415603382177     IErMin= 4 ErrMin= 5.13D-05
 ErrMax= 5.13D-05  0.00D+00 EMaxC= 1.00D-01 BMatC= 2.66D-07 BMatP= 8.65D-07
 IDIUse=1 WtCom= 1.00D+00 WtEn= 0.00D+00
 Coeff-Com: -0.156D-01 0.170D+00 0.351D+00 0.495D+00
 Coeff:     -0.156D-01 0.170D+00 0.351D+00 0.495D+00
 Gap=     0.249 Goal=   None    Shift=    0.000
 RMSDP=5.10D-06 MaxDP=1.23D-04 DE=-4.68D-07 OVMax= 2.03D-04

 Initial convergence to 1.0D-05 achieved.  Increase integral accuracy.
 Cycle   5  Pass 1  IDiag  1:
 E= -284.415597809190     Delta-E=        0.000005572988 Rises=F Damp=F
 DIIS: error= 4.82D-06 at cycle   1 NSaved=   1.
 NSaved= 1 IEnMin= 1 EnMin= -284.415597809190     IErMin= 1 ErrMin= 4.82D-06
 ErrMax= 4.82D-06  0.00D+00 EMaxC= 1.00D-01 BMatC= 6.31D-09 BMatP= 6.31D-09
 IDIUse=1 WtCom= 1.00D+00 WtEn= 0.00D+00
 Coeff-Com:  0.100D+01
 Coeff:      0.100D+01
 Gap=     0.249 Goal=   None    Shift=    0.000
 RMSDP=5.10D-06 MaxDP=1.23D-04 DE= 5.57D-06 OVMax= 5.08D-05

 Cycle   6  Pass 1  IDiag  1:
 E= -284.415597803516     Delta-E=        0.000000005674 Rises=F Damp=F
 DIIS: error= 9.21D-06 at cycle   2 NSaved=   2.
 NSaved= 2 IEnMin= 1 EnMin= -284.415597809190     IErMin= 1 ErrMin= 4.82D-06
 ErrMax= 9.21D-06  0.00D+00 EMaxC= 1.00D-01 BMatC= 1.44D-08 BMatP= 6.31D-09
 IDIUse=1 WtCom= 1.00D+00 WtEn= 0.00D+00
 Coeff-Com:  0.607D+00 0.393D+00
 Coeff:      0.607D+00 0.393D+00
 Gap=     0.249 Goal=   None    Shift=    0.000
 RMSDP=1.30D-06 MaxDP=2.76D-05 DE= 5.67D-09 OVMax= 4.56D-05

 Cycle   7  Pass 1  IDiag  1:
 E= -284.415597814364     Delta-E=       -0.000000010848 Rises=F Damp=F
 DIIS: error= 2.24D-06 at cycle   3 NSaved=   3.
 NSaved= 3 IEnMin= 3 EnMin= -284.415597814364     IErMin= 3 ErrMin= 2.24D-06
 ErrMax= 2.24D-06  0.00D+00 EMaxC= 1.00D-01 BMatC= 8.63D-10 BMatP= 6.31D-09
 IDIUse=1 WtCom= 1.00D+00 WtEn= 0.00D+00
 Coeff-Com:  0.306D+00 0.247D+00 0.447D+00
 Coeff:      0.306D+00 0.247D+00 0.447D+00
 Gap=     0.249 Goal=   None    Shift=    0.000
 RMSDP=2.88D-07 MaxDP=5.36D-06 DE=-1.08D-08 OVMax= 1.07D-05

 Cycle   8  Pass 1  IDiag  1:
 E= -284.415597815002     Delta-E=       -0.000000000638 Rises=F Damp=F
 DIIS: error= 4.52D-07 at cycle   4 NSaved=   4.
 NSaved= 4 IEnMin= 4 EnMin= -284.415597815002     IErMin= 4 ErrMin= 4.52D-07
 ErrMax= 4.52D-07  0.00D+00 EMaxC= 1.00D-01 BMatC= 4.03D-11 BMatP= 8.63D-10
 IDIUse=1 WtCom= 1.00D+00 WtEn= 0.00D+00
 Coeff-Com:  0.566D-01 0.613D-01 0.206D+00 0.677D+00
 Coeff:      0.566D-01 0.613D-01 0.206D+00 0.677D+00
 Gap=     0.249 Goal=   None    Shift=    0.000
 RMSDP=8.03D-08 MaxDP=1.54D-06 DE=-6.38D-10 OVMax= 1.73D-06

 Cycle   9  Pass 1  IDiag  1:
 E= -284.415597815032     Delta-E=       -0.000000000030 Rises=F Damp=F
 DIIS: error= 1.56D-07 at cycle   5 NSaved=   5.
 NSaved= 5 IEnMin= 5 EnMin= -284.415597815032     IErMin= 5 ErrMin= 1.56D-07
 ErrMax= 1.56D-07  0.00D+00 EMaxC= 1.00D-01 BMatC= 6.30D-12 BMatP= 4.03D-11
 IDIUse=1 WtCom= 1.00D+00 WtEn= 0.00D+00
 Coeff-Com: -0.155D-01-0.444D-02 0.362D-01 0.339D+00 0.644D+00
 Coeff:     -0.155D-01-0.444D-02 0.362D-01 0.339D+00 0.644D+00
 Gap=     0.249 Goal=   None    Shift=    0.000
 RMSDP=3.10D-08 MaxDP=4.79D-07 DE=-3.01D-11 OVMax= 6.16D-07

 Cycle  10  Pass 1  IDiag  1:
 E= -284.415597815037     Delta-E=       -0.000000000005 Rises=F Damp=F
 DIIS: error= 2.77D-08 at cycle   6 NSaved=   6.
 NSaved= 6 IEnMin= 6 EnMin= -284.415597815037     IErMin= 6 ErrMin= 2.77D-08
 ErrMax= 2.77D-08  0.00D+00 EMaxC= 1.00D-01 BMatC= 1.81D-13 BMatP= 6.30D-12
 IDIUse=1 WtCom= 1.00D+00 WtEn= 0.00D+00
 Coeff-Com: -0.897D-02-0.442D-02 0.691D-02 0.116D+00 0.268D+00 0.622D+00
 Coeff:     -0.897D-02-0.442D-02 0.691D-02 0.116D+00 0.268D+00 0.622D+00
 Gap=     0.249 Goal=   None    Shift=    0.000
 RMSDP=5.22D-09 MaxDP=6.55D-08 DE=-5.46D-12 OVMax= 9.48D-08

 SCF Done:  E(RB3LYP) =  -284.415597815     A.U. after   10 cycles
            NFock= 10  Conv=0.52D-08     -V/T= 2.0089
 KE= 2.819198927769D+02 PE=-1.023879376721D+03 EE= 2.787663701802D+02
 Leave Link  502 at Fri Mar 14 15:41:51 2025, MaxMem=  8589934592 cpu:              10.1 elap:               1.2
 (Enter /home/enzo/gaussian_versions/gdv.j21/gdv/l701.exe)
 ... and contract with generalized density number  0.
 Compute integral first derivatives.
 Leave Link  701 at Fri Mar 14 15:41:52 2025, MaxMem=  8589934592 cpu:               1.4 elap:               0.3
 (Enter /home/enzo/gaussian_versions/gdv.j21/gdv/l702.exe)
 L702 exits ... SP integral derivatives will be done elsewhere.
 Leave Link  702 at Fri Mar 14 15:41:52 2025, MaxMem=  8589934592 cpu:               0.3 elap:               0.2
 (Enter /home/enzo/gaussian_versions/gdv.j21/gdv/l703.exe)
 Integral derivatives from FoFJK, PRISM(SPDF).
 Compute integral first derivatives, UseDBF=F ICtDFT=           0.
 Calling FoFJK, ICntrl=      2127 FMM=F ISym2X=0 I1Cent= 0 IOpClX= 0 NMat=1 NMatS=1 NMatT=0.
 FoFJK:  IHMeth= 1 ICntrl=    2127 DoSepK=F KAlg= 0 I1Cent=           0 FoldK=F
 IRaf=         0 NMat=       1 IRICut=       1 DoRegI=T DoRafI=F ISym2E= 0 IDoP0=0 IntGTp=1.
 FoFCou: FMM=F IPFlag=           0 FMFlag=      100000 FMFlg1=         800
         NFxFlg=           0 DoJE=F BraDBF=F KetDBF=F FulRan=T
         wScrn=  0.000000 ICntrl=      2127 IOpCl=  0 I1Cent=           0 NGrid=           0
         NMat0=    1 NMatS0=      1 NMatT0=    0 NMatD0=    1 NMtDS0=    0 NMtDT0=    0
 Symmetry not used in FoFCou.
 Leave Link  703 at Fri Mar 14 15:41:52 2025, MaxMem=  8589934592 cpu:               3.6 elap:               0.5
 (Enter /home/enzo/gaussian_versions/gdv.j21/gdv/l716.exe)
 Dipole        = 5.01255612D-01-8.06063627D-02 2.47082107D-01
 ***** Axes restored to original set *****
 -------------------------------------------------------------------
 Center     Atomic                   Forces (Hartrees/Bohr)
 Number     Number              X              Y              Z
 -------------------------------------------------------------------
      1        7          -0.000819439   -0.000199185   -0.001882644
      2        6           0.001037493   -0.000207010    0.002707906
      3        6           0.000816185    0.001081489   -0.000972921
      4        8          -0.000238244   -0.000221106   -0.000311688
      5        8          -0.000767493   -0.000235266    0.000336316
      6        1           0.000113830    0.000319098   -0.000064724
      7        1          -0.000285781   -0.000101193    0.000235825
      8        1          -0.000156173   -0.000277244   -0.000114237
      9        1           0.000082396    0.000285607   -0.000213755
     10        1           0.000217225   -0.000445190    0.000279922
 -------------------------------------------------------------------
 Cartesian Forces:  Max     0.002707906 RMS     0.000759139
 Leave Link  716 at Fri Mar 14 15:41:53 2025, MaxMem=  8589934592 cpu:               0.2 elap:               0.2
 (Enter /home/enzo/gaussian_versions/gdv.j21/gdv/l103.exe)

 GradGradGradGradGradGradGradGradGradGradGradGradGradGradGradGradGradGrad
 Berny optimization.
 Using GEDIIS/GDIIS optimizer.
 FormGI is forming the generalized inverse of G from B-inverse, IUseBI=4.
 Internal  Forces:  Max     0.001838011 RMS     0.000448822
 Search for a local minimum.
 Step number   9 out of a maximum of   46
 All quantities printed in internal units (Hartrees-Bohrs-Radians)
 RMS Force = .44882D-03 SwitMx=.10000D-02 MixMth= 2
 Mixed Optimization -- En-DIIS/RFO-DIIS
 Swapping is turned off.
 Update second derivatives using D2CorX and points    6    7    8    9
 DE= -1.89D-06 DEPred=-1.61D-06 R= 1.17D+00
 TightC=F SS=  1.41D+00  RLast= 6.83D-02 DXNew= 1.6344D+00 2.0490D-01
 Trust test= 1.17D+00 RLast= 6.83D-02 DXMaxT set to 9.72D-01
 ITU=  1  1  1  1  1  0  1  1  0
     Eigenvalues ---    0.00111   0.00920   0.02511   0.04265   0.04588
     Eigenvalues ---    0.05972   0.06603   0.09674   0.13408   0.15895
     Eigenvalues ---    0.16134   0.16800   0.21944   0.23310   0.26484
     Eigenvalues ---    0.31838   0.32622   0.32802   0.40558   0.40999
     Eigenvalues ---    0.42181   0.46903   0.51785   0.84410
 En-DIIS/RFO-DIIS/Sim-DIIS IScMMF=       -3 using points:     9    8    7    6    5    4
 RFO step:  Lambda=-6.43693273D-05.
 NNeg= 0 NGDIIS= 6 SimSw=  2.50D-01 Rises=F DC= -1.89D-06 SmlDif=  1.00D-05
 NRisDI= 0 DoIntr=F SqrtH=F CThrHd= 10.0 CDAdj=  3.0
 RMS Error=  0.1331893363D-01 NUsed= 6 OKEnD=F EnDIS=F
 InvSVX:  RCond= 5.67D-08 Info=           0 Equed=N FErr=  2.28D-10 BErr=  4.06D-17
 DIIS inversion failure, remove point   6.
 InvSVX:  RCond= 3.98D-07 Info=           0 Equed=N FErr=  4.34D-11 BErr=  4.54D-17
 Old DIIS coefficients:     -1.22889      7.34449     -6.92336      3.13445     -1.32669
 Old DIIS coefficients:      0.00000
 RFO-DIIS uses    5 points instead of    6
 DidBck=TT Rises=F RFO-DIIS coefs:   -0.46529    2.78083   -2.00000    1.18679   -0.50232
                   RFO-DIIS coefs:    0.00000
 Iteration  1 RMS(Cart)=  0.01866043 RMS(Int)=  0.00021691
 Iteration  2 RMS(Cart)=  0.00024023 RMS(Int)=  0.00000767
 Iteration  3 RMS(Cart)=  0.00000003 RMS(Int)=  0.00000767
 Variable       Old X    -DE/DX   Delta X   Delta X   Delta X     New X
                                 (Linear)    (Quad)   (Total)
    R1        2.76794   0.00184  -0.00125   0.00403   0.00278   2.77072
    R2        1.92384  -0.00013  -0.00032   0.00031  -0.00001   1.92383
    R3        1.92607  -0.00011  -0.00043   0.00054   0.00011   1.92619
    R4        2.87415   0.00029   0.00226  -0.00302  -0.00077   2.87338
    R5        2.06938  -0.00025  -0.00021  -0.00012  -0.00032   2.06906
    R6        2.08080  -0.00035  -0.00054   0.00004  -0.00049   2.08031
    R7        2.28979   0.00016   0.00011   0.00015   0.00026   2.29004
    R8        2.55622  -0.00082   0.00219  -0.00308  -0.00089   2.55534
    R9        1.84387   0.00007   0.00079  -0.00088  -0.00009   1.84379
    A1        1.90704   0.00018   0.00171  -0.00172   0.00000   1.90704
    A2        1.90827   0.00003   0.00188  -0.00343  -0.00154   1.90673
    A3        1.85655  -0.00009   0.00231  -0.00292  -0.00059   1.85596
    A4        1.90723  -0.00071   0.00259  -0.00615  -0.00357   1.90366
    A5        1.88717   0.00042   0.00144   0.00197   0.00341   1.89058
    A6        2.01333  -0.00011  -0.00115  -0.00257  -0.00372   2.00962
    A7        1.89547   0.00022  -0.00388   0.00666   0.00279   1.89826
    A8        1.86286   0.00030  -0.00039   0.00144   0.00104   1.86390
    A9        1.89505  -0.00011   0.00108  -0.00072   0.00036   1.89541
   A10        2.17822  -0.00017   0.00146  -0.00325  -0.00178   2.17644
   A11        1.96036  -0.00022  -0.00050   0.00158   0.00108   1.96144
   A12        2.14426   0.00040  -0.00091   0.00147   0.00056   2.14482
   A13        1.85487  -0.00070  -0.00027   0.00032   0.00004   1.85492
    D1       -3.06066   0.00010   0.04229  -0.04048   0.00182  -3.05884
    D2       -1.00047   0.00021   0.03992  -0.03480   0.00511  -0.99536
    D3        1.12435   0.00031   0.04163  -0.03598   0.00564   1.12999
    D4        1.19714   0.00009   0.03747  -0.03410   0.00338   1.20052
    D5       -3.02587   0.00020   0.03509  -0.02842   0.00668  -3.01919
    D6       -0.90105   0.00031   0.03681  -0.02960   0.00721  -0.89384
    D7       -1.74359   0.00034  -0.01750   0.06142   0.04393  -1.69966
    D8        1.37054   0.00060  -0.01433   0.05313   0.03880   1.40934
    D9        2.48461   0.00010  -0.01845   0.05870   0.04026   2.52487
   D10       -0.68444   0.00036  -0.01528   0.05042   0.03513  -0.64931
   D11        0.44456  -0.00004  -0.01755   0.05540   0.03786   0.48241
   D12       -2.72449   0.00021  -0.01438   0.04711   0.03272  -2.69177
   D13       -3.07610  -0.00049   0.00175   0.00155   0.00329  -3.07281
   D14        0.03866  -0.00025   0.00484  -0.00664  -0.00178   0.03687
         Item               Value     Threshold  Converged?
 Maximum Force            0.001838     0.000450     NO 
 RMS     Force            0.000449     0.000300     NO 
 Maximum Displacement     0.063918     0.001800     NO 
 RMS     Displacement     0.018668     0.001200     NO 
 Predicted change in Energy=-3.074916D-05
 Lowest energy point so far.  Saving SCF results.
 GradGradGradGradGradGradGradGradGradGradGradGradGradGradGradGradGradGrad

 Leave Link  103 at Fri Mar 14 15:41:53 2025, MaxMem=  8589934592 cpu:               0.2 elap:               0.2
 (Enter /home/enzo/gaussian_versions/gdv.j21/gdv/l202.exe)
                          Input orientation:                          
 ---------------------------------------------------------------------
 Center     Atomic      Atomic             Coordinates (Angstroms)
 Number     Number       Type             X           Y           Z
 ---------------------------------------------------------------------
      1          7           0       -1.880843    0.197560   -0.396393
      2          6           0       -0.904153   -0.221243    0.613770
      3          6           0        0.495291   -0.102162    0.031206
      4          8           0        1.121747   -1.020005   -0.452191
      5          8           0        0.963924    1.165599    0.072178
      6          1           0       -2.812035    0.194310    0.015053
      7          1           0       -1.898413   -0.487361   -1.151067
      8          1           0       -0.986642    0.452870    1.472590
      9          1           0       -1.013704   -1.257443    0.968965
     10          1           0        1.830207    1.151596   -0.376519
 ---------------------------------------------------------------------
                    Distance matrix (angstroms):
                    1          2          3          4          5
     1  N    0.000000
     2  C    1.466202   0.000000
     3  C    2.432836   1.520528   0.000000
     4  O    3.240544   2.424575   1.211839   0.000000
     5  O    3.041276   2.388800   1.352225   2.253161   0.000000
     6  H    1.018045   2.042341   3.320627   4.143370   3.899299
     7  H    1.019294   2.043042   2.697401   3.145394   3.524427
     8  H    2.087552   1.094899   2.140508   3.212389   2.504764
     9  H    2.175584   1.100852   2.119229   2.576084   3.253670
    10  H    3.831771   3.215911   1.876206   2.285495   0.975690
                    6          7          8          9         10
     6  H    0.000000
     7  H    1.630710   0.000000
     8  H    2.350175   2.932394   0.000000
     9  H    2.500306   2.422864   1.783126   0.000000
    10  H    4.756062   4.145927   3.441229   3.962527   0.000000
 Stoichiometry    C2H5NO2
 Framework group  C1[X(C2H5NO2)]
 Deg. of freedom    24
 Full point group                 C1      NOp   1
 RotChk:  IX=0 Diff= 6.11D-02
 Largest Abelian subgroup         C1      NOp   1
 Largest concise Abelian subgroup C1      NOp   1
                         Standard orientation:                         
 ---------------------------------------------------------------------
 Center     Atomic      Atomic             Coordinates (Angstroms)
 Number     Number       Type             X           Y           Z
 ---------------------------------------------------------------------
      1          7           0        1.760023   -0.152499   -0.487269
      2          6           0        0.844161    0.096101    0.630382
      3          6           0       -0.583262    0.120432    0.107049
      4          8           0       -1.200219    1.126588   -0.167848
      5          8           0       -1.091154   -1.121413   -0.061413
      6          1           0        2.708396   -0.247741   -0.129592
      7          1           0        1.766186    0.659332   -1.103591
      8          1           0        0.942947   -0.726750    1.345896
      9          1           0        1.003728    1.045975    1.163441
     10          1           0       -1.975827   -1.003911   -0.455769
 ---------------------------------------------------------------------
 Rotational constants (GHZ):           8.8001439           3.9572597           3.1903616
 Leave Link  202 at Fri Mar 14 15:41:53 2025, MaxMem=  8589934592 cpu:               0.2 elap:               0.2
 (Enter /home/enzo/gaussian_versions/gdv.j21/gdv/l301.exe)
 Standard basis: 6-31G(d) (6D, 7F)
 Ernie: Thresh=  0.10000D-02 Tol=  0.10000D-05 Strict=F.
 There are    85 symmetry adapted cartesian basis functions of A   symmetry.
 There are    85 symmetry adapted basis functions of A   symmetry.
    85 basis functions,   160 primitive gaussians,    85 cartesian basis functions
    20 alpha electrons       20 beta electrons
       nuclear repulsion energy       178.7815226712 Hartrees.
 IExCor=      4002 DFT=T Ex+Corr=B3LYP ScaHFX=  0.200000
 ScaDFX=  0.800000  0.720000  1.000000  0.810000  1.000000  0.000000
 ScaDFX=  0.000000  0.000000  0.000000  0.000000  0.000000  0.000000
 IRadAn=      5 IRanWt=     -1 IRanGd=            0 ICorTp=0 IEmpDi=  4
 NAtoms=   10 NActive=   10 NUniq=   10 SFac= 1.00D+00 NAtFMM=   60 NAOKFM=F Big=F
 Integral buffers will be    131072 words long.
 Raffenetti 2 integral format.
 Two-electron integral symmetry is turned on.
 Leave Link  301 at Fri Mar 14 15:41:53 2025, MaxMem=  8589934592 cpu:               0.3 elap:               0.2
 (Enter /home/enzo/gaussian_versions/gdv.j21/gdv/l302.exe)
 NPDir=0 NMtPBC=     1 NCelOv=     1 NCel=       1 NClECP=     1 NCelD=      1
         NCelK=      1 NCelE2=     1 NClLst=     1 CellRange=     0.0.
 One-electron integrals computed using PRISM.
 One-electron integral symmetry used in STVInt
 NBasis=    85 RedAO= T EigKep=  4.14D-03  NBF=    85
 NBsUse=    85 1.00D-06 EigRej= -1.00D+00 NBFU=    85
 Precomputing XC quadrature grid using
 IXCGrd= 4 IRadAn=           5 IRanWt=          -1 IRanGd=           0 AccXCQ= 0.00D+00.
 Generated NRdTot=       0 NPtTot=      219694 NUsed=           0 NTot=          64
 NSgBfM=    85    85    85    85    85 MxSgAt=    10 MxSgA2=    10 SizInc=   0.000
 NMBTot=     1978 MaxBatPerAtom=       83 MaxMicBPerAtom=      211 NBfPt=            16007773.
 Leave Link  302 at Fri Mar 14 15:41:53 2025, MaxMem=  8589934592 cpu:               0.8 elap:               0.2
 (Enter /home/enzo/gaussian_versions/gdv.j21/gdv/l303.exe)
 DipDrv:  MaxL=1.
 Leave Link  303 at Fri Mar 14 15:41:54 2025, MaxMem=  8589934592 cpu:               0.3 elap:               0.2
 (Enter /home/enzo/gaussian_versions/gdv.j21/gdv/l401.exe)
 Initial guess from the checkpoint file:  "/local/home/enzo/scratch/Gau-2409754.chk"
 B after Tr=    -0.000000   -0.000000    0.000000
         Rot=    0.999875   -0.014748    0.000164    0.005665 Ang=  -1.81 deg.
 AO Guess basis will be translated and rotated to current coordinates.
 JPrj=2 DoOrth=T DoCkMO=T.
 Generating alternative initial guess.
 ExpMin= 1.61D-01 ExpMax= 5.48D+03 ExpMxC= 8.25D+02 IAcc=3 IRadAn=         5 AccDes= 0.00D+00
 Harris functional with IExCor= 4002 and IRadAn=       5 diagonalized for initial guess.
 HarFok:  IExCor=    4002 AccDes= 0.00D+00 IRadAn=         5 IDoV= 1 UseB2=F ITyADJ=14 ICtDFT=  3500011
 FoFCou: FMM=F IPFlag=           0 FMFlag=      100000 FMFlg1=           0
         NFxFlg=           0 DoJE=T BraDBF=F KetDBF=T FulRan=T
         wScrn=  0.000000 ICntrl=       500 IOpCl=  0 I1Cent=   200000004 NGrid=           0
         NMat0=    1 NMatS0=      1 NMatT0=    0 NMatD0=    1 NMtDS0=    0 NMtDT0=    0
 Petite list used in FoFCou.
 Harris En= -284.437703301807    
 Leave Link  401 at Fri Mar 14 15:41:54 2025, MaxMem=  8589934592 cpu:               3.2 elap:               0.6
 (Enter /home/enzo/gaussian_versions/gdv.j21/gdv/l502.exe)
 Keep R1 ints in memory in canonical form, NReq=17617987.
 FoFCou: FMM=F IPFlag=           0 FMFlag=           0 FMFlg1=           0
         NFxFlg=           0 DoJE=F BraDBF=F KetDBF=F FulRan=T
         wScrn=  0.000000 ICntrl=       600 IOpCl=  0 I1Cent=           0 NGrid=           0
         NMat0=    1 NMatS0=   3655 NMatT0=    0 NMatD0=    1 NMtDS0=    0 NMtDT0=    0
 Symmetry not used in FoFCou.
 Two-electron integral symmetry not used.
 Closed shell SCF:
 Using DIIS extrapolation, IDIIS=  1040.
 NGot=  8589934592 LenX=  8583230350 LenY=  8583222684
 Requested convergence on RMS density matrix=1.00D-08 within 128 cycles.
 Requested convergence on MAX density matrix=1.00D-06.
 Requested convergence on             energy=1.00D-06.
 No special actions if energy rises.
 Integral accuracy reduced to 1.0D-05 until final iterations.

 Cycle   1  Pass 0  IDiag  1:
 E= -284.415055046032    
 DIIS: error= 1.17D-03 at cycle   1 NSaved=   1.
 NSaved= 1 IEnMin= 1 EnMin= -284.415055046032     IErMin= 1 ErrMin= 1.17D-03
 ErrMax= 1.17D-03  0.00D+00 EMaxC= 1.00D-01 BMatC= 3.29D-04 BMatP= 3.29D-04
 IDIUse=3 WtCom= 9.88D-01 WtEn= 1.17D-02
 Coeff-Com:  0.100D+01
 Coeff-En:   0.100D+01
 Coeff:      0.100D+01
 Gap=     1.590 Goal=   None    Shift=    0.000
 GapD=    1.590 DampG=2.000 DampE=1.000 DampFc=2.0000 IDamp=-1.
 RMSDP=3.71D-04 MaxDP=4.28D-03              OVMax= 7.52D-03

 Cycle   2  Pass 0  IDiag  1:
 E= -284.415674274662     Delta-E=       -0.000619228630 Rises=F Damp=F
 DIIS: error= 1.39D-04 at cycle   2 NSaved=   2.
 NSaved= 2 IEnMin= 2 EnMin= -284.415674274662     IErMin= 2 ErrMin= 1.39D-04
 ErrMax= 1.39D-04  0.00D+00 EMaxC= 1.00D-01 BMatC= 4.24D-06 BMatP= 3.29D-04
 IDIUse=3 WtCom= 9.99D-01 WtEn= 1.39D-03
 Coeff-Com: -0.818D-01 0.108D+01
 Coeff-En:   0.000D+00 0.100D+01
 Coeff:     -0.817D-01 0.108D+01
 Gap=     0.249 Goal=   None    Shift=    0.000
 RMSDP=4.21D-05 MaxDP=5.04D-04 DE=-6.19D-04 OVMax= 1.11D-03

 Cycle   3  Pass 0  IDiag  1:
 E= -284.415681088891     Delta-E=       -0.000006814229 Rises=F Damp=F
 DIIS: error= 7.03D-05 at cycle   3 NSaved=   3.
 NSaved= 3 IEnMin= 3 EnMin= -284.415681088891     IErMin= 3 ErrMin= 7.03D-05
 ErrMax= 7.03D-05  0.00D+00 EMaxC= 1.00D-01 BMatC= 7.13D-07 BMatP= 4.24D-06
 IDIUse=1 WtCom= 1.00D+00 WtEn= 0.00D+00
 Coeff-Com: -0.281D-01 0.343D+00 0.685D+00
 Coeff:     -0.281D-01 0.343D+00 0.685D+00
 Gap=     0.249 Goal=   None    Shift=    0.000
 RMSDP=1.53D-05 MaxDP=2.81D-04 DE=-6.81D-06 OVMax= 5.96D-04

 Cycle   4  Pass 0  IDiag  1:
 E= -284.415681074981     Delta-E=        0.000000013910 Rises=F Damp=F
 DIIS: error= 8.47D-05 at cycle   4 NSaved=   4.
 NSaved= 4 IEnMin= 3 EnMin= -284.415681088891     IErMin= 3 ErrMin= 7.03D-05
 ErrMax= 8.47D-05  0.00D+00 EMaxC= 1.00D-01 BMatC= 8.13D-07 BMatP= 7.13D-07
 IDIUse=1 WtCom= 1.00D+00 WtEn= 0.00D+00
 Coeff-Com: -0.106D-01 0.124D+00 0.498D+00 0.389D+00
 Coeff:     -0.106D-01 0.124D+00 0.498D+00 0.389D+00
 Gap=     0.249 Goal=   None    Shift=    0.000
 RMSDP=8.24D-06 MaxDP=1.90D-04 DE= 1.39D-08 OVMax= 3.53D-04

 Initial convergence to 1.0D-05 achieved.  Increase integral accuracy.
 Cycle   5  Pass 1  IDiag  1:
 E= -284.415674993128     Delta-E=        0.000006081852 Rises=F Damp=F
 DIIS: error= 6.24D-06 at cycle   1 NSaved=   1.
 NSaved= 1 IEnMin= 1 EnMin= -284.415674993128     IErMin= 1 ErrMin= 6.24D-06
 ErrMax= 6.24D-06  0.00D+00 EMaxC= 1.00D-01 BMatC= 8.61D-09 BMatP= 8.61D-09
 IDIUse=1 WtCom= 1.00D+00 WtEn= 0.00D+00
 Coeff-Com:  0.100D+01
 Coeff:      0.100D+01
 Gap=     0.249 Goal=   None    Shift=    0.000
 RMSDP=8.24D-06 MaxDP=1.90D-04 DE= 6.08D-06 OVMax= 6.37D-05

 Cycle   6  Pass 1  IDiag  1:
 E= -284.415674982202     Delta-E=        0.000000010926 Rises=F Damp=F
 DIIS: error= 1.35D-05 at cycle   2 NSaved=   2.
 NSaved= 2 IEnMin= 1 EnMin= -284.415674993128     IErMin= 1 ErrMin= 6.24D-06
 ErrMax= 1.35D-05  0.00D+00 EMaxC= 1.00D-01 BMatC= 2.48D-08 BMatP= 8.61D-09
 IDIUse=1 WtCom= 1.00D+00 WtEn= 0.00D+00
 Coeff-Com:  0.638D+00 0.362D+00
 Coeff:      0.638D+00 0.362D+00
 Gap=     0.249 Goal=   None    Shift=    0.000
 RMSDP=1.51D-06 MaxDP=3.94D-05 DE= 1.09D-08 OVMax= 5.57D-05

 Cycle   7  Pass 1  IDiag  1:
 E= -284.415675000289     Delta-E=       -0.000000018087 Rises=F Damp=F
 DIIS: error= 2.14D-06 at cycle   3 NSaved=   3.
 NSaved= 3 IEnMin= 3 EnMin= -284.415675000289     IErMin= 3 ErrMin= 2.14D-06
 ErrMax= 2.14D-06  0.00D+00 EMaxC= 1.00D-01 BMatC= 7.68D-10 BMatP= 8.61D-09
 IDIUse=1 WtCom= 1.00D+00 WtEn= 0.00D+00
 Coeff-Com:  0.204D+00 0.185D+00 0.611D+00
 Coeff:      0.204D+00 0.185D+00 0.611D+00
 Gap=     0.249 Goal=   None    Shift=    0.000
 RMSDP=3.35D-07 MaxDP=5.95D-06 DE=-1.81D-08 OVMax= 1.22D-05

 Cycle   8  Pass 1  IDiag  1:
 E= -284.415675000789     Delta-E=       -0.000000000500 Rises=F Damp=F
 DIIS: error= 9.59D-07 at cycle   4 NSaved=   4.
 NSaved= 4 IEnMin= 4 EnMin= -284.415675000789     IErMin= 4 ErrMin= 9.59D-07
 ErrMax= 9.59D-07  0.00D+00 EMaxC= 1.00D-01 BMatC= 1.56D-10 BMatP= 7.68D-10
 IDIUse=1 WtCom= 1.00D+00 WtEn= 0.00D+00
 Coeff-Com:  0.396D-01 0.660D-01 0.371D+00 0.523D+00
 Coeff:      0.396D-01 0.660D-01 0.371D+00 0.523D+00
 Gap=     0.249 Goal=   None    Shift=    0.000
 RMSDP=1.16D-07 MaxDP=2.99D-06 DE=-5.00D-10 OVMax= 3.60D-06

 Cycle   9  Pass 1  IDiag  1:
 E= -284.415675000908     Delta-E=       -0.000000000118 Rises=F Damp=F
 DIIS: error= 1.62D-07 at cycle   5 NSaved=   5.
 NSaved= 5 IEnMin= 5 EnMin= -284.415675000908     IErMin= 5 ErrMin= 1.62D-07
 ErrMax= 1.62D-07  0.00D+00 EMaxC= 1.00D-01 BMatC= 6.40D-12 BMatP= 1.56D-10
 IDIUse=1 WtCom= 1.00D+00 WtEn= 0.00D+00
 Coeff-Com: -0.165D-01-0.531D-03 0.684D-01 0.211D+00 0.738D+00
 Coeff:     -0.165D-01-0.531D-03 0.684D-01 0.211D+00 0.738D+00
 Gap=     0.249 Goal=   None    Shift=    0.000
 RMSDP=2.73D-08 MaxDP=4.80D-07 DE=-1.18D-10 OVMax= 6.49D-07

 Cycle  10  Pass 1  IDiag  1:
 E= -284.415675000910     Delta-E=       -0.000000000002 Rises=F Damp=F
 DIIS: error= 5.63D-08 at cycle   6 NSaved=   6.
 NSaved= 6 IEnMin= 6 EnMin= -284.415675000910     IErMin= 6 ErrMin= 5.63D-08
 ErrMax= 5.63D-08  0.00D+00 EMaxC= 1.00D-01 BMatC= 5.75D-13 BMatP= 6.40D-12
 IDIUse=1 WtCom= 1.00D+00 WtEn= 0.00D+00
 Coeff-Com: -0.106D-01-0.385D-02 0.152D-01 0.778D-01 0.361D+00 0.560D+00
 Coeff:     -0.106D-01-0.385D-02 0.152D-01 0.778D-01 0.361D+00 0.560D+00
 Gap=     0.249 Goal=   None    Shift=    0.000
 RMSDP=8.43D-09 MaxDP=1.71D-07 DE=-2.05D-12 OVMax= 1.56D-07

 SCF Done:  E(RB3LYP) =  -284.415675001     A.U. after   10 cycles
            NFock= 10  Conv=0.84D-08     -V/T= 2.0089
 KE= 2.819189597601D+02 PE=-1.023884370583D+03 EE= 2.787682131506D+02
 Leave Link  502 at Fri Mar 14 15:41:55 2025, MaxMem=  8589934592 cpu:              10.5 elap:               1.0
 (Enter /home/enzo/gaussian_versions/gdv.j21/gdv/l701.exe)
 ... and contract with generalized density number  0.
 Compute integral first derivatives.
 Leave Link  701 at Fri Mar 14 15:41:56 2025, MaxMem=  8589934592 cpu:               1.1 elap:               0.3
 (Enter /home/enzo/gaussian_versions/gdv.j21/gdv/l702.exe)
 L702 exits ... SP integral derivatives will be done elsewhere.
 Leave Link  702 at Fri Mar 14 15:41:56 2025, MaxMem=  8589934592 cpu:               0.4 elap:               0.2
 (Enter /home/enzo/gaussian_versions/gdv.j21/gdv/l703.exe)
 Integral derivatives from FoFJK, PRISM(SPDF).
 Compute integral first derivatives, UseDBF=F ICtDFT=           0.
 Calling FoFJK, ICntrl=      2127 FMM=F ISym2X=0 I1Cent= 0 IOpClX= 0 NMat=1 NMatS=1 NMatT=0.
 FoFJK:  IHMeth= 1 ICntrl=    2127 DoSepK=F KAlg= 0 I1Cent=           0 FoldK=F
 IRaf=         0 NMat=       1 IRICut=       1 DoRegI=T DoRafI=F ISym2E= 0 IDoP0=0 IntGTp=1.
 FoFCou: FMM=F IPFlag=           0 FMFlag=      100000 FMFlg1=         800
         NFxFlg=           0 DoJE=F BraDBF=F KetDBF=F FulRan=T
         wScrn=  0.000000 ICntrl=      2127 IOpCl=  0 I1Cent=           0 NGrid=           0
         NMat0=    1 NMatS0=      1 NMatT0=    0 NMatD0=    1 NMtDS0=    0 NMtDT0=    0
 Symmetry not used in FoFCou.
 Leave Link  703 at Fri Mar 14 15:41:56 2025, MaxMem=  8589934592 cpu:               3.9 elap:               0.5
 (Enter /home/enzo/gaussian_versions/gdv.j21/gdv/l716.exe)
 Dipole        = 4.91847960D-01-9.87534008D-02 2.65592067D-01
 ***** Axes restored to original set *****
 -------------------------------------------------------------------
 Center     Atomic                   Forces (Hartrees/Bohr)
 Number     Number              X              Y              Z
 -------------------------------------------------------------------
      1        7          -0.000392214   -0.000209869   -0.001452143
      2        6           0.000498980   -0.000236611    0.002383102
      3        6           0.000590798    0.000652205   -0.001425028
      4        8          -0.000190757   -0.000050688   -0.000200475
      5        8          -0.000655546   -0.000046054    0.000531173
      6        1           0.000116696    0.000325274    0.000038903
      7        1          -0.000138481   -0.000034684    0.000241532
      8        1          -0.000318693   -0.000138125   -0.000332740
      9        1           0.000200855    0.000152239    0.000006136
     10        1           0.000288363   -0.000413687    0.000209540
 -------------------------------------------------------------------
 Cartesian Forces:  Max     0.002383102 RMS     0.000650174
 Leave Link  716 at Fri Mar 14 15:41:56 2025, MaxMem=  8589934592 cpu:               0.1 elap:               0.1
 (Enter /home/enzo/gaussian_versions/gdv.j21/gdv/l103.exe)

 GradGradGradGradGradGradGradGradGradGradGradGradGradGradGradGradGradGrad
 Berny optimization.
 Using GEDIIS/GDIIS optimizer.
 FormGI is forming the generalized inverse of G from B-inverse, IUseBI=4.
 Internal  Forces:  Max     0.001105985 RMS     0.000367750
 Search for a local minimum.
 Step number  10 out of a maximum of   46
 All quantities printed in internal units (Hartrees-Bohrs-Radians)
 RMS Force = .36775D-03 SwitMx=.10000D-02 MixMth= 2
 Mixed Optimization -- En-DIIS/RFO-DIIS
 Swapping is turned off.
 Update second derivatives using D2CorX and points    6    7    8    9   10
 DE= -7.72D-05 DEPred=-3.07D-05 R= 2.51D+00
 TightC=F SS=  1.41D+00  RLast= 9.51D-02 DXNew= 1.6344D+00 2.8526D-01
 Trust test= 2.51D+00 RLast= 9.51D-02 DXMaxT set to 9.72D-01
 ITU=  1  1  1  1  1  1  0  1  1  0
     Eigenvalues ---   -2.32305   0.00000   0.00360   0.02238   0.04452
     Eigenvalues ---    0.05419   0.06348   0.07308   0.09434   0.15782
     Eigenvalues ---    0.16316   0.16639   0.18370   0.20538   0.26782
     Eigenvalues ---    0.28161   0.31678   0.32642   0.32962   0.40555
     Eigenvalues ---    0.41416   0.45854   0.49176   0.83611
 Eigenvalue     1 is  -2.32D+00 should be greater than     0.000000 Eigenvector:
                          R1        A6        A5        R8        D10
   1                    0.66134  -0.29606   0.24802  -0.23243  -0.21291
                          D7        A4        R6        A7        A10
   1                    0.19683   0.17937  -0.17586  -0.17178  -0.16980
 Eigenvalue     2 is   5.37D-07 Eigenvector:
                          D7        D9        D8        D11       D10
   1                   -0.45712  -0.41764  -0.40748  -0.39271  -0.36800
                          D12       D6        D5        D3        D2
   1                   -0.34307  -0.09645  -0.08901  -0.08391  -0.07647
 Use linear search instead of GDIIS.
 RFO step:  Lambda=-2.32304668D+00 EMin=-2.32304652D+00
 I=     1 Eig=   -2.32D+00 Dot1=  6.04D-05
 I=     1 Stepn=  1.51D-01 RXN=   1.51D-01 DoEMax=T EDone=F
 Mixed    1 eigenvectors in step.  Raw Step.Grad=  9.13D-05.
 RFO eigenvector is Hessian eigenvector with negative curvature.
 Taking step of  1.51D-01 in eigenvector direction(s).  Step.Grad= -8.73D-05 DoEMax=T.
 Skip linear search -- no minimum in search direction.
 Iteration  1 RMS(Cart)=  0.03676692 RMS(Int)=  0.00049612
 Iteration  2 RMS(Cart)=  0.00055608 RMS(Int)=  0.00020350
 Iteration  3 RMS(Cart)=  0.00000046 RMS(Int)=  0.00020350
 Variable       Old X    -DE/DX   Delta X   Delta X   Delta X     New X
                                 (Linear)    (Quad)   (Total)
    R1        2.77072   0.00111   0.00000   0.10000   0.10000   2.87072
    R2        1.92383  -0.00009   0.00000  -0.00375  -0.00375   1.92008
    R3        1.92619  -0.00015   0.00000   0.00910   0.00910   1.93529
    R4        2.87338   0.00038   0.00000  -0.00973  -0.00973   2.86366
    R5        2.06906  -0.00032   0.00000   0.01041   0.01041   2.07947
    R6        2.08031  -0.00016   0.00000  -0.02659  -0.02659   2.05372
    R7        2.29004   0.00002   0.00000   0.01823   0.01823   2.30828
    R8        2.55534  -0.00054   0.00000  -0.03514  -0.03514   2.52019
    R9        1.84379   0.00017   0.00000  -0.01167  -0.01167   1.83212
    A1        1.90704   0.00005   0.00000   0.01593   0.01589   1.92294
    A2        1.90673  -0.00005   0.00000   0.01349   0.01345   1.92018
    A3        1.85596   0.00003   0.00000  -0.01783  -0.01792   1.83805
    A4        1.90366  -0.00090   0.00000   0.02712   0.02702   1.93068
    A5        1.89058   0.00019   0.00000   0.03750   0.03767   1.92825
    A6        2.00962   0.00017   0.00000  -0.04477  -0.04454   1.96508
    A7        1.89826   0.00039   0.00000  -0.02597  -0.02657   1.87169
    A8        1.86390   0.00027   0.00000   0.00564   0.00583   1.86973
    A9        1.89541  -0.00010   0.00000  -0.00065  -0.00040   1.89502
   A10        2.17644  -0.00000   0.00000  -0.02568  -0.02571   2.15073
   A11        1.96144  -0.00030   0.00000   0.00797   0.00793   1.96936
   A12        2.14482   0.00031   0.00000   0.01721   0.01716   2.16198
   A13        1.85492  -0.00063   0.00000  -0.01686  -0.01686   1.83806
    D1       -3.05884   0.00010   0.00000   0.00030  -0.00009  -3.05893
    D2       -0.99536   0.00017   0.00000   0.00580   0.00625  -0.98911
    D3        1.12999   0.00031   0.00000   0.00290   0.00291   1.13290
    D4        1.20052   0.00006   0.00000   0.00521   0.00478   1.20530
    D5       -3.01919   0.00013   0.00000   0.01071   0.01112  -3.00807
    D6       -0.89384   0.00027   0.00000   0.00782   0.00778  -0.88606
    D7       -1.69966   0.00014   0.00000   0.02976   0.02951  -1.67015
    D8        1.40934   0.00053   0.00000   0.01340   0.01327   1.42262
    D9        2.52487   0.00020   0.00000  -0.01583  -0.01571   2.50916
   D10       -0.64931   0.00058   0.00000  -0.03219  -0.03195  -0.68126
   D11        0.48241  -0.00003   0.00000  -0.00479  -0.00485   0.47757
   D12       -2.69177   0.00036   0.00000  -0.02115  -0.02109  -2.71286
   D13       -3.07281  -0.00053   0.00000   0.00450   0.00467  -3.06814
   D14        0.03687  -0.00016   0.00000  -0.01244  -0.01262   0.02426
         Item               Value     Threshold  Converged?
 Maximum Force            0.001106     0.000450     NO 
 RMS     Force            0.000368     0.000300     NO 
 Maximum Displacement     0.099317     0.001800     NO 
 RMS     Displacement     0.036926     0.001200     NO 
 Predicted change in Energy=-2.663157D-02
 Lowest energy point so far.  Saving SCF results.
 GradGradGradGradGradGradGradGradGradGradGradGradGradGradGradGradGradGrad

 Leave Link  103 at Fri Mar 14 15:41:56 2025, MaxMem=  8589934592 cpu:               0.2 elap:               0.2
 (Enter /home/enzo/gaussian_versions/gdv.j21/gdv/l202.exe)
                          Input orientation:                          
 ---------------------------------------------------------------------
 Center     Atomic      Atomic             Coordinates (Angstroms)
 Number     Number       Type             X           Y           Z
 ---------------------------------------------------------------------
      1          7           0       -1.921036    0.191247   -0.416346
      2          6           0       -0.882645   -0.209361    0.617570
      3          6           0        0.515361   -0.082855    0.046645
      4          8           0        1.125483   -1.020568   -0.443741
      5          8           0        0.978562    1.167187    0.084067
      6          1           0       -2.849401    0.179072   -0.003587
      7          1           0       -1.950970   -0.501671   -1.169852
      8          1           0       -0.937714    0.452432    1.495006
      9          1           0       -1.000396   -1.236986    0.951058
     10          1           0        1.838136    1.135225   -0.363228
 ---------------------------------------------------------------------
                    Distance matrix (angstroms):
                    1          2          3          4          5
     1  N    0.000000
     2  C    1.519120   0.000000
     3  C    2.495100   1.515382   0.000000
     4  O    3.278799   2.411849   1.221488   0.000000
     5  O    3.100088   2.375628   1.333628   2.255314   0.000000
     6  H    1.016061   2.098772   3.375315   4.175233   3.954410
     7  H    1.024111   2.102770   2.781737   3.203288   3.597160
     8  H    2.165273   1.100407   2.120309   3.191434   2.484701
     9  H    2.181106   1.086781   2.108910   2.551795   3.232337
    10  H    3.876247   3.189441   1.844302   2.271960   0.969516
                    6          7          8          9         10
     6  H    0.000000
     7  H    1.621963   0.000000
     8  H    2.444392   3.006405   0.000000
     9  H    2.517020   2.437733   1.775934   0.000000
    10  H    4.797560   4.205639   3.409485   3.925812   0.000000
 Stoichiometry    C2H5NO2
 Framework group  C1[X(C2H5NO2)]
 Deg. of freedom    24
 Full point group                 C1      NOp   1
 RotChk:  IX=0 Diff= 3.16D-02
 Largest Abelian subgroup         C1      NOp   1
 Largest concise Abelian subgroup C1      NOp   1
                         Standard orientation:                         
 ---------------------------------------------------------------------
 Center     Atomic      Atomic             Coordinates (Angstroms)
 Number     Number       Type             X           Y           Z
 ---------------------------------------------------------------------
      1          7           0        1.809035   -0.145327   -0.482386
      2          6           0        0.814848    0.073699    0.645153
      3          6           0       -0.602061    0.105144    0.108718
      4          8           0       -1.190937    1.139436   -0.166048
      5          8           0       -1.109258   -1.112945   -0.085119
      6          1           0        2.748265   -0.243247   -0.107368
      7          1           0        1.843371    0.681917   -1.085122
      8          1           0        0.869979   -0.750176    1.372536
      9          1           0        0.979094    1.010840    1.170399
     10          1           0       -1.979115   -0.967021   -0.487632
 ---------------------------------------------------------------------
 Rotational constants (GHZ):           8.7618425           3.8657666           3.1367618
 Leave Link  202 at Fri Mar 14 15:41:57 2025, MaxMem=  8589934592 cpu:               0.3 elap:               0.2
 (Enter /home/enzo/gaussian_versions/gdv.j21/gdv/l301.exe)
 Standard basis: 6-31G(d) (6D, 7F)
 Ernie: Thresh=  0.10000D-02 Tol=  0.10000D-05 Strict=F.
 There are    85 symmetry adapted cartesian basis functions of A   symmetry.
 There are    85 symmetry adapted basis functions of A   symmetry.
    85 basis functions,   160 primitive gaussians,    85 cartesian basis functions
    20 alpha electrons       20 beta electrons
       nuclear repulsion energy       177.8289839829 Hartrees.
 IExCor=      4002 DFT=T Ex+Corr=B3LYP ScaHFX=  0.200000
 ScaDFX=  0.800000  0.720000  1.000000  0.810000  1.000000  0.000000
 ScaDFX=  0.000000  0.000000  0.000000  0.000000  0.000000  0.000000
 IRadAn=      5 IRanWt=     -1 IRanGd=            0 ICorTp=0 IEmpDi=  4
 NAtoms=   10 NActive=   10 NUniq=   10 SFac= 1.00D+00 NAtFMM=   60 NAOKFM=F Big=F
 Integral buffers will be    131072 words long.
 Raffenetti 2 integral format.
 Two-electron integral symmetry is turned on.
 Leave Link  301 at Fri Mar 14 15:41:57 2025, MaxMem=  8589934592 cpu:               0.6 elap:               0.2
 (Enter /home/enzo/gaussian_versions/gdv.j21/gdv/l302.exe)
 NPDir=0 NMtPBC=     1 NCelOv=     1 NCel=       1 NClECP=     1 NCelD=      1
         NCelK=      1 NCelE2=     1 NClLst=     1 CellRange=     0.0.
 One-electron integrals computed using PRISM.
 One-electron integral symmetry used in STVInt
 NBasis=    85 RedAO= T EigKep=  4.38D-03  NBF=    85
 NBsUse=    85 1.00D-06 EigRej= -1.00D+00 NBFU=    85
 Precomputing XC quadrature grid using
 IXCGrd= 4 IRadAn=           5 IRanWt=          -1 IRanGd=           0 AccXCQ= 0.00D+00.
 Generated NRdTot=       0 NPtTot=      219781 NUsed=           0 NTot=          64
 NSgBfM=    85    85    85    85    85 MxSgAt=    10 MxSgA2=    10 SizInc=   0.000
 NMBTot=     1967 MaxBatPerAtom=       83 MaxMicBPerAtom=      210 NBfPt=            16004177.
 Leave Link  302 at Fri Mar 14 15:41:57 2025, MaxMem=  8589934592 cpu:               1.2 elap:               0.2
 (Enter /home/enzo/gaussian_versions/gdv.j21/gdv/l303.exe)
 DipDrv:  MaxL=1.
 Leave Link  303 at Fri Mar 14 15:41:57 2025, MaxMem=  8589934592 cpu:               0.2 elap:               0.1
 (Enter /home/enzo/gaussian_versions/gdv.j21/gdv/l401.exe)
 Initial guess from the checkpoint file:  "/local/home/enzo/scratch/Gau-2409754.chk"
 B after Tr=     0.000000   -0.000000   -0.000000
         Rot=    0.999942   -0.007883    0.006763    0.002687 Ang=  -1.23 deg.
 AO Guess basis will be translated and rotated to current coordinates.
 JPrj=2 DoOrth=T DoCkMO=T.
 Generating alternative initial guess.
 ExpMin= 1.61D-01 ExpMax= 5.48D+03 ExpMxC= 8.25D+02 IAcc=3 IRadAn=         5 AccDes= 0.00D+00
 Harris functional with IExCor= 4002 and IRadAn=       5 diagonalized for initial guess.
 HarFok:  IExCor=    4002 AccDes= 0.00D+00 IRadAn=         5 IDoV= 1 UseB2=F ITyADJ=14 ICtDFT=  3500011
 FoFCou: FMM=F IPFlag=           0 FMFlag=      100000 FMFlg1=           0
         NFxFlg=           0 DoJE=T BraDBF=F KetDBF=T FulRan=T
         wScrn=  0.000000 ICntrl=       500 IOpCl=  0 I1Cent=   200000004 NGrid=           0
         NMat0=    1 NMatS0=      1 NMatT0=    0 NMatD0=    1 NMtDS0=    0 NMtDT0=    0
 Petite list used in FoFCou.
 Harris En= -284.434568068419    
 Leave Link  401 at Fri Mar 14 15:41:58 2025, MaxMem=  8589934592 cpu:               2.9 elap:               0.4
 (Enter /home/enzo/gaussian_versions/gdv.j21/gdv/l502.exe)
 Keep R1 ints in memory in canonical form, NReq=17617987.
 FoFCou: FMM=F IPFlag=           0 FMFlag=           0 FMFlg1=           0
         NFxFlg=           0 DoJE=F BraDBF=F KetDBF=F FulRan=T
         wScrn=  0.000000 ICntrl=       600 IOpCl=  0 I1Cent=           0 NGrid=           0
         NMat0=    1 NMatS0=   3655 NMatT0=    0 NMatD0=    1 NMtDS0=    0 NMtDT0=    0
 Symmetry not used in FoFCou.
 Two-electron integral symmetry not used.
 Closed shell SCF:
 Using DIIS extrapolation, IDIIS=  1040.
 NGot=  8589934592 LenX=  8583230350 LenY=  8583222684
 Requested convergence on RMS density matrix=1.00D-08 within 128 cycles.
 Requested convergence on MAX density matrix=1.00D-06.
 Requested convergence on             energy=1.00D-06.
 No special actions if energy rises.
 Integral accuracy reduced to 1.0D-05 until final iterations.

 Cycle   1  Pass 0  IDiag  1:
 E= -284.411135023337    
 DIIS: error= 2.17D-03 at cycle   1 NSaved=   1.
 NSaved= 1 IEnMin= 1 EnMin= -284.411135023337     IErMin= 1 ErrMin= 2.17D-03
 ErrMax= 2.17D-03  0.00D+00 EMaxC= 1.00D-01 BMatC= 1.08D-03 BMatP= 1.08D-03
 IDIUse=3 WtCom= 9.78D-01 WtEn= 2.17D-02
 Coeff-Com:  0.100D+01
 Coeff-En:   0.100D+01
 Coeff:      0.100D+01
 Gap=     1.568 Goal=   None    Shift=    0.000
 GapD=    1.568 DampG=2.000 DampE=1.000 DampFc=2.0000 IDamp=-1.
 RMSDP=6.76D-04 MaxDP=5.99D-03              OVMax= 1.43D-02

 Cycle   2  Pass 0  IDiag  1:
 E= -284.412639196874     Delta-E=       -0.001504173537 Rises=F Damp=F
 DIIS: error= 1.02D-03 at cycle   2 NSaved=   2.
 NSaved= 2 IEnMin= 2 EnMin= -284.412639196874     IErMin= 2 ErrMin= 1.02D-03
 ErrMax= 1.02D-03  0.00D+00 EMaxC= 1.00D-01 BMatC= 2.34D-04 BMatP= 1.08D-03
 IDIUse=3 WtCom= 9.90D-01 WtEn= 1.02D-02
 Coeff-Com:  0.227D+00 0.773D+00
 Coeff-En:   0.000D+00 0.100D+01
 Coeff:      0.225D+00 0.775D+00
 Gap=     0.246 Goal=   None    Shift=    0.000
 RMSDP=2.78D-04 MaxDP=5.77D-03 DE=-1.50D-03 OVMax= 1.11D-02

 Cycle   3  Pass 0  IDiag  1:
 E= -284.412528870204     Delta-E=        0.000110326671 Rises=F Damp=F
 DIIS: error= 1.47D-03 at cycle   3 NSaved=   3.
 NSaved= 3 IEnMin= 2 EnMin= -284.412639196874     IErMin= 2 ErrMin= 1.02D-03
 ErrMax= 1.47D-03  0.00D+00 EMaxC= 1.00D-01 BMatC= 3.80D-04 BMatP= 2.34D-04
 IDIUse=3 WtCom= 2.07D-01 WtEn= 7.93D-01
 Coeff-Com: -0.383D-02 0.564D+00 0.440D+00
 Coeff-En:   0.000D+00 0.596D+00 0.404D+00
 Coeff:     -0.793D-03 0.589D+00 0.412D+00
 Gap=     0.245 Goal=   None    Shift=    0.000
 RMSDP=1.78D-04 MaxDP=3.94D-03 DE= 1.10D-04 OVMax= 7.45D-03

 Cycle   4  Pass 0  IDiag  1:
 E= -284.412810551496     Delta-E=       -0.000281681292 Rises=F Damp=F
 DIIS: error= 2.40D-04 at cycle   4 NSaved=   4.
 NSaved= 4 IEnMin= 4 EnMin= -284.412810551496     IErMin= 4 ErrMin= 2.40D-04
 ErrMax= 2.40D-04  0.00D+00 EMaxC= 1.00D-01 BMatC= 8.74D-06 BMatP= 2.34D-04
 IDIUse=3 WtCom= 9.98D-01 WtEn= 2.40D-03
 Coeff-Com: -0.163D-01 0.257D+00 0.207D+00 0.552D+00
 Coeff-En:   0.000D+00 0.000D+00 0.000D+00 0.100D+01
 Coeff:     -0.162D-01 0.256D+00 0.206D+00 0.554D+00
 Gap=     0.244 Goal=   None    Shift=    0.000
 RMSDP=3.86D-05 MaxDP=7.15D-04 DE=-2.82D-04 OVMax= 7.69D-04

 Cycle   5  Pass 0  IDiag  1:
 E= -284.412817246988     Delta-E=       -0.000006695491 Rises=F Damp=F
 DIIS: error= 8.90D-05 at cycle   5 NSaved=   5.
 NSaved= 5 IEnMin= 5 EnMin= -284.412817246988     IErMin= 5 ErrMin= 8.90D-05
 ErrMax= 8.90D-05  0.00D+00 EMaxC= 1.00D-01 BMatC= 1.09D-06 BMatP= 8.74D-06
 IDIUse=1 WtCom= 1.00D+00 WtEn= 0.00D+00
 Coeff-Com: -0.701D-02 0.746D-01 0.659D-01 0.297D+00 0.569D+00
 Coeff:     -0.701D-02 0.746D-01 0.659D-01 0.297D+00 0.569D+00
 Gap=     0.245 Goal=   None    Shift=    0.000
 RMSDP=1.02D-05 MaxDP=2.13D-04 DE=-6.70D-06 OVMax= 2.29D-04

 Cycle   6  Pass 0  IDiag  1:
 E= -284.412818144667     Delta-E=       -0.000000897680 Rises=F Damp=F
 DIIS: error= 1.05D-05 at cycle   6 NSaved=   6.
 NSaved= 6 IEnMin= 6 EnMin= -284.412818144667     IErMin= 6 ErrMin= 1.05D-05
 ErrMax= 1.05D-05  0.00D+00 EMaxC= 1.00D-01 BMatC= 2.53D-08 BMatP= 1.09D-06
 IDIUse=1 WtCom= 1.00D+00 WtEn= 0.00D+00
 Coeff-Com: -0.228D-02 0.208D-01 0.198D-01 0.105D+00 0.232D+00 0.625D+00
 Coeff:     -0.228D-02 0.208D-01 0.198D-01 0.105D+00 0.232D+00 0.625D+00
 Gap=     0.245 Goal=   None    Shift=    0.000
 RMSDP=1.93D-06 MaxDP=3.39D-05 DE=-8.98D-07 OVMax= 4.03D-05

 Initial convergence to 1.0D-05 achieved.  Increase integral accuracy.
 Cycle   7  Pass 1  IDiag  1:
 E= -284.412811406656     Delta-E=        0.000006738011 Rises=F Damp=F
 DIIS: error= 4.73D-06 at cycle   1 NSaved=   1.
 NSaved= 1 IEnMin= 1 EnMin= -284.412811406656     IErMin= 1 ErrMin= 4.73D-06
 ErrMax= 4.73D-06  0.00D+00 EMaxC= 1.00D-01 BMatC= 4.33D-09 BMatP= 4.33D-09
 IDIUse=1 WtCom= 1.00D+00 WtEn= 0.00D+00
 Coeff-Com:  0.100D+01
 Coeff:      0.100D+01
 Gap=     0.245 Goal=   None    Shift=    0.000
 RMSDP=1.93D-06 MaxDP=3.39D-05 DE= 6.74D-06 OVMax= 2.57D-05

 Cycle   8  Pass 1  IDiag  1:
 E= -284.412811404778     Delta-E=        0.000000001878 Rises=F Damp=F
 DIIS: error= 7.12D-06 at cycle   2 NSaved=   2.
 NSaved= 2 IEnMin= 1 EnMin= -284.412811406656     IErMin= 1 ErrMin= 4.73D-06
 ErrMax= 7.12D-06  0.00D+00 EMaxC= 1.00D-01 BMatC= 7.65D-09 BMatP= 4.33D-09
 IDIUse=1 WtCom= 1.00D+00 WtEn= 0.00D+00
 Coeff-Com:  0.573D+00 0.427D+00
 Coeff:      0.573D+00 0.427D+00
 Gap=     0.245 Goal=   None    Shift=    0.000
 RMSDP=6.71D-07 MaxDP=1.34D-05 DE= 1.88D-09 OVMax= 1.67D-05

 Cycle   9  Pass 1  IDiag  1:
 E= -284.412811410494     Delta-E=       -0.000000005716 Rises=F Damp=F
 DIIS: error= 7.24D-07 at cycle   3 NSaved=   3.
 NSaved= 3 IEnMin= 3 EnMin= -284.412811410494     IErMin= 3 ErrMin= 7.24D-07
 ErrMax= 7.24D-07  0.00D+00 EMaxC= 1.00D-01 BMatC= 9.35D-11 BMatP= 4.33D-09
 IDIUse=1 WtCom= 1.00D+00 WtEn= 0.00D+00
 Coeff-Com:  0.160D+00 0.154D+00 0.686D+00
 Coeff:      0.160D+00 0.154D+00 0.686D+00
 Gap=     0.245 Goal=   None    Shift=    0.000
 RMSDP=1.46D-07 MaxDP=2.69D-06 DE=-5.72D-09 OVMax= 2.79D-06

 Cycle  10  Pass 1  IDiag  1:
 E= -284.412811410535     Delta-E=       -0.000000000041 Rises=F Damp=F
 DIIS: error= 4.46D-07 at cycle   4 NSaved=   4.
 NSaved= 4 IEnMin= 4 EnMin= -284.412811410535     IErMin= 4 ErrMin= 4.46D-07
 ErrMax= 4.46D-07  0.00D+00 EMaxC= 1.00D-01 BMatC= 4.04D-11 BMatP= 9.35D-11
 IDIUse=1 WtCom= 1.00D+00 WtEn= 0.00D+00
 Coeff-Com:  0.606D-02 0.246D-01 0.419D+00 0.551D+00
 Coeff:      0.606D-02 0.246D-01 0.419D+00 0.551D+00
 Gap=     0.245 Goal=   None    Shift=    0.000
 RMSDP=7.47D-08 MaxDP=1.46D-06 DE=-4.14D-11 OVMax= 2.52D-06

 Cycle  11  Pass 1  IDiag  1:
 E= -284.412811410566     Delta-E=       -0.000000000031 Rises=F Damp=F
 DIIS: error= 2.07D-07 at cycle   5 NSaved=   5.
 NSaved= 5 IEnMin= 5 EnMin= -284.412811410566     IErMin= 5 ErrMin= 2.07D-07
 ErrMax= 2.07D-07  0.00D+00 EMaxC= 1.00D-01 BMatC= 6.15D-12 BMatP= 4.04D-11
 IDIUse=1 WtCom= 1.00D+00 WtEn= 0.00D+00
 Coeff-Com: -0.871D-02 0.372D-02 0.218D+00 0.361D+00 0.426D+00
 Coeff:     -0.871D-02 0.372D-02 0.218D+00 0.361D+00 0.426D+00
 Gap=     0.245 Goal=   None    Shift=    0.000
 RMSDP=2.65D-08 MaxDP=5.34D-07 DE=-3.10D-11 OVMax= 1.06D-06

 Cycle  12  Pass 1  IDiag  1:
 E= -284.412811410572     Delta-E=       -0.000000000006 Rises=F Damp=F
 DIIS: error= 3.38D-08 at cycle   6 NSaved=   6.
 NSaved= 6 IEnMin= 6 EnMin= -284.412811410572     IErMin= 6 ErrMin= 3.38D-08
 ErrMax= 3.38D-08  0.00D+00 EMaxC= 1.00D-01 BMatC= 3.18D-13 BMatP= 6.15D-12
 IDIUse=1 WtCom= 1.00D+00 WtEn= 0.00D+00
 Coeff-Com: -0.584D-02-0.240D-02 0.433D-01 0.971D-01 0.217D+00 0.650D+00
 Coeff:     -0.584D-02-0.240D-02 0.433D-01 0.971D-01 0.217D+00 0.650D+00
 Gap=     0.245 Goal=   None    Shift=    0.000
 RMSDP=6.71D-09 MaxDP=8.99D-08 DE=-6.03D-12 OVMax= 1.81D-07

 SCF Done:  E(RB3LYP) =  -284.412811411     A.U. after   12 cycles
            NFock= 12  Conv=0.67D-08     -V/T= 2.0091
 KE= 2.818577620050D+02 PE=-1.021910385916D+03 EE= 2.778108285176D+02
 Leave Link  502 at Fri Mar 14 15:41:59 2025, MaxMem=  8589934592 cpu:              10.3 elap:               1.1
 (Enter /home/enzo/gaussian_versions/gdv.j21/gdv/l701.exe)
 ... and contract with generalized density number  0.
 Compute integral first derivatives.
 Leave Link  701 at Fri Mar 14 15:41:59 2025, MaxMem=  8589934592 cpu:               1.3 elap:               0.3
 (Enter /home/enzo/gaussian_versions/gdv.j21/gdv/l702.exe)
 L702 exits ... SP integral derivatives will be done elsewhere.
 Leave Link  702 at Fri Mar 14 15:41:59 2025, MaxMem=  8589934592 cpu:               0.2 elap:               0.2
 (Enter /home/enzo/gaussian_versions/gdv.j21/gdv/l703.exe)
 Integral derivatives from FoFJK, PRISM(SPDF).
 Compute integral first derivatives, UseDBF=F ICtDFT=           0.
 Calling FoFJK, ICntrl=      2127 FMM=F ISym2X=0 I1Cent= 0 IOpClX= 0 NMat=1 NMatS=1 NMatT=0.
 FoFJK:  IHMeth= 1 ICntrl=    2127 DoSepK=F KAlg= 0 I1Cent=           0 FoldK=F
 IRaf=         0 NMat=       1 IRICut=       1 DoRegI=T DoRafI=F ISym2E= 0 IDoP0=0 IntGTp=1.
 FoFCou: FMM=F IPFlag=           0 FMFlag=      100000 FMFlg1=         800
         NFxFlg=           0 DoJE=F BraDBF=F KetDBF=F FulRan=T
         wScrn=  0.000000 ICntrl=      2127 IOpCl=  0 I1Cent=           0 NGrid=           0
         NMat0=    1 NMatS0=      1 NMatT0=    0 NMatD0=    1 NMtDS0=    0 NMtDT0=    0
 Symmetry not used in FoFCou.
 Leave Link  703 at Fri Mar 14 15:42:00 2025, MaxMem=  8589934592 cpu:               3.5 elap:               0.4
 (Enter /home/enzo/gaussian_versions/gdv.j21/gdv/l716.exe)
 Dipole        = 4.29222674D-01-1.32470325D-01 3.01355518D-01
 ***** Axes restored to original set *****
 -------------------------------------------------------------------
 Center     Atomic                   Forces (Hartrees/Bohr)
 Number     Number              X              Y              Z
 -------------------------------------------------------------------
      1        7           0.018742032   -0.000958471    0.008954047
      2        6          -0.017353409    0.007783908   -0.009276543
      3        6          -0.007208970   -0.022791584   -0.012522310
      4        8          -0.001913590    0.011825892    0.005141319
      5        8           0.001660977    0.008018657    0.002384126
      6        1           0.000558608   -0.000052195    0.005045470
      7        1           0.004287542    0.000792715    0.005127499
      8        1          -0.006444812   -0.000173663   -0.005492391
      9        1           0.000843753   -0.006506898    0.003098119
     10        1           0.006827868    0.002061640   -0.002459337
 -------------------------------------------------------------------
 Cartesian Forces:  Max     0.022791584 RMS     0.008373447
 Leave Link  716 at Fri Mar 14 15:42:00 2025, MaxMem=  8589934592 cpu:               0.1 elap:               0.1
 (Enter /home/enzo/gaussian_versions/gdv.j21/gdv/l103.exe)

 GradGradGradGradGradGradGradGradGradGradGradGradGradGradGradGradGradGrad
 Berny optimization.
 Using GEDIIS/GDIIS optimizer.
 FormGI is forming the generalized inverse of G from B-inverse, IUseBI=4.
 Internal  Forces:  Max     0.029199318 RMS     0.006901062
 Search for a local minimum.
 Step number  11 out of a maximum of   46
 All quantities printed in internal units (Hartrees-Bohrs-Radians)
 RMS Force = .69011D-02 SwitMx=.10000D-02 MixMth= 1
 Mixed Optimization -- RFO/linear search
 Update second derivatives using D2CorX and points    6    7    8    9   11
                                                     10
 ITU=  0  1  1  1  1  1  1  0  1  1  0
 Use linear search instead of GDIIS.
     Eigenvalues ---    0.00000   0.00336   0.02296   0.04310   0.05319
     Eigenvalues ---    0.06223   0.07000   0.09618   0.14212   0.16075
     Eigenvalues ---    0.16428   0.18099   0.20473   0.23904   0.27624
     Eigenvalues ---    0.31673   0.32472   0.32660   0.34621   0.40655
     Eigenvalues ---    0.41620   0.45917   0.50674   0.84915
 RFO step:  Lambda=-8.30844259D-04 EMin= 1.50206885D-07
 Quartic linear search produced a step of -0.98536.
 Iteration  1 RMS(Cart)=  0.10869701 RMS(Int)=  0.07774009
 Iteration  2 RMS(Cart)=  0.09085521 RMS(Int)=  0.00464284
 Iteration  3 RMS(Cart)=  0.00538960 RMS(Int)=  0.00035415
 Iteration  4 RMS(Cart)=  0.00001665 RMS(Int)=  0.00035392
 Iteration  5 RMS(Cart)=  0.00000000 RMS(Int)=  0.00035392
 Variable       Old X    -DE/DX   Delta X   Delta X   Delta X     New X
                                 (Linear)    (Quad)   (Total)
    R1        2.87072  -0.02920  -0.09854   0.00395  -0.09458   2.77614
    R2        1.92008   0.00154   0.00369   0.00025   0.00395   1.92402
    R3        1.93529  -0.00443  -0.00897  -0.00206  -0.01103   1.92426
    R4        2.86366   0.00215   0.00958  -0.00250   0.00708   2.87074
    R5        2.07947  -0.00416  -0.01026  -0.00723  -0.01749   2.06198
    R6        2.05372   0.00701   0.02620   0.00111   0.02732   2.08103
    R7        2.30828  -0.01210  -0.01797  -0.00218  -0.02015   2.28813
    R8        2.52019   0.01239   0.03463   0.00096   0.03559   2.55578
    R9        1.83212   0.00712   0.01149   0.00303   0.01452   1.84664
    A1        1.92294  -0.00642  -0.01566  -0.00155  -0.01732   1.90562
    A2        1.92018  -0.00716  -0.01325  -0.01740  -0.03077   1.88941
    A3        1.83805   0.00523   0.01766   0.00253   0.01994   1.85799
    A4        1.93068  -0.00806  -0.02662  -0.04570  -0.07219   1.85849
    A5        1.92825  -0.00479  -0.03712   0.02569  -0.01058   1.91767
    A6        1.96508   0.00506   0.04389  -0.02609   0.01712   1.98220
    A7        1.87169   0.00750   0.02618   0.03376   0.06005   1.93174
    A8        1.86973   0.00094  -0.00575   0.00965   0.00315   1.87288
    A9        1.89502  -0.00021   0.00039   0.00571   0.00526   1.90027
   A10        2.15073   0.00515   0.02534  -0.00959   0.01572   2.16645
   A11        1.96936   0.00056  -0.00781   0.00642  -0.00140   1.96796
   A12        2.16198  -0.00562  -0.01691   0.00157  -0.01534   2.14664
   A13        1.83806   0.00447   0.01661   0.00092   0.01753   1.85559
    D1       -3.05893  -0.00136   0.00009   0.06902   0.06925  -2.98968
    D2       -0.98911  -0.00017  -0.00616   0.09834   0.09220  -0.89692
    D3        1.13290  -0.00035  -0.00287   0.10603   0.10321   1.23611
    D4        1.20530   0.00020  -0.00471   0.07699   0.07228   1.27758
    D5       -3.00807   0.00139  -0.01095   0.10631   0.09523  -2.91284
    D6       -0.88606   0.00121  -0.00767   0.11400   0.10625  -0.77981
    D7       -1.67015  -0.00330  -0.02908   0.42733   0.39775  -1.27240
    D8        1.42262  -0.00150  -0.01308   0.39204   0.37825   1.80086
    D9        2.50916   0.00257   0.01548   0.40174   0.41800   2.92716
   D10       -0.68126   0.00437   0.03148   0.36645   0.39850  -0.28276
   D11        0.47757  -0.00139   0.00477   0.37348   0.37829   0.85586
   D12       -2.71286   0.00040   0.02078   0.33819   0.35879  -2.35407
   D13       -3.06814  -0.00153  -0.00460   0.01446   0.00954  -3.05860
   D14        0.02426   0.00063   0.01243  -0.02146  -0.00870   0.01555
         Item               Value     Threshold  Converged?
 Maximum Force            0.029199     0.000450     NO 
 RMS     Force            0.006901     0.000300     NO 
 Maximum Displacement     0.626193     0.001800     NO 
 RMS     Displacement     0.190050     0.001200     NO 
 Predicted change in Energy=-7.276687D-04
 GradGradGradGradGradGradGradGradGradGradGradGradGradGradGradGradGradGrad

 Leave Link  103 at Fri Mar 14 15:42:00 2025, MaxMem=  8589934592 cpu:               0.5 elap:               0.2
 (Enter /home/enzo/gaussian_versions/gdv.j21/gdv/l202.exe)
                          Input orientation:                          
 ---------------------------------------------------------------------
 Center     Atomic      Atomic             Coordinates (Angstroms)
 Number     Number       Type             X           Y           Z
 ---------------------------------------------------------------------
      1          7           0       -1.881983    0.100171   -0.442983
      2          6           0       -0.903979   -0.164500    0.620793
      3          6           0        0.469269   -0.058340   -0.020045
      4          8           0        0.932242   -0.883952   -0.775108
      5          8           0        1.095715    1.103485    0.274709
      6          1           0       -2.809694    0.182453   -0.031632
      7          1           0       -1.910423   -0.710173   -1.058952
      8          1           0       -1.015004    0.571842    1.418346
      9          1           0       -0.986408   -1.173743    1.053637
     10          1           0        1.925644    1.106479   -0.241171
 ---------------------------------------------------------------------
                    Distance matrix (angstroms):
                    1          2          3          4          5
     1  N    0.000000
     2  C    1.469068   0.000000
     3  C    2.394241   1.519130   0.000000
     4  O    2.999777   2.416166   1.210825   0.000000
     5  O    3.223105   2.392977   1.352461   2.253606   0.000000
     6  H    1.018149   2.043962   3.287813   3.961320   4.024222
     7  H    1.018275   2.032789   2.677153   2.862081   3.755645
     8  H    2.106816   1.091154   2.160826   3.274499   2.458798
     9  H    2.159811   1.101235   2.125067   2.666365   3.182410
    10  H    3.943527   3.219494   1.877959   2.287739   0.977201
                    6          7          8          9         10
     6  H    0.000000
     7  H    1.631213   0.000000
     8  H    2.339866   2.929564   0.000000
     9  H    2.518223   2.351964   1.783508   0.000000
    10  H    4.829198   4.322545   3.418662   3.918671   0.000000
 Stoichiometry    C2H5NO2
 Framework group  C1[X(C2H5NO2)]
 Deg. of freedom    24
 Full point group                 C1      NOp   1
 RotChk:  IX=0 Diff= 5.78D-01
 Largest Abelian subgroup         C1      NOp   1
 Largest concise Abelian subgroup C1      NOp   1
                         Standard orientation:                         
 ---------------------------------------------------------------------
 Center     Atomic      Atomic             Coordinates (Angstroms)
 Number     Number       Type             X           Y           Z
 ---------------------------------------------------------------------
      1          7           0        1.739838   -0.012058   -0.519164
      2          6           0        0.827618   -0.304223    0.594683
      3          6           0       -0.560987    0.103589    0.132924
      4          8           0       -0.927888    1.251455    0.015095
      5          8           0       -1.327628   -0.954245   -0.216936
      6          1           0        2.657323   -0.401385   -0.311143
      7          1           0        1.860966    0.997395   -0.575879
      8          1           0        0.858252   -1.369341    0.829636
      9          1           0        1.050498    0.268741    1.508333
     10          1           0       -2.161562   -0.584881   -0.567717
 ---------------------------------------------------------------------
 Rotational constants (GHZ):           8.8682889           4.0110669           3.2058276
 Leave Link  202 at Fri Mar 14 15:42:00 2025, MaxMem=  8589934592 cpu:               0.3 elap:               0.2
 (Enter /home/enzo/gaussian_versions/gdv.j21/gdv/l301.exe)
 Standard basis: 6-31G(d) (6D, 7F)
 Ernie: Thresh=  0.10000D-02 Tol=  0.10000D-05 Strict=F.
 There are    85 symmetry adapted cartesian basis functions of A   symmetry.
 There are    85 symmetry adapted basis functions of A   symmetry.
    85 basis functions,   160 primitive gaussians,    85 cartesian basis functions
    20 alpha electrons       20 beta electrons
       nuclear repulsion energy       179.1553449871 Hartrees.
 IExCor=      4002 DFT=T Ex+Corr=B3LYP ScaHFX=  0.200000
 ScaDFX=  0.800000  0.720000  1.000000  0.810000  1.000000  0.000000
 ScaDFX=  0.000000  0.000000  0.000000  0.000000  0.000000  0.000000
 IRadAn=      5 IRanWt=     -1 IRanGd=            0 ICorTp=0 IEmpDi=  4
 NAtoms=   10 NActive=   10 NUniq=   10 SFac= 1.00D+00 NAtFMM=   60 NAOKFM=F Big=F
 Integral buffers will be    131072 words long.
 Raffenetti 2 integral format.
 Two-electron integral symmetry is turned on.
 Leave Link  301 at Fri Mar 14 15:42:01 2025, MaxMem=  8589934592 cpu:               0.4 elap:               0.2
 (Enter /home/enzo/gaussian_versions/gdv.j21/gdv/l302.exe)
 NPDir=0 NMtPBC=     1 NCelOv=     1 NCel=       1 NClECP=     1 NCelD=      1
         NCelK=      1 NCelE2=     1 NClLst=     1 CellRange=     0.0.
 One-electron integrals computed using PRISM.
 One-electron integral symmetry used in STVInt
 NBasis=    85 RedAO= T EigKep=  3.98D-03  NBF=    85
 NBsUse=    85 1.00D-06 EigRej= -1.00D+00 NBFU=    85
 Precomputing XC quadrature grid using
 IXCGrd= 4 IRadAn=           5 IRanWt=          -1 IRanGd=           0 AccXCQ= 0.00D+00.
 Generated NRdTot=       0 NPtTot=      219472 NUsed=           0 NTot=          64
 NSgBfM=    85    85    85    85    85 MxSgAt=    10 MxSgA2=    10 SizInc=   0.000
 NMBTot=     1942 MaxBatPerAtom=       83 MaxMicBPerAtom=      208 NBfPt=            15994534.
 Leave Link  302 at Fri Mar 14 15:42:01 2025, MaxMem=  8589934592 cpu:               1.2 elap:               0.3
 (Enter /home/enzo/gaussian_versions/gdv.j21/gdv/l303.exe)
 DipDrv:  MaxL=1.
 Leave Link  303 at Fri Mar 14 15:42:01 2025, MaxMem=  8589934592 cpu:               0.2 elap:               0.2
 (Enter /home/enzo/gaussian_versions/gdv.j21/gdv/l401.exe)
 Lowest energy guess from the checkpoint file:  "/local/home/enzo/scratch/Gau-2409754.chk"
 B after Tr=     0.000000   -0.000000   -0.000000
         Rot=    0.988391   -0.141097   -0.001755    0.056311 Ang= -17.48 deg.
 AO Guess basis will be translated and rotated to current coordinates.
 B after Tr=    -0.000000    0.000000    0.000000
         Rot=    0.989561   -0.134137   -0.008406    0.052017 Ang= -16.57 deg.
 AO Guess basis will be translated and rotated to current coordinates.
 CkInt1:  FT= 1.46D-02
 Max alpha theta=  0.993 degrees.
 JPrj=2 DoOrth=T DoCkMO=T.
 Leave Link  401 at Fri Mar 14 15:42:01 2025, MaxMem=  8589934592 cpu:               0.9 elap:               0.3
 (Enter /home/enzo/gaussian_versions/gdv.j21/gdv/l502.exe)
 Keep R1 ints in memory in canonical form, NReq=17617987.
 FoFCou: FMM=F IPFlag=           0 FMFlag=           0 FMFlg1=           0
         NFxFlg=           0 DoJE=F BraDBF=F KetDBF=F FulRan=T
         wScrn=  0.000000 ICntrl=       600 IOpCl=  0 I1Cent=           0 NGrid=           0
         NMat0=    1 NMatS0=   3655 NMatT0=    0 NMatD0=    1 NMtDS0=    0 NMtDT0=    0
 Symmetry not used in FoFCou.
 Two-electron integral symmetry not used.
 Closed shell SCF:
 Using DIIS extrapolation, IDIIS=  1040.
 NGot=  8589934592 LenX=  8583230350 LenY=  8583222684
 Requested convergence on RMS density matrix=1.00D-08 within 128 cycles.
 Requested convergence on MAX density matrix=1.00D-06.
 Requested convergence on             energy=1.00D-06.
 No special actions if energy rises.
 Integral accuracy reduced to 1.0D-05 until final iterations.

 Cycle   1  Pass 0  IDiag  1:
 E= -284.353132164457    
 DIIS: error= 1.07D-02 at cycle   1 NSaved=   1.
 NSaved= 1 IEnMin= 1 EnMin= -284.353132164457     IErMin= 1 ErrMin= 1.07D-02
 ErrMax= 1.07D-02  0.00D+00 EMaxC= 1.00D-01 BMatC= 3.30D-02 BMatP= 3.30D-02
 IDIUse=3 WtCom= 8.93D-01 WtEn= 1.07D-01
 Coeff-Com:  0.100D+01
 Coeff-En:   0.100D+01
 Coeff:      0.100D+01
 Gap=    18.804 Goal=   None    Shift=    0.000
 GapD=   18.804 DampG=2.000 DampE=0.500 DampFc=1.0000 IDamp=-1.
 RMSDP=3.66D-03 MaxDP=4.67D-02              OVMax= 7.03D-02

 Cycle   2  Pass 0  IDiag  1:
 E= -284.415407742149     Delta-E=       -0.062275577691 Rises=F Damp=F
 DIIS: error= 1.49D-03 at cycle   2 NSaved=   2.
 NSaved= 2 IEnMin= 2 EnMin= -284.415407742149     IErMin= 2 ErrMin= 1.49D-03
 ErrMax= 1.49D-03  0.00D+00 EMaxC= 1.00D-01 BMatC= 6.51D-04 BMatP= 3.30D-02
 IDIUse=3 WtCom= 9.85D-01 WtEn= 1.49D-02
 Coeff-Com: -0.626D-01 0.106D+01
 Coeff-En:   0.000D+00 0.100D+01
 Coeff:     -0.617D-01 0.106D+01
 Gap=     0.257 Goal=   None    Shift=    0.000
 RMSDP=5.07D-04 MaxDP=7.19D-03 DE=-6.23D-02 OVMax= 1.07D-02

 Cycle   3  Pass 0  IDiag  1:
 E= -284.415801127494     Delta-E=       -0.000393385345 Rises=F Damp=F
 DIIS: error= 1.96D-03 at cycle   3 NSaved=   3.
 NSaved= 3 IEnMin= 3 EnMin= -284.415801127494     IErMin= 2 ErrMin= 1.49D-03
 ErrMax= 1.96D-03  0.00D+00 EMaxC= 1.00D-01 BMatC= 6.66D-04 BMatP= 6.51D-04
 IDIUse=3 WtCom= 9.80D-01 WtEn= 1.96D-02
 Coeff-Com: -0.466D-01 0.571D+00 0.475D+00
 Coeff-En:   0.000D+00 0.225D+00 0.775D+00
 Coeff:     -0.457D-01 0.564D+00 0.481D+00
 Gap=     0.252 Goal=   None    Shift=    0.000
 RMSDP=2.52D-04 MaxDP=4.36D-03 DE=-3.93D-04 OVMax= 6.15D-03

 Cycle   4  Pass 0  IDiag  1:
 E= -284.416278894941     Delta-E=       -0.000477767447 Rises=F Damp=F
 DIIS: error= 5.16D-04 at cycle   4 NSaved=   4.
 NSaved= 4 IEnMin= 4 EnMin= -284.416278894941     IErMin= 4 ErrMin= 5.16D-04
 ErrMax= 5.16D-04  0.00D+00 EMaxC= 1.00D-01 BMatC= 4.62D-05 BMatP= 6.51D-04
 IDIUse=3 WtCom= 9.95D-01 WtEn= 5.16D-03
 Coeff-Com: -0.128D-01 0.145D+00 0.241D+00 0.627D+00
 Coeff-En:   0.000D+00 0.000D+00 0.000D+00 0.100D+01
 Coeff:     -0.127D-01 0.145D+00 0.239D+00 0.629D+00
 Gap=     0.252 Goal=   None    Shift=    0.000
 RMSDP=7.22D-05 MaxDP=1.76D-03 DE=-4.78D-04 OVMax= 2.34D-03

 Cycle   5  Pass 0  IDiag  1:
 E= -284.416307079443     Delta-E=       -0.000028184502 Rises=F Damp=F
 DIIS: error= 2.09D-04 at cycle   5 NSaved=   5.
 NSaved= 5 IEnMin= 5 EnMin= -284.416307079443     IErMin= 5 ErrMin= 2.09D-04
 ErrMax= 2.09D-04  0.00D+00 EMaxC= 1.00D-01 BMatC= 9.67D-06 BMatP= 4.62D-05
 IDIUse=3 WtCom= 9.98D-01 WtEn= 2.09D-03
 Coeff-Com: -0.516D-02 0.544D-01 0.126D+00 0.414D+00 0.411D+00
 Coeff-En:   0.000D+00 0.000D+00 0.000D+00 0.115D+00 0.885D+00
 Coeff:     -0.515D-02 0.543D-01 0.125D+00 0.413D+00 0.412D+00
 Gap=     0.252 Goal=   None    Shift=    0.000
 RMSDP=3.23D-05 MaxDP=7.14D-04 DE=-2.82D-05 OVMax= 1.27D-03

 Cycle   6  Pass 0  IDiag  1:
 E= -284.416314251341     Delta-E=       -0.000007171899 Rises=F Damp=F
 DIIS: error= 4.42D-05 at cycle   6 NSaved=   6.
 NSaved= 6 IEnMin= 6 EnMin= -284.416314251341     IErMin= 6 ErrMin= 4.42D-05
 ErrMax= 4.42D-05  0.00D+00 EMaxC= 1.00D-01 BMatC= 4.53D-07 BMatP= 9.67D-06
 IDIUse=1 WtCom= 1.00D+00 WtEn= 0.00D+00
 Coeff-Com:  0.251D-03-0.665D-02 0.101D-01 0.710D-01 0.198D+00 0.728D+00
 Coeff:      0.251D-03-0.665D-02 0.101D-01 0.710D-01 0.198D+00 0.728D+00
 Gap=     0.252 Goal=   None    Shift=    0.000
 RMSDP=7.96D-06 MaxDP=1.53D-04 DE=-7.17D-06 OVMax= 2.78D-04

 Initial convergence to 1.0D-05 achieved.  Increase integral accuracy.
 Cycle   7  Pass 1  IDiag  1:
 E= -284.416313826905     Delta-E=        0.000000424437 Rises=F Damp=F
 DIIS: error= 1.71D-05 at cycle   1 NSaved=   1.
 NSaved= 1 IEnMin= 1 EnMin= -284.416313826905     IErMin= 1 ErrMin= 1.71D-05
 ErrMax= 1.71D-05  0.00D+00 EMaxC= 1.00D-01 BMatC= 7.91D-08 BMatP= 7.91D-08
 IDIUse=1 WtCom= 1.00D+00 WtEn= 0.00D+00
 Coeff-Com:  0.100D+01
 Coeff:      0.100D+01
 Gap=     0.252 Goal=   None    Shift=    0.000
 RMSDP=7.96D-06 MaxDP=1.53D-04 DE= 4.24D-07 OVMax= 1.37D-04

 Cycle   8  Pass 1  IDiag  1:
 E= -284.416313736603     Delta-E=        0.000000090302 Rises=F Damp=F
 DIIS: error= 2.98D-05 at cycle   2 NSaved=   2.
 NSaved= 2 IEnMin= 1 EnMin= -284.416313826905     IErMin= 1 ErrMin= 1.71D-05
 ErrMax= 2.98D-05  0.00D+00 EMaxC= 1.00D-01 BMatC= 2.00D-07 BMatP= 7.91D-08
 IDIUse=1 WtCom= 1.00D+00 WtEn= 0.00D+00
 Coeff-Com:  0.615D+00 0.385D+00
 Coeff:      0.615D+00 0.385D+00
 Gap=     0.252 Goal=   None    Shift=    0.000
 RMSDP=3.94D-06 MaxDP=8.58D-05 DE= 9.03D-08 OVMax= 1.13D-04

 Cycle   9  Pass 1  IDiag  1:
 E= -284.416313889496     Delta-E=       -0.000000152894 Rises=F Damp=F
 DIIS: error= 3.62D-06 at cycle   3 NSaved=   3.
 NSaved= 3 IEnMin= 3 EnMin= -284.416313889496     IErMin= 3 ErrMin= 3.62D-06
 ErrMax= 3.62D-06  0.00D+00 EMaxC= 1.00D-01 BMatC= 3.16D-09 BMatP= 7.91D-08
 IDIUse=1 WtCom= 1.00D+00 WtEn= 0.00D+00
 Coeff-Com:  0.368D+00 0.240D+00 0.391D+00
 Coeff:      0.368D+00 0.240D+00 0.391D+00
 Gap=     0.252 Goal=   None    Shift=    0.000
 RMSDP=6.03D-07 MaxDP=1.31D-05 DE=-1.53D-07 OVMax= 2.25D-05

 Cycle  10  Pass 1  IDiag  1:
 E= -284.416313891911     Delta-E=       -0.000000002415 Rises=F Damp=F
 DIIS: error= 9.02D-07 at cycle   4 NSaved=   4.
 NSaved= 4 IEnMin= 4 EnMin= -284.416313891911     IErMin= 4 ErrMin= 9.02D-07
 ErrMax= 9.02D-07  0.00D+00 EMaxC= 1.00D-01 BMatC= 1.63D-10 BMatP= 3.16D-09
 IDIUse=1 WtCom= 1.00D+00 WtEn= 0.00D+00
 Coeff-Com:  0.829D-01 0.571D-01 0.196D+00 0.664D+00
 Coeff:      0.829D-01 0.571D-01 0.196D+00 0.664D+00
 Gap=     0.252 Goal=   None    Shift=    0.000
 RMSDP=1.43D-07 MaxDP=2.91D-06 DE=-2.42D-09 OVMax= 4.39D-06

 Cycle  11  Pass 1  IDiag  1:
 E= -284.416313892024     Delta-E=       -0.000000000112 Rises=F Damp=F
 DIIS: error= 3.25D-07 at cycle   5 NSaved=   5.
 NSaved= 5 IEnMin= 5 EnMin= -284.416313892024     IErMin= 5 ErrMin= 3.25D-07
 ErrMax= 3.25D-07  0.00D+00 EMaxC= 1.00D-01 BMatC= 3.29D-11 BMatP= 1.63D-10
 IDIUse=1 WtCom= 1.00D+00 WtEn= 0.00D+00
 Coeff-Com: -0.138D-01-0.751D-02 0.455D-01 0.367D+00 0.609D+00
 Coeff:     -0.138D-01-0.751D-02 0.455D-01 0.367D+00 0.609D+00
 Gap=     0.252 Goal=   None    Shift=    0.000
 RMSDP=5.98D-08 MaxDP=1.12D-06 DE=-1.12D-10 OVMax= 1.48D-06

 Cycle  12  Pass 1  IDiag  1:
 E= -284.416313892051     Delta-E=       -0.000000000028 Rises=F Damp=F
 DIIS: error= 9.46D-08 at cycle   6 NSaved=   6.
 NSaved= 6 IEnMin= 6 EnMin= -284.416313892051     IErMin= 6 ErrMin= 9.46D-08
 ErrMax= 9.46D-08  0.00D+00 EMaxC= 1.00D-01 BMatC= 1.82D-12 BMatP= 3.29D-11
 IDIUse=1 WtCom= 1.00D+00 WtEn= 0.00D+00
 Coeff-Com: -0.137D-01-0.870D-02 0.741D-03 0.866D-01 0.259D+00 0.676D+00
 Coeff:     -0.137D-01-0.870D-02 0.741D-03 0.866D-01 0.259D+00 0.676D+00
 Gap=     0.252 Goal=   None    Shift=    0.000
 RMSDP=1.87D-08 MaxDP=2.55D-07 DE=-2.75D-11 OVMax= 5.13D-07

 Cycle  13  Pass 1  IDiag  1:
 E= -284.416313892054     Delta-E=       -0.000000000003 Rises=F Damp=F
 DIIS: error= 2.90D-08 at cycle   7 NSaved=   7.
 NSaved= 7 IEnMin= 7 EnMin= -284.416313892054     IErMin= 7 ErrMin= 2.90D-08
 ErrMax= 2.90D-08  0.00D+00 EMaxC= 1.00D-01 BMatC= 2.01D-13 BMatP= 1.82D-12
 IDIUse=1 WtCom= 1.00D+00 WtEn= 0.00D+00
 Coeff-Com: -0.622D-02-0.403D-02-0.268D-02 0.204D-01 0.921D-01 0.342D+00
 Coeff-Com:  0.559D+00
 Coeff:     -0.622D-02-0.403D-02-0.268D-02 0.204D-01 0.921D-01 0.342D+00
 Coeff:      0.559D+00
 Gap=     0.252 Goal=   None    Shift=    0.000
 RMSDP=5.06D-09 MaxDP=9.44D-08 DE=-3.07D-12 OVMax= 1.22D-07

 SCF Done:  E(RB3LYP) =  -284.416313892     A.U. after   13 cycles
            NFock= 13  Conv=0.51D-08     -V/T= 2.0088
 KE= 2.819247386047D+02 PE=-1.024640407338D+03 EE= 2.791440098538D+02
 Leave Link  502 at Fri Mar 14 15:42:02 2025, MaxMem=  8589934592 cpu:              12.2 elap:               1.2
 (Enter /home/enzo/gaussian_versions/gdv.j21/gdv/l701.exe)
 ... and contract with generalized density number  0.
 Compute integral first derivatives.
 Leave Link  701 at Fri Mar 14 15:42:03 2025, MaxMem=  8589934592 cpu:               0.9 elap:               0.2
 (Enter /home/enzo/gaussian_versions/gdv.j21/gdv/l702.exe)
 L702 exits ... SP integral derivatives will be done elsewhere.
 Leave Link  702 at Fri Mar 14 15:42:03 2025, MaxMem=  8589934592 cpu:               0.2 elap:               0.1
 (Enter /home/enzo/gaussian_versions/gdv.j21/gdv/l703.exe)
 Integral derivatives from FoFJK, PRISM(SPDF).
 Compute integral first derivatives, UseDBF=F ICtDFT=           0.
 Calling FoFJK, ICntrl=      2127 FMM=F ISym2X=0 I1Cent= 0 IOpClX= 0 NMat=1 NMatS=1 NMatT=0.
 FoFJK:  IHMeth= 1 ICntrl=    2127 DoSepK=F KAlg= 0 I1Cent=           0 FoldK=F
 IRaf=         0 NMat=       1 IRICut=       1 DoRegI=T DoRafI=F ISym2E= 0 IDoP0=0 IntGTp=1.
 FoFCou: FMM=F IPFlag=           0 FMFlag=      100000 FMFlg1=         800
         NFxFlg=           0 DoJE=F BraDBF=F KetDBF=F FulRan=T
         wScrn=  0.000000 ICntrl=      2127 IOpCl=  0 I1Cent=           0 NGrid=           0
         NMat0=    1 NMatS0=      1 NMatT0=    0 NMatD0=    1 NMtDS0=    0 NMtDT0=    0
 Symmetry not used in FoFCou.
 Leave Link  703 at Fri Mar 14 15:42:03 2025, MaxMem=  8589934592 cpu:               3.3 elap:               0.4
 (Enter /home/enzo/gaussian_versions/gdv.j21/gdv/l716.exe)
 Dipole        = 4.09927987D-01-3.44761550D-01 4.01753863D-01
 ***** Axes restored to original set *****
 -------------------------------------------------------------------
 Center     Atomic                   Forces (Hartrees/Bohr)
 Number     Number              X              Y              Z
 -------------------------------------------------------------------
      1        7          -0.002293896    0.000553602    0.001187066
      2        6           0.000367200   -0.003956832   -0.001386644
      3        6          -0.000210950    0.003407350   -0.002148625
      4        8           0.000468653   -0.001422315    0.000434588
      5        8           0.000896383   -0.000621225    0.001204157
      6        1          -0.000189248    0.000009827   -0.000067800
      7        1           0.000469559    0.000717182   -0.001455040
      8        1           0.000007648    0.001390286   -0.000581635
      9        1           0.001079402    0.000396397    0.002329171
     10        1          -0.000594751   -0.000474271    0.000484763
 -------------------------------------------------------------------
 Cartesian Forces:  Max     0.003956832 RMS     0.001399505
 Leave Link  716 at Fri Mar 14 15:42:03 2025, MaxMem=  8589934592 cpu:               0.3 elap:               0.1
 (Enter /home/enzo/gaussian_versions/gdv.j21/gdv/l103.exe)

 GradGradGradGradGradGradGradGradGradGradGradGradGradGradGradGradGradGrad
 Berny optimization.
 Using GEDIIS/GDIIS optimizer.
 FormGI is forming the generalized inverse of G from B-inverse, IUseBI=4.
 Internal  Forces:  Max     0.002443333 RMS     0.001007536
 Search for a local minimum.
 Step number  12 out of a maximum of   46
 All quantities printed in internal units (Hartrees-Bohrs-Radians)
 RMS Force = .10075D-02 SwitMx=.10000D-02 MixMth= 1
 Mixed Optimization -- RFO/linear search
 Update second derivatives using D2CorX and points   10   12
 DE= -6.39D-04 DEPred=-7.28D-04 R= 8.78D-01
 TightC=F SS=  1.41D+00  RLast= 9.73D-01 DXNew= 1.6344D+00 2.9202D+00
 Trust test= 8.78D-01 RLast= 9.73D-01 DXMaxT set to 1.63D+00
 ITU=  1  0  1  1  1  1  1  1  0  1  1  0
 Use linear search instead of GDIIS.
     Eigenvalues ---    0.00002   0.00178   0.01503   0.04492   0.04981
     Eigenvalues ---    0.06985   0.07695   0.08992   0.14697   0.15716
     Eigenvalues ---    0.16419   0.17055   0.19448   0.23772   0.27474
     Eigenvalues ---    0.30439   0.32336   0.32606   0.34130   0.40655
     Eigenvalues ---    0.41708   0.45769   0.50659   0.85055
 RFO step:  Lambda=-4.85971115D-04 EMin= 1.72878663D-05
 Quartic linear search produced a step of  0.01969.
 Iteration  1 RMS(Cart)=  0.10177422 RMS(Int)=  0.02425464
 Iteration  2 RMS(Cart)=  0.02602188 RMS(Int)=  0.00050630
 Iteration  3 RMS(Cart)=  0.00051568 RMS(Int)=  0.00007740
 Iteration  4 RMS(Cart)=  0.00000030 RMS(Int)=  0.00007740
 Variable       Old X    -DE/DX   Delta X   Delta X   Delta X     New X
                                 (Linear)    (Quad)   (Total)
    R1        2.77614   0.00181   0.00011  -0.01452  -0.01442   2.76172
    R2        1.92402   0.00015   0.00000   0.00311   0.00311   1.92714
    R3        1.92426   0.00030  -0.00004   0.00243   0.00239   1.92665
    R4        2.87074   0.00058  -0.00005  -0.00783  -0.00788   2.86285
    R5        2.06198   0.00051  -0.00014   0.00162   0.00148   2.06346
    R6        2.08103   0.00047   0.00001   0.00645   0.00646   2.08750
    R7        2.28813   0.00088  -0.00004  -0.00330  -0.00333   2.28479
    R8        2.55578  -0.00043   0.00001   0.00522   0.00523   2.56101
    R9        1.84664  -0.00076   0.00006  -0.00136  -0.00130   1.84534
    A1        1.90562   0.00024  -0.00003  -0.00521  -0.00526   1.90036
    A2        1.88941   0.00155  -0.00034  -0.00253  -0.00289   1.88652
    A3        1.85799  -0.00006   0.00004  -0.00544  -0.00543   1.85256
    A4        1.85849   0.00214  -0.00089  -0.00499  -0.00593   1.85256
    A5        1.91767  -0.00160   0.00053   0.01011   0.01066   1.92832
    A6        1.98220   0.00148  -0.00054  -0.01035  -0.01092   1.97129
    A7        1.93174  -0.00081   0.00066   0.00953   0.01018   1.94192
    A8        1.87288  -0.00118   0.00018   0.00028   0.00036   1.87325
    A9        1.90027  -0.00003   0.00010  -0.00426  -0.00415   1.89613
   A10        2.16645  -0.00055  -0.00020  -0.01131  -0.01174   2.15472
   A11        1.96796   0.00019   0.00013   0.00986   0.00976   1.97772
   A12        2.14664   0.00048   0.00004  -0.00093  -0.00114   2.14551
   A13        1.85559  -0.00070   0.00001   0.00938   0.00939   1.86499
    D1       -2.98968   0.00046   0.00136  -0.11196  -0.11056  -3.10024
    D2       -0.89692  -0.00014   0.00194  -0.09793  -0.09597  -0.99288
    D3        1.23611  -0.00032   0.00209  -0.10321  -0.10115   1.13496
    D4        1.27758  -0.00044   0.00152  -0.10137  -0.09983   1.17775
    D5       -2.91284  -0.00103   0.00209  -0.08734  -0.08524  -2.99808
    D6       -0.77981  -0.00122   0.00225  -0.09262  -0.09043  -0.87024
    D7       -1.27240  -0.00168   0.00841   0.27441   0.28279  -0.98961
    D8        1.80086   0.00016   0.00771   0.23623   0.24398   2.04484
    D9        2.92716  -0.00059   0.00792   0.25998   0.26787  -3.08816
   D10       -0.28276   0.00125   0.00722   0.22180   0.22906  -0.05370
   D11        0.85586   0.00061   0.00735   0.25960   0.26691   1.12277
   D12       -2.35407   0.00244   0.00665   0.22142   0.22811  -2.12596
   D13       -3.05860  -0.00115   0.00028   0.06324   0.06361  -2.99499
   D14        0.01555   0.00062  -0.00042   0.02508   0.02456   0.04011
         Item               Value     Threshold  Converged?
 Maximum Force            0.002443     0.000450     NO 
 RMS     Force            0.001008     0.000300     NO 
 Maximum Displacement     0.318731     0.001800     NO 
 RMS     Displacement     0.124676     0.001200     NO 
 Predicted change in Energy=-3.656886D-04
 Lowest energy point so far.  Saving SCF results.
 GradGradGradGradGradGradGradGradGradGradGradGradGradGradGradGradGradGrad

 Leave Link  103 at Fri Mar 14 15:42:04 2025, MaxMem=  8589934592 cpu:               0.5 elap:               0.2
 (Enter /home/enzo/gaussian_versions/gdv.j21/gdv/l202.exe)
                          Input orientation:                          
 ---------------------------------------------------------------------
 Center     Atomic      Atomic             Coordinates (Angstroms)
 Number     Number       Type             X           Y           Z
 ---------------------------------------------------------------------
      1          7           0       -1.895844    0.056202   -0.445614
      2          6           0       -0.912861   -0.111410    0.622774
      3          6           0        0.447126   -0.035419   -0.040368
      4          8           0        0.789740   -0.762263   -0.943773
      5          8           0        1.194428    1.011346    0.386798
      6          1           0       -2.830560    0.051184   -0.037859
      7          1           0       -1.846759   -0.761827   -1.052145
      8          1           0       -1.030305    0.670207    1.376170
      9          1           0       -0.981583   -1.095031    1.120800
     10          1           0        1.981996    1.050734   -0.189190
 ---------------------------------------------------------------------
                    Distance matrix (angstroms):
                    1          2          3          4          5
     1  N    0.000000
     2  C    1.461438   0.000000
     3  C    2.379523   1.514957   0.000000
     4  O    2.851387   2.403441   1.209061   0.000000
     5  O    3.339909   2.399361   1.355230   2.253860   0.000000
     6  H    1.019797   2.034808   3.278832   3.819549   4.159661
     7  H    1.019539   2.024984   2.610225   2.638726   3.803093
     8  H    2.108330   1.091936   2.165015   3.278212   2.458591
     9  H    2.148224   1.104655   2.124217   2.740581   3.116184
    10  H    4.011544   3.223361   1.886187   2.297353   0.976512
                    6          7          8          9         10
     6  H    0.000000
     7  H    1.630223   0.000000
     8  H    2.371410   2.934967   0.000000
     9  H    2.464755   2.362466   1.784279   0.000000
    10  H    4.917590   4.323128   3.416007   3.886281   0.000000
 Stoichiometry    C2H5NO2
 Framework group  C1[X(C2H5NO2)]
 Deg. of freedom    24
 Full point group                 C1      NOp   1
 RotChk:  IX=0 Diff= 3.21D-01
 Largest Abelian subgroup         C1      NOp   1
 Largest concise Abelian subgroup C1      NOp   1
                         Standard orientation:                         
 ---------------------------------------------------------------------
 Center     Atomic      Atomic             Coordinates (Angstroms)
 Number     Number       Type             X           Y           Z
 ---------------------------------------------------------------------
      1          7           0        1.747140    0.044865   -0.480254
      2          6           0        0.797835   -0.507908    0.483624
      3          6           0       -0.549477    0.093823    0.140455
      4          8           0       -0.755607    1.284301    0.094607
      5          8           0       -1.467657   -0.827958   -0.238905
      6          1           0        2.665526   -0.364979   -0.311199
      7          1           0        1.843203    1.042536   -0.293477
      8          1           0        0.774061   -1.597413    0.414784
      9          1           0        1.028631   -0.224958    1.526186
     10          1           0       -2.245442   -0.335470   -0.564606
 ---------------------------------------------------------------------
 Rotational constants (GHZ):           9.2172633           4.0420261           3.1727379
 Leave Link  202 at Fri Mar 14 15:42:04 2025, MaxMem=  8589934592 cpu:               0.3 elap:               0.2
 (Enter /home/enzo/gaussian_versions/gdv.j21/gdv/l301.exe)
 Standard basis: 6-31G(d) (6D, 7F)
 Ernie: Thresh=  0.10000D-02 Tol=  0.10000D-05 Strict=F.
 There are    85 symmetry adapted cartesian basis functions of A   symmetry.
 There are    85 symmetry adapted basis functions of A   symmetry.
    85 basis functions,   160 primitive gaussians,    85 cartesian basis functions
    20 alpha electrons       20 beta electrons
       nuclear repulsion energy       179.6381115248 Hartrees.
 IExCor=      4002 DFT=T Ex+Corr=B3LYP ScaHFX=  0.200000
 ScaDFX=  0.800000  0.720000  1.000000  0.810000  1.000000  0.000000
 ScaDFX=  0.000000  0.000000  0.000000  0.000000  0.000000  0.000000
 IRadAn=      5 IRanWt=     -1 IRanGd=            0 ICorTp=0 IEmpDi=  4
 NAtoms=   10 NActive=   10 NUniq=   10 SFac= 1.00D+00 NAtFMM=   60 NAOKFM=F Big=F
 Integral buffers will be    131072 words long.
 Raffenetti 2 integral format.
 Two-electron integral symmetry is turned on.
 Leave Link  301 at Fri Mar 14 15:42:04 2025, MaxMem=  8589934592 cpu:               0.6 elap:               0.3
 (Enter /home/enzo/gaussian_versions/gdv.j21/gdv/l302.exe)
 NPDir=0 NMtPBC=     1 NCelOv=     1 NCel=       1 NClECP=     1 NCelD=      1
         NCelK=      1 NCelE2=     1 NClLst=     1 CellRange=     0.0.
 One-electron integrals computed using PRISM.
 One-electron integral symmetry used in STVInt
 NBasis=    85 RedAO= T EigKep=  3.89D-03  NBF=    85
 NBsUse=    85 1.00D-06 EigRej= -1.00D+00 NBFU=    85
 Precomputing XC quadrature grid using
 IXCGrd= 4 IRadAn=           5 IRanWt=          -1 IRanGd=           0 AccXCQ= 0.00D+00.
 Generated NRdTot=       0 NPtTot=      219367 NUsed=           0 NTot=          64
 NSgBfM=    85    85    85    85    85 MxSgAt=    10 MxSgA2=    10 SizInc=   0.000
 NMBTot=     1948 MaxBatPerAtom=       83 MaxMicBPerAtom=      208 NBfPt=            15960925.
 Leave Link  302 at Fri Mar 14 15:42:04 2025, MaxMem=  8589934592 cpu:               1.1 elap:               0.3
 (Enter /home/enzo/gaussian_versions/gdv.j21/gdv/l303.exe)
 DipDrv:  MaxL=1.
 Leave Link  303 at Fri Mar 14 15:42:05 2025, MaxMem=  8589934592 cpu:               0.3 elap:               0.2
 (Enter /home/enzo/gaussian_versions/gdv.j21/gdv/l401.exe)
 Initial guess from the checkpoint file:  "/local/home/enzo/scratch/Gau-2409754.chk"
 B after Tr=    -0.000000    0.000000    0.000000
         Rot=    0.997078   -0.068742   -0.002618    0.033205 Ang=  -8.76 deg.
 AO Guess basis will be translated and rotated to current coordinates.
 JPrj=2 DoOrth=T DoCkMO=T.
 Generating alternative initial guess.
 ExpMin= 1.61D-01 ExpMax= 5.48D+03 ExpMxC= 8.25D+02 IAcc=3 IRadAn=         5 AccDes= 0.00D+00
 Harris functional with IExCor= 4002 and IRadAn=       5 diagonalized for initial guess.
 HarFok:  IExCor=    4002 AccDes= 0.00D+00 IRadAn=         5 IDoV= 1 UseB2=F ITyADJ=14 ICtDFT=  3500011
 FoFCou: FMM=F IPFlag=           0 FMFlag=      100000 FMFlg1=           0
         NFxFlg=           0 DoJE=T BraDBF=F KetDBF=T FulRan=T
         wScrn=  0.000000 ICntrl=       500 IOpCl=  0 I1Cent=   200000004 NGrid=           0
         NMat0=    1 NMatS0=      1 NMatT0=    0 NMatD0=    1 NMtDS0=    0 NMtDT0=    0
 Petite list used in FoFCou.
 Harris En= -284.437006065670    
 Leave Link  401 at Fri Mar 14 15:42:05 2025, MaxMem=  8589934592 cpu:               2.1 elap:               0.3
 (Enter /home/enzo/gaussian_versions/gdv.j21/gdv/l502.exe)
 Keep R1 ints in memory in canonical form, NReq=17617987.
 FoFCou: FMM=F IPFlag=           0 FMFlag=           0 FMFlg1=           0
         NFxFlg=           0 DoJE=F BraDBF=F KetDBF=F FulRan=T
         wScrn=  0.000000 ICntrl=       600 IOpCl=  0 I1Cent=           0 NGrid=           0
         NMat0=    1 NMatS0=   3655 NMatT0=    0 NMatD0=    1 NMtDS0=    0 NMtDT0=    0
 Symmetry not used in FoFCou.
 Two-electron integral symmetry not used.
 Closed shell SCF:
 Using DIIS extrapolation, IDIIS=  1040.
 NGot=  8589934592 LenX=  8583230350 LenY=  8583222684
 Requested convergence on RMS density matrix=1.00D-08 within 128 cycles.
 Requested convergence on MAX density matrix=1.00D-06.
 Requested convergence on             energy=1.00D-06.
 No special actions if energy rises.
 Integral accuracy reduced to 1.0D-05 until final iterations.

 Cycle   1  Pass 0  IDiag  1:
 E= -284.392485577437    
 DIIS: error= 7.71D-03 at cycle   1 NSaved=   1.
 NSaved= 1 IEnMin= 1 EnMin= -284.392485577437     IErMin= 1 ErrMin= 7.71D-03
 ErrMax= 7.71D-03  0.00D+00 EMaxC= 1.00D-01 BMatC= 1.25D-02 BMatP= 1.25D-02
 IDIUse=3 WtCom= 9.23D-01 WtEn= 7.71D-02
 Coeff-Com:  0.100D+01
 Coeff-En:   0.100D+01
 Coeff:      0.100D+01
 Gap=     1.563 Goal=   None    Shift=    0.000
 GapD=    1.563 DampG=2.000 DampE=1.000 DampFc=2.0000 IDamp=-1.
 RMSDP=2.16D-03 MaxDP=2.54D-02              OVMax= 4.06D-02

 Cycle   2  Pass 0  IDiag  1:
 E= -284.416156851276     Delta-E=       -0.023671273839 Rises=F Damp=F
 DIIS: error= 7.90D-04 at cycle   2 NSaved=   2.
 NSaved= 2 IEnMin= 2 EnMin= -284.416156851276     IErMin= 2 ErrMin= 7.90D-04
 ErrMax= 7.90D-04  0.00D+00 EMaxC= 1.00D-01 BMatC= 1.87D-04 BMatP= 1.25D-02
 IDIUse=3 WtCom= 9.92D-01 WtEn= 7.90D-03
 Coeff-Com: -0.711D-01 0.107D+01
 Coeff-En:   0.000D+00 0.100D+01
 Coeff:     -0.705D-01 0.107D+01
 Gap=     0.252 Goal=   None    Shift=    0.000
 RMSDP=2.80D-04 MaxDP=3.01D-03 DE=-2.37D-02 OVMax= 6.64D-03

 Cycle   3  Pass 0  IDiag  1:
 E= -284.416384921727     Delta-E=       -0.000228070451 Rises=F Damp=F
 DIIS: error= 6.85D-04 at cycle   3 NSaved=   3.
 NSaved= 3 IEnMin= 3 EnMin= -284.416384921727     IErMin= 3 ErrMin= 6.85D-04
 ErrMax= 6.85D-04  0.00D+00 EMaxC= 1.00D-01 BMatC= 1.02D-04 BMatP= 1.87D-04
 IDIUse=3 WtCom= 9.93D-01 WtEn= 6.85D-03
 Coeff-Com: -0.405D-01 0.500D+00 0.540D+00
 Coeff-En:   0.000D+00 0.000D+00 0.100D+01
 Coeff:     -0.403D-01 0.497D+00 0.544D+00
 Gap=     0.250 Goal=   None    Shift=    0.000
 RMSDP=1.14D-04 MaxDP=2.80D-03 DE=-2.28D-04 OVMax= 3.29D-03

 Cycle   4  Pass 0  IDiag  1:
 E= -284.416448328534     Delta-E=       -0.000063406807 Rises=F Damp=F
 DIIS: error= 3.23D-04 at cycle   4 NSaved=   4.
 NSaved= 4 IEnMin= 4 EnMin= -284.416448328534     IErMin= 4 ErrMin= 3.23D-04
 ErrMax= 3.23D-04  0.00D+00 EMaxC= 1.00D-01 BMatC= 2.10D-05 BMatP= 1.02D-04
 IDIUse=3 WtCom= 9.97D-01 WtEn= 3.23D-03
 Coeff-Com: -0.121D-01 0.137D+00 0.327D+00 0.548D+00
 Coeff-En:   0.000D+00 0.000D+00 0.162D+00 0.838D+00
 Coeff:     -0.121D-01 0.137D+00 0.326D+00 0.549D+00
 Gap=     0.250 Goal=   None    Shift=    0.000
 RMSDP=4.52D-05 MaxDP=1.04D-03 DE=-6.34D-05 OVMax= 1.67D-03

 Cycle   5  Pass 0  IDiag  1:
 E= -284.416462984573     Delta-E=       -0.000014656039 Rises=F Damp=F
 DIIS: error= 1.13D-04 at cycle   5 NSaved=   5.
 NSaved= 5 IEnMin= 5 EnMin= -284.416462984573     IErMin= 5 ErrMin= 1.13D-04
 ErrMax= 1.13D-04  0.00D+00 EMaxC= 1.00D-01 BMatC= 1.80D-06 BMatP= 2.10D-05
 IDIUse=3 WtCom= 9.99D-01 WtEn= 1.13D-03
 Coeff-Com: -0.429D-02 0.453D-01 0.157D+00 0.323D+00 0.478D+00
 Coeff-En:   0.000D+00 0.000D+00 0.000D+00 0.000D+00 0.100D+01
 Coeff:     -0.429D-02 0.453D-01 0.157D+00 0.323D+00 0.479D+00
 Gap=     0.250 Goal=   None    Shift=    0.000
 RMSDP=1.52D-05 MaxDP=3.40D-04 DE=-1.47D-05 OVMax= 5.70D-04

 Cycle   6  Pass 0  IDiag  1:
 E= -284.416464191381     Delta-E=       -0.000001206809 Rises=F Damp=F
 DIIS: error= 3.59D-05 at cycle   6 NSaved=   6.
 NSaved= 6 IEnMin= 6 EnMin= -284.416464191381     IErMin= 6 ErrMin= 3.59D-05
 ErrMax= 3.59D-05  0.00D+00 EMaxC= 1.00D-01 BMatC= 3.00D-07 BMatP= 1.80D-06
 IDIUse=1 WtCom= 1.00D+00 WtEn= 0.00D+00
 Coeff-Com:  0.459D-03-0.904D-02 0.175D-01 0.704D-01 0.306D+00 0.615D+00
 Coeff:      0.459D-03-0.904D-02 0.175D-01 0.704D-01 0.306D+00 0.615D+00
 Gap=     0.250 Goal=   None    Shift=    0.000
 RMSDP=5.79D-06 MaxDP=1.56D-04 DE=-1.21D-06 OVMax= 1.73D-04

 Initial convergence to 1.0D-05 achieved.  Increase integral accuracy.
 Cycle   7  Pass 1  IDiag  1:
 E= -284.416463288278     Delta-E=        0.000000903104 Rises=F Damp=F
 DIIS: error= 7.03D-06 at cycle   1 NSaved=   1.
 NSaved= 1 IEnMin= 1 EnMin= -284.416463288278     IErMin= 1 ErrMin= 7.03D-06
 ErrMax= 7.03D-06  0.00D+00 EMaxC= 1.00D-01 BMatC= 1.21D-08 BMatP= 1.21D-08
 IDIUse=1 WtCom= 1.00D+00 WtEn= 0.00D+00
 Coeff-Com:  0.100D+01
 Coeff:      0.100D+01
 Gap=     0.250 Goal=   None    Shift=    0.000
 RMSDP=5.79D-06 MaxDP=1.56D-04 DE= 9.03D-07 OVMax= 6.31D-05

 Cycle   8  Pass 1  IDiag  1:
 E= -284.416463281047     Delta-E=        0.000000007230 Rises=F Damp=F
 DIIS: error= 1.03D-05 at cycle   2 NSaved=   2.
 NSaved= 2 IEnMin= 1 EnMin= -284.416463288278     IErMin= 1 ErrMin= 7.03D-06
 ErrMax= 1.03D-05  0.00D+00 EMaxC= 1.00D-01 BMatC= 2.42D-08 BMatP= 1.21D-08
 IDIUse=1 WtCom= 1.00D+00 WtEn= 0.00D+00
 Coeff-Com:  0.590D+00 0.410D+00
 Coeff:      0.590D+00 0.410D+00
 Gap=     0.250 Goal=   None    Shift=    0.000
 RMSDP=1.67D-06 MaxDP=4.00D-05 DE= 7.23D-09 OVMax= 5.15D-05

 Cycle   9  Pass 1  IDiag  1:
 E= -284.416463298793     Delta-E=       -0.000000017746 Rises=F Damp=F
 DIIS: error= 3.06D-06 at cycle   3 NSaved=   3.
 NSaved= 3 IEnMin= 3 EnMin= -284.416463298793     IErMin= 3 ErrMin= 3.06D-06
 ErrMax= 3.06D-06  0.00D+00 EMaxC= 1.00D-01 BMatC= 1.58D-09 BMatP= 1.21D-08
 IDIUse=1 WtCom= 1.00D+00 WtEn= 0.00D+00
 Coeff-Com:  0.307D+00 0.257D+00 0.436D+00
 Coeff:      0.307D+00 0.257D+00 0.436D+00
 Gap=     0.250 Goal=   None    Shift=    0.000
 RMSDP=3.97D-07 MaxDP=7.41D-06 DE=-1.77D-08 OVMax= 1.48D-05

 Cycle  10  Pass 1  IDiag  1:
 E= -284.416463299965     Delta-E=       -0.000000001171 Rises=F Damp=F
 DIIS: error= 5.79D-07 at cycle   4 NSaved=   4.
 NSaved= 4 IEnMin= 4 EnMin= -284.416463299965     IErMin= 4 ErrMin= 5.79D-07
 ErrMax= 5.79D-07  0.00D+00 EMaxC= 1.00D-01 BMatC= 7.82D-11 BMatP= 1.58D-09
 IDIUse=1 WtCom= 1.00D+00 WtEn= 0.00D+00
 Coeff-Com:  0.554D-01 0.581D-01 0.203D+00 0.683D+00
 Coeff:      0.554D-01 0.581D-01 0.203D+00 0.683D+00
 Gap=     0.250 Goal=   None    Shift=    0.000
 RMSDP=1.26D-07 MaxDP=1.93D-06 DE=-1.17D-09 OVMax= 3.51D-06

 Cycle  11  Pass 1  IDiag  1:
 E= -284.416463300025     Delta-E=       -0.000000000060 Rises=F Damp=F
 DIIS: error= 3.13D-07 at cycle   5 NSaved=   5.
 NSaved= 5 IEnMin= 5 EnMin= -284.416463300025     IErMin= 5 ErrMin= 3.13D-07
 ErrMax= 3.13D-07  0.00D+00 EMaxC= 1.00D-01 BMatC= 1.79D-11 BMatP= 7.82D-11
 IDIUse=1 WtCom= 1.00D+00 WtEn= 0.00D+00
 Coeff-Com: -0.207D-01-0.114D-01 0.359D-01 0.383D+00 0.614D+00
 Coeff:     -0.207D-01-0.114D-01 0.359D-01 0.383D+00 0.614D+00
 Gap=     0.250 Goal=   None    Shift=    0.000
 RMSDP=5.27D-08 MaxDP=8.13D-07 DE=-6.04D-11 OVMax= 1.70D-06

 Cycle  12  Pass 1  IDiag  1:
 E= -284.416463300042     Delta-E=       -0.000000000016 Rises=F Damp=F
 DIIS: error= 8.51D-08 at cycle   6 NSaved=   6.
 NSaved= 6 IEnMin= 6 EnMin= -284.416463300042     IErMin= 6 ErrMin= 8.51D-08
 ErrMax= 8.51D-08  0.00D+00 EMaxC= 1.00D-01 BMatC= 1.00D-12 BMatP= 1.79D-11
 IDIUse=1 WtCom= 1.00D+00 WtEn= 0.00D+00
 Coeff-Com: -0.138D-01-0.996D-02-0.505D-02 0.990D-01 0.262D+00 0.668D+00
 Coeff:     -0.138D-01-0.996D-02-0.505D-02 0.990D-01 0.262D+00 0.668D+00
 Gap=     0.250 Goal=   None    Shift=    0.000
 RMSDP=1.37D-08 MaxDP=1.83D-07 DE=-1.65D-11 OVMax= 4.73D-07

 Cycle  13  Pass 1  IDiag  1:
 E= -284.416463300044     Delta-E=       -0.000000000002 Rises=F Damp=F
 DIIS: error= 2.16D-08 at cycle   7 NSaved=   7.
 NSaved= 7 IEnMin= 7 EnMin= -284.416463300044     IErMin= 7 ErrMin= 2.16D-08
 ErrMax= 2.16D-08  0.00D+00 EMaxC= 1.00D-01 BMatC= 1.12D-13 BMatP= 1.00D-12
 IDIUse=1 WtCom= 1.00D+00 WtEn= 0.00D+00
 Coeff-Com: -0.506D-02-0.394D-02-0.554D-02 0.188D-01 0.816D-01 0.323D+00
 Coeff-Com:  0.591D+00
 Coeff:     -0.506D-02-0.394D-02-0.554D-02 0.188D-01 0.816D-01 0.323D+00
 Coeff:      0.591D+00
 Gap=     0.250 Goal=   None    Shift=    0.000
 RMSDP=4.00D-09 MaxDP=7.01D-08 DE=-2.16D-12 OVMax= 1.05D-07

 SCF Done:  E(RB3LYP) =  -284.416463300     A.U. after   13 cycles
            NFock= 13  Conv=0.40D-08     -V/T= 2.0088
 KE= 2.819372150419D+02 PE=-1.025597582479D+03 EE= 2.796057926120D+02
 Leave Link  502 at Fri Mar 14 15:42:06 2025, MaxMem=  8589934592 cpu:              11.8 elap:               1.1
 (Enter /home/enzo/gaussian_versions/gdv.j21/gdv/l701.exe)
 ... and contract with generalized density number  0.
 Compute integral first derivatives.
 Leave Link  701 at Fri Mar 14 15:42:06 2025, MaxMem=  8589934592 cpu:               0.8 elap:               0.2
 (Enter /home/enzo/gaussian_versions/gdv.j21/gdv/l702.exe)
 L702 exits ... SP integral derivatives will be done elsewhere.
 Leave Link  702 at Fri Mar 14 15:42:06 2025, MaxMem=  8589934592 cpu:               0.1 elap:               0.1
 (Enter /home/enzo/gaussian_versions/gdv.j21/gdv/l703.exe)
 Integral derivatives from FoFJK, PRISM(SPDF).
 Compute integral first derivatives, UseDBF=F ICtDFT=           0.
 Calling FoFJK, ICntrl=      2127 FMM=F ISym2X=0 I1Cent= 0 IOpClX= 0 NMat=1 NMatS=1 NMatT=0.
 FoFJK:  IHMeth= 1 ICntrl=    2127 DoSepK=F KAlg= 0 I1Cent=           0 FoldK=F
 IRaf=         0 NMat=       1 IRICut=       1 DoRegI=T DoRafI=F ISym2E= 0 IDoP0=0 IntGTp=1.
 FoFCou: FMM=F IPFlag=           0 FMFlag=      100000 FMFlg1=         800
         NFxFlg=           0 DoJE=F BraDBF=F KetDBF=F FulRan=T
         wScrn=  0.000000 ICntrl=      2127 IOpCl=  0 I1Cent=           0 NGrid=           0
         NMat0=    1 NMatS0=      1 NMatT0=    0 NMatD0=    1 NMtDS0=    0 NMtDT0=    0
 Symmetry not used in FoFCou.
 Leave Link  703 at Fri Mar 14 15:42:07 2025, MaxMem=  8589934592 cpu:               3.4 elap:               0.4
 (Enter /home/enzo/gaussian_versions/gdv.j21/gdv/l716.exe)
 Dipole        = 2.87130337D-01-4.30002299D-01 4.16182438D-01
 ***** Axes restored to original set *****
 -------------------------------------------------------------------
 Center     Atomic                   Forces (Hartrees/Bohr)
 Number     Number              X              Y              Z
 -------------------------------------------------------------------
      1        7          -0.007227032    0.000682357   -0.000941192
      2        6           0.001195735   -0.007778834    0.002985226
      3        6           0.000628055    0.010803278   -0.005358914
      4        8           0.002547932   -0.004523555   -0.000213964
      5        8          -0.001541228   -0.001429675    0.002254217
      6        1           0.000545502    0.000553157   -0.000521536
      7        1           0.001213184    0.001687169   -0.001164277
      8        1           0.000448268    0.000883051   -0.001075230
      9        1           0.001901614    0.001506653    0.003233284
     10        1           0.000287969   -0.002383600    0.000802387
 -------------------------------------------------------------------
 Cartesian Forces:  Max     0.010803278 RMS     0.003357540
 Leave Link  716 at Fri Mar 14 15:42:07 2025, MaxMem=  8589934592 cpu:               0.2 elap:               0.1
 (Enter /home/enzo/gaussian_versions/gdv.j21/gdv/l103.exe)

 GradGradGradGradGradGradGradGradGradGradGradGradGradGradGradGradGradGrad
 Berny optimization.
 Using GEDIIS/GDIIS optimizer.
 FormGI is forming the generalized inverse of G from B-inverse, IUseBI=4.
 Internal  Forces:  Max     0.005933689 RMS     0.002256630
 Search for a local minimum.
 Step number  13 out of a maximum of   46
 All quantities printed in internal units (Hartrees-Bohrs-Radians)
 RMS Force = .22566D-02 SwitMx=.10000D-02 MixMth= 1
 Mixed Optimization -- RFO/linear search
 Update second derivatives using D2CorX and points   12   13
 DE= -1.49D-04 DEPred=-3.66D-04 R= 4.09D-01
 Trust test= 4.09D-01 RLast= 6.71D-01 DXMaxT set to 1.63D+00
 ITU=  0  1  0  1  1  1  1  1  1  0  1  1  0
 Use linear search instead of GDIIS.
     Eigenvalues ---    0.00009   0.00164   0.02162   0.03477   0.05066
     Eigenvalues ---    0.05751   0.07042   0.08882   0.12848   0.15875
     Eigenvalues ---    0.16340   0.17107   0.18771   0.23457   0.27221
     Eigenvalues ---    0.31829   0.32366   0.32605   0.33510   0.40657
     Eigenvalues ---    0.41606   0.46046   0.50668   0.85758
 RFO step:  Lambda=-2.53725131D-03 EMin= 9.26790789D-05
 Quartic linear search produced a step of -0.29474.
 Iteration  1 RMS(Cart)=  0.08930336 RMS(Int)=  0.00514278
 Iteration  2 RMS(Cart)=  0.00575656 RMS(Int)=  0.00089022
 Iteration  3 RMS(Cart)=  0.00003375 RMS(Int)=  0.00088989
 Iteration  4 RMS(Cart)=  0.00000003 RMS(Int)=  0.00088989
 Variable       Old X    -DE/DX   Delta X   Delta X   Delta X     New X
                                 (Linear)    (Quad)   (Total)
    R1        2.76172   0.00593   0.00425  -0.00337   0.00088   2.76260
    R2        1.92714  -0.00071  -0.00092   0.00368   0.00276   1.92989
    R3        1.92665  -0.00060  -0.00070   0.00207   0.00136   1.92801
    R4        2.86285   0.00295   0.00232   0.00380   0.00613   2.86898
    R5        2.06346  -0.00016  -0.00044   0.00548   0.00505   2.06851
    R6        2.08750  -0.00000  -0.00190   0.01495   0.01304   2.10054
    R7        2.28479   0.00360   0.00098  -0.00783  -0.00685   2.27795
    R8        2.56101  -0.00267  -0.00154   0.00881   0.00727   2.56828
    R9        1.84534  -0.00034   0.00038  -0.00475  -0.00437   1.84098
    A1        1.90036   0.00081   0.00155   0.01714   0.01793   1.91829
    A2        1.88652   0.00103   0.00085   0.05020   0.05031   1.93682
    A3        1.85256   0.00042   0.00160   0.01309   0.01319   1.86575
    A4        1.85256   0.00371   0.00175   0.04531   0.04610   1.89867
    A5        1.92832  -0.00233  -0.00314  -0.02587  -0.02820   1.90013
    A6        1.97129   0.00249   0.00322   0.04846   0.05085   2.02214
    A7        1.94192  -0.00165  -0.00300  -0.03339  -0.03623   1.90569
    A8        1.87325  -0.00193  -0.00011  -0.00480  -0.00733   1.86592
    A9        1.89613  -0.00028   0.00122  -0.02853  -0.02736   1.86876
   A10        2.15472   0.00101   0.00346  -0.01529  -0.01374   2.14097
   A11        1.97772  -0.00116  -0.00288   0.02279   0.01800   1.99572
   A12        2.14551   0.00062   0.00034   0.00255   0.00097   2.14647
   A13        1.86499  -0.00257  -0.00277  -0.00132  -0.00409   1.86090
    D1       -3.10024   0.00098   0.03259  -0.11673  -0.08281   3.10014
    D2       -0.99288  -0.00005   0.02828  -0.14393  -0.11513  -1.10802
    D3        1.13496  -0.00035   0.02981  -0.16567  -0.13649   0.99847
    D4        1.17775  -0.00047   0.02942  -0.16757  -0.13762   1.04012
    D5       -2.99808  -0.00150   0.02512  -0.19478  -0.16995   3.11515
    D6       -0.87024  -0.00181   0.02665  -0.21651  -0.19130  -1.06154
    D7       -0.98961  -0.00396  -0.08335   0.09441   0.01106  -0.97855
    D8        2.04484   0.00082  -0.07191   0.19718   0.12497   2.16981
    D9       -3.08816  -0.00251  -0.07895   0.11646   0.03807  -3.05009
   D10       -0.05370   0.00226  -0.06751   0.21923   0.15198   0.09828
   D11        1.12277  -0.00006  -0.07867   0.17306   0.09428   1.21705
   D12       -2.12596   0.00472  -0.06723   0.27584   0.20819  -1.91777
   D13       -2.99499  -0.00423  -0.01875  -0.08548  -0.10467  -3.09966
   D14        0.04011   0.00055  -0.00724   0.01541   0.00861   0.04872
         Item               Value     Threshold  Converged?
 Maximum Force            0.005934     0.000450     NO 
 RMS     Force            0.002257     0.000300     NO 
 Maximum Displacement     0.249625     0.001800     NO 
 RMS     Displacement     0.090625     0.001200     NO 
 Predicted change in Energy=-1.823574D-03
 Lowest energy point so far.  Saving SCF results.
 GradGradGradGradGradGradGradGradGradGradGradGradGradGradGradGradGradGrad

 Leave Link  103 at Fri Mar 14 15:42:07 2025, MaxMem=  8589934592 cpu:               0.2 elap:               0.1
 (Enter /home/enzo/gaussian_versions/gdv.j21/gdv/l202.exe)
                          Input orientation:                          
 ---------------------------------------------------------------------
 Center     Atomic      Atomic             Coordinates (Angstroms)
 Number     Number       Type             X           Y           Z
 ---------------------------------------------------------------------
      1          7           0       -1.961869    0.024452   -0.423848
      2          6           0       -0.920030   -0.093154    0.594925
      3          6           0        0.436556    0.008147   -0.079126
      4          8           0        0.773315   -0.722587   -0.976735
      5          8           0        1.238885    0.984756    0.420461
      6          1           0       -2.882198   -0.080912    0.006101
      7          1           0       -1.874551   -0.714027   -1.122387
      8          1           0       -1.029078    0.728973    1.309332
      9          1           0       -0.919888   -1.037340    1.181502
     10          1           0        2.054236    0.975414   -0.112630
 ---------------------------------------------------------------------
                    Distance matrix (angstroms):
                    1          2          3          4          5
     1  N    0.000000
     2  C    1.461903   0.000000
     3  C    2.423127   1.518200   0.000000
     4  O    2.888769   2.394519   1.205438   0.000000
     5  O    3.446719   2.419348   1.359075   2.254758   0.000000
     6  H    1.021256   2.048651   3.321043   3.839335   4.276760
     7  H    1.020261   2.060523   2.636502   2.651883   3.867781
     8  H    2.090541   1.094606   2.143709   3.252961   2.449321
     9  H    2.188671   1.111557   2.126539   2.761158   3.054236
    10  H    4.138875   3.238630   1.885104   2.295788   0.974202
                    6          7          8          9         10
     6  H    0.000000
     7  H    1.640022   0.000000
     8  H    2.405905   2.951327   0.000000
     9  H    2.479312   2.514720   1.774295   0.000000
    10  H    5.049584   4.394222   3.404340   3.817246   0.000000
 Stoichiometry    C2H5NO2
 Framework group  C1[X(C2H5NO2)]
 Deg. of freedom    24
 Full point group                 C1      NOp   1
 RotChk:  IX=0 Diff= 7.29D-02
 Largest Abelian subgroup         C1      NOp   1
 Largest concise Abelian subgroup C1      NOp   1
                         Standard orientation:                         
 ---------------------------------------------------------------------
 Center     Atomic      Atomic             Coordinates (Angstroms)
 Number     Number       Type             X           Y           Z
 ---------------------------------------------------------------------
      1          7           0        1.813311    0.041564   -0.433529
      2          6           0        0.787557   -0.532118    0.435883
      3          6           0       -0.551538    0.095166    0.091977
      4          8           0       -0.736109    1.286243    0.110729
      5          8           0       -1.523084   -0.799128   -0.229617
      6          1           0        2.728775   -0.339991   -0.190000
      7          1           0        1.871504    1.052839   -0.311594
      8          1           0        0.735728   -1.610949    0.258121
      9          1           0        0.941195   -0.388239    1.527329
     10          1           0       -2.312946   -0.279814   -0.465202
 ---------------------------------------------------------------------
 Rotational constants (GHZ):           9.5272489           3.9071955           3.0650465
 Leave Link  202 at Fri Mar 14 15:42:07 2025, MaxMem=  8589934592 cpu:               0.0 elap:               0.1
 (Enter /home/enzo/gaussian_versions/gdv.j21/gdv/l301.exe)
 Standard basis: 6-31G(d) (6D, 7F)
 Ernie: Thresh=  0.10000D-02 Tol=  0.10000D-05 Strict=F.
 There are    85 symmetry adapted cartesian basis functions of A   symmetry.
 There are    85 symmetry adapted basis functions of A   symmetry.
    85 basis functions,   160 primitive gaussians,    85 cartesian basis functions
    20 alpha electrons       20 beta electrons
       nuclear repulsion energy       178.8170352372 Hartrees.
 IExCor=      4002 DFT=T Ex+Corr=B3LYP ScaHFX=  0.200000
 ScaDFX=  0.800000  0.720000  1.000000  0.810000  1.000000  0.000000
 ScaDFX=  0.000000  0.000000  0.000000  0.000000  0.000000  0.000000
 IRadAn=      5 IRanWt=     -1 IRanGd=            0 ICorTp=0 IEmpDi=  4
 NAtoms=   10 NActive=   10 NUniq=   10 SFac= 1.00D+00 NAtFMM=   60 NAOKFM=F Big=F
 Integral buffers will be    131072 words long.
 Raffenetti 2 integral format.
 Two-electron integral symmetry is turned on.
 Leave Link  301 at Fri Mar 14 15:42:07 2025, MaxMem=  8589934592 cpu:               0.4 elap:               0.2
 (Enter /home/enzo/gaussian_versions/gdv.j21/gdv/l302.exe)
 NPDir=0 NMtPBC=     1 NCelOv=     1 NCel=       1 NClECP=     1 NCelD=      1
         NCelK=      1 NCelE2=     1 NClLst=     1 CellRange=     0.0.
 One-electron integrals computed using PRISM.
 One-electron integral symmetry used in STVInt
 NBasis=    85 RedAO= T EigKep=  3.78D-03  NBF=    85
 NBsUse=    85 1.00D-06 EigRej= -1.00D+00 NBFU=    85
 Precomputing XC quadrature grid using
 IXCGrd= 4 IRadAn=           5 IRanWt=          -1 IRanGd=           0 AccXCQ= 0.00D+00.
 Generated NRdTot=       0 NPtTot=      219413 NUsed=           0 NTot=          64
 NSgBfM=    85    85    85    85    85 MxSgAt=    10 MxSgA2=    10 SizInc=   0.000
 NMBTot=     1950 MaxBatPerAtom=       84 MaxMicBPerAtom=      199 NBfPt=            15914651.
 Leave Link  302 at Fri Mar 14 15:42:07 2025, MaxMem=  8589934592 cpu:               1.0 elap:               0.2
 (Enter /home/enzo/gaussian_versions/gdv.j21/gdv/l303.exe)
 DipDrv:  MaxL=1.
 Leave Link  303 at Fri Mar 14 15:42:07 2025, MaxMem=  8589934592 cpu:               0.1 elap:               0.1
 (Enter /home/enzo/gaussian_versions/gdv.j21/gdv/l401.exe)
 Initial guess from the checkpoint file:  "/local/home/enzo/scratch/Gau-2409754.chk"
 B after Tr=    -0.000000    0.000000   -0.000000
         Rot=    0.999876   -0.013165    0.003492    0.007943 Ang=  -1.81 deg.
 AO Guess basis will be translated and rotated to current coordinates.
 JPrj=2 DoOrth=T DoCkMO=T.
 Generating alternative initial guess.
 ExpMin= 1.61D-01 ExpMax= 5.48D+03 ExpMxC= 8.25D+02 IAcc=3 IRadAn=         5 AccDes= 0.00D+00
 Harris functional with IExCor= 4002 and IRadAn=       5 diagonalized for initial guess.
 HarFok:  IExCor=    4002 AccDes= 0.00D+00 IRadAn=         5 IDoV= 1 UseB2=F ITyADJ=14 ICtDFT=  3500011
 FoFCou: FMM=F IPFlag=           0 FMFlag=      100000 FMFlg1=           0
         NFxFlg=           0 DoJE=T BraDBF=F KetDBF=T FulRan=T
         wScrn=  0.000000 ICntrl=       500 IOpCl=  0 I1Cent=   200000004 NGrid=           0
         NMat0=    1 NMatS0=      1 NMatT0=    0 NMatD0=    1 NMtDS0=    0 NMtDT0=    0
 Petite list used in FoFCou.
 Harris En= -284.437732149380    
 Leave Link  401 at Fri Mar 14 15:42:08 2025, MaxMem=  8589934592 cpu:               1.8 elap:               0.3
 (Enter /home/enzo/gaussian_versions/gdv.j21/gdv/l502.exe)
 Keep R1 ints in memory in canonical form, NReq=17617987.
 FoFCou: FMM=F IPFlag=           0 FMFlag=           0 FMFlg1=           0
         NFxFlg=           0 DoJE=F BraDBF=F KetDBF=F FulRan=T
         wScrn=  0.000000 ICntrl=       600 IOpCl=  0 I1Cent=           0 NGrid=           0
         NMat0=    1 NMatS0=   3655 NMatT0=    0 NMatD0=    1 NMtDS0=    0 NMtDT0=    0
 Symmetry not used in FoFCou.
 Two-electron integral symmetry not used.
 Closed shell SCF:
 Using DIIS extrapolation, IDIIS=  1040.
 NGot=  8589934592 LenX=  8583230350 LenY=  8583222684
 Requested convergence on RMS density matrix=1.00D-08 within 128 cycles.
 Requested convergence on MAX density matrix=1.00D-06.
 Requested convergence on             energy=1.00D-06.
 No special actions if energy rises.
 Integral accuracy reduced to 1.0D-05 until final iterations.

 Cycle   1  Pass 0  IDiag  1:
 E= -284.408522973993    
 DIIS: error= 4.62D-03 at cycle   1 NSaved=   1.
 NSaved= 1 IEnMin= 1 EnMin= -284.408522973993     IErMin= 1 ErrMin= 4.62D-03
 ErrMax= 4.62D-03  0.00D+00 EMaxC= 1.00D-01 BMatC= 4.44D-03 BMatP= 4.44D-03
 IDIUse=3 WtCom= 9.54D-01 WtEn= 4.62D-02
 Coeff-Com:  0.100D+01
 Coeff-En:   0.100D+01
 Coeff:      0.100D+01
 Gap=     1.576 Goal=   None    Shift=    0.000
 GapD=    1.576 DampG=2.000 DampE=1.000 DampFc=2.0000 IDamp=-1.
 RMSDP=1.49D-03 MaxDP=1.46D-02              OVMax= 3.07D-02

 Cycle   2  Pass 0  IDiag  1:
 E= -284.417385719133     Delta-E=       -0.008862745140 Rises=F Damp=F
 DIIS: error= 5.14D-04 at cycle   2 NSaved=   2.
 NSaved= 2 IEnMin= 2 EnMin= -284.417385719133     IErMin= 2 ErrMin= 5.14D-04
 ErrMax= 5.14D-04  0.00D+00 EMaxC= 1.00D-01 BMatC= 8.41D-05 BMatP= 4.44D-03
 IDIUse=3 WtCom= 9.95D-01 WtEn= 5.14D-03
 Coeff-Com: -0.609D-01 0.106D+01
 Coeff-En:   0.000D+00 0.100D+01
 Coeff:     -0.606D-01 0.106D+01
 Gap=     0.248 Goal=   None    Shift=    0.000
 RMSDP=2.35D-04 MaxDP=2.68D-03 DE=-8.86D-03 OVMax= 5.16D-03

 Cycle   3  Pass 0  IDiag  1:
 E= -284.417485282912     Delta-E=       -0.000099563779 Rises=F Damp=F
 DIIS: error= 6.55D-04 at cycle   3 NSaved=   3.
 NSaved= 3 IEnMin= 3 EnMin= -284.417485282912     IErMin= 2 ErrMin= 5.14D-04
 ErrMax= 6.55D-04  0.00D+00 EMaxC= 1.00D-01 BMatC= 5.56D-05 BMatP= 8.41D-05
 IDIUse=3 WtCom= 9.93D-01 WtEn= 6.55D-03
 Coeff-Com: -0.415D-01 0.504D+00 0.538D+00
 Coeff-En:   0.000D+00 0.000D+00 0.100D+01
 Coeff:     -0.413D-01 0.501D+00 0.541D+00
 Gap=     0.248 Goal=   None    Shift=    0.000
 RMSDP=8.51D-05 MaxDP=1.75D-03 DE=-9.96D-05 OVMax= 1.84D-03

 Cycle   4  Pass 0  IDiag  1:
 E= -284.417532184114     Delta-E=       -0.000046901201 Rises=F Damp=F
 DIIS: error= 1.09D-04 at cycle   4 NSaved=   4.
 NSaved= 4 IEnMin= 4 EnMin= -284.417532184114     IErMin= 4 ErrMin= 1.09D-04
 ErrMax= 1.09D-04  0.00D+00 EMaxC= 1.00D-01 BMatC= 3.70D-06 BMatP= 5.56D-05
 IDIUse=3 WtCom= 9.99D-01 WtEn= 1.09D-03
 Coeff-Com: -0.131D-01 0.133D+00 0.244D+00 0.635D+00
 Coeff-En:   0.000D+00 0.000D+00 0.000D+00 0.100D+01
 Coeff:     -0.131D-01 0.133D+00 0.244D+00 0.636D+00
 Gap=     0.248 Goal=   None    Shift=    0.000
 RMSDP=2.66D-05 MaxDP=4.65D-04 DE=-4.69D-05 OVMax= 8.32D-04

 Cycle   5  Pass 0  IDiag  1:
 E= -284.417534575427     Delta-E=       -0.000002391313 Rises=F Damp=F
 DIIS: error= 7.01D-05 at cycle   5 NSaved=   5.
 NSaved= 5 IEnMin= 5 EnMin= -284.417534575427     IErMin= 5 ErrMin= 7.01D-05
 ErrMax= 7.01D-05  0.00D+00 EMaxC= 1.00D-01 BMatC= 1.17D-06 BMatP= 3.70D-06
 IDIUse=1 WtCom= 1.00D+00 WtEn= 0.00D+00
 Coeff-Com: -0.489D-02 0.418D-01 0.110D+00 0.413D+00 0.440D+00
 Coeff:     -0.489D-02 0.418D-01 0.110D+00 0.413D+00 0.440D+00
 Gap=     0.248 Goal=   None    Shift=    0.000
 RMSDP=1.18D-05 MaxDP=2.48D-04 DE=-2.39D-06 OVMax= 4.63D-04

 Cycle   6  Pass 0  IDiag  1:
 E= -284.417535438873     Delta-E=       -0.000000863446 Rises=F Damp=F
 DIIS: error= 1.94D-05 at cycle   6 NSaved=   6.
 NSaved= 6 IEnMin= 6 EnMin= -284.417535438873     IErMin= 6 ErrMin= 1.94D-05
 ErrMax= 1.94D-05  0.00D+00 EMaxC= 1.00D-01 BMatC= 9.05D-08 BMatP= 1.17D-06
 IDIUse=1 WtCom= 1.00D+00 WtEn= 0.00D+00
 Coeff-Com:  0.586D-03-0.106D-01 0.148D-02 0.802D-01 0.237D+00 0.692D+00
 Coeff:      0.586D-03-0.106D-01 0.148D-02 0.802D-01 0.237D+00 0.692D+00
 Gap=     0.248 Goal=   None    Shift=    0.000
 RMSDP=3.78D-06 MaxDP=8.92D-05 DE=-8.63D-07 OVMax= 1.20D-04

 Initial convergence to 1.0D-05 achieved.  Increase integral accuracy.
 Cycle   7  Pass 1  IDiag  1:
 E= -284.417534428075     Delta-E=        0.000001010798 Rises=F Damp=F
 DIIS: error= 7.59D-06 at cycle   1 NSaved=   1.
 NSaved= 1 IEnMin= 1 EnMin= -284.417534428075     IErMin= 1 ErrMin= 7.59D-06
 ErrMax= 7.59D-06  0.00D+00 EMaxC= 1.00D-01 BMatC= 1.01D-08 BMatP= 1.01D-08
 IDIUse=1 WtCom= 1.00D+00 WtEn= 0.00D+00
 Coeff-Com:  0.100D+01
 Coeff:      0.100D+01
 Gap=     0.248 Goal=   None    Shift=    0.000
 RMSDP=3.78D-06 MaxDP=8.92D-05 DE= 1.01D-06 OVMax= 5.52D-05

 Cycle   8  Pass 1  IDiag  1:
 E= -284.417534418377     Delta-E=        0.000000009698 Rises=F Damp=F
 DIIS: error= 1.23D-05 at cycle   2 NSaved=   2.
 NSaved= 2 IEnMin= 1 EnMin= -284.417534428075     IErMin= 1 ErrMin= 7.59D-06
 ErrMax= 1.23D-05  0.00D+00 EMaxC= 1.00D-01 BMatC= 2.35D-08 BMatP= 1.01D-08
 IDIUse=1 WtCom= 1.00D+00 WtEn= 0.00D+00
 Coeff-Com:  0.606D+00 0.394D+00
 Coeff:      0.606D+00 0.394D+00
 Gap=     0.248 Goal=   None    Shift=    0.000
 RMSDP=1.49D-06 MaxDP=2.72D-05 DE= 9.70D-09 OVMax= 3.66D-05

 Cycle   9  Pass 1  IDiag  1:
 E= -284.417534437200     Delta-E=       -0.000000018823 Rises=F Damp=F
 DIIS: error= 1.67D-06 at cycle   3 NSaved=   3.
 NSaved= 3 IEnMin= 3 EnMin= -284.417534437200     IErMin= 3 ErrMin= 1.67D-06
 ErrMax= 1.67D-06  0.00D+00 EMaxC= 1.00D-01 BMatC= 6.60D-10 BMatP= 1.01D-08
 IDIUse=1 WtCom= 1.00D+00 WtEn= 0.00D+00
 Coeff-Com:  0.341D+00 0.240D+00 0.419D+00
 Coeff:      0.341D+00 0.240D+00 0.419D+00
 Gap=     0.248 Goal=   None    Shift=    0.000
 RMSDP=2.80D-07 MaxDP=6.01D-06 DE=-1.88D-08 OVMax= 1.06D-05

 Cycle  10  Pass 1  IDiag  1:
 E= -284.417534437686     Delta-E=       -0.000000000485 Rises=F Damp=F
 DIIS: error= 4.21D-07 at cycle   4 NSaved=   4.
 NSaved= 4 IEnMin= 4 EnMin= -284.417534437686     IErMin= 4 ErrMin= 4.21D-07
 ErrMax= 4.21D-07  0.00D+00 EMaxC= 1.00D-01 BMatC= 4.89D-11 BMatP= 6.60D-10
 IDIUse=1 WtCom= 1.00D+00 WtEn= 0.00D+00
 Coeff-Com:  0.143D-01 0.189D-01 0.211D+00 0.756D+00
 Coeff:      0.143D-01 0.189D-01 0.211D+00 0.756D+00
 Gap=     0.248 Goal=   None    Shift=    0.000
 RMSDP=9.46D-08 MaxDP=1.80D-06 DE=-4.85D-10 OVMax= 3.62D-06

 Cycle  11  Pass 1  IDiag  1:
 E= -284.417534437725     Delta-E=       -0.000000000040 Rises=F Damp=F
 DIIS: error= 1.52D-07 at cycle   5 NSaved=   5.
 NSaved= 5 IEnMin= 5 EnMin= -284.417534437725     IErMin= 5 ErrMin= 1.52D-07
 ErrMax= 1.52D-07  0.00D+00 EMaxC= 1.00D-01 BMatC= 6.42D-12 BMatP= 4.89D-11
 IDIUse=1 WtCom= 1.00D+00 WtEn= 0.00D+00
 Coeff-Com: -0.273D-01-0.144D-01 0.639D-01 0.378D+00 0.600D+00
 Coeff:     -0.273D-01-0.144D-01 0.639D-01 0.378D+00 0.600D+00
 Gap=     0.248 Goal=   None    Shift=    0.000
 RMSDP=3.06D-08 MaxDP=5.84D-07 DE=-3.99D-11 OVMax= 1.00D-06

 Cycle  12  Pass 1  IDiag  1:
 E= -284.417534437732     Delta-E=       -0.000000000007 Rises=F Damp=F
 DIIS: error= 5.45D-08 at cycle   6 NSaved=   6.
 NSaved= 6 IEnMin= 6 EnMin= -284.417534437732     IErMin= 6 ErrMin= 5.45D-08
 ErrMax= 5.45D-08  0.00D+00 EMaxC= 1.00D-01 BMatC= 5.89D-13 BMatP= 6.42D-12
 IDIUse=1 WtCom= 1.00D+00 WtEn= 0.00D+00
 Coeff-Com: -0.143D-01-0.870D-02 0.610D-02 0.904D-01 0.280D+00 0.646D+00
 Coeff:     -0.143D-01-0.870D-02 0.610D-02 0.904D-01 0.280D+00 0.646D+00
 Gap=     0.248 Goal=   None    Shift=    0.000
 RMSDP=9.62D-09 MaxDP=1.52D-07 DE=-6.59D-12 OVMax= 3.28D-07

 SCF Done:  E(RB3LYP) =  -284.417534438     A.U. after   12 cycles
            NFock= 12  Conv=0.96D-08     -V/T= 2.0089
 KE= 2.818990710028D+02 PE=-1.023910586766D+03 EE= 2.787769460887D+02
 Leave Link  502 at Fri Mar 14 15:42:09 2025, MaxMem=  8589934592 cpu:               9.7 elap:               0.9
 (Enter /home/enzo/gaussian_versions/gdv.j21/gdv/l701.exe)
 ... and contract with generalized density number  0.
 Compute integral first derivatives.
 Leave Link  701 at Fri Mar 14 15:42:09 2025, MaxMem=  8589934592 cpu:               0.8 elap:               0.2
 (Enter /home/enzo/gaussian_versions/gdv.j21/gdv/l702.exe)
 L702 exits ... SP integral derivatives will be done elsewhere.
 Leave Link  702 at Fri Mar 14 15:42:09 2025, MaxMem=  8589934592 cpu:               0.2 elap:               0.1
 (Enter /home/enzo/gaussian_versions/gdv.j21/gdv/l703.exe)
 Integral derivatives from FoFJK, PRISM(SPDF).
 Compute integral first derivatives, UseDBF=F ICtDFT=           0.
 Calling FoFJK, ICntrl=      2127 FMM=F ISym2X=0 I1Cent= 0 IOpClX= 0 NMat=1 NMatS=1 NMatT=0.
 FoFJK:  IHMeth= 1 ICntrl=    2127 DoSepK=F KAlg= 0 I1Cent=           0 FoldK=F
 IRaf=         0 NMat=       1 IRICut=       1 DoRegI=T DoRafI=F ISym2E= 0 IDoP0=0 IntGTp=1.
 FoFCou: FMM=F IPFlag=           0 FMFlag=      100000 FMFlg1=         800
         NFxFlg=           0 DoJE=F BraDBF=F KetDBF=F FulRan=T
         wScrn=  0.000000 ICntrl=      2127 IOpCl=  0 I1Cent=           0 NGrid=           0
         NMat0=    1 NMatS0=      1 NMatT0=    0 NMatD0=    1 NMtDS0=    0 NMtDT0=    0
 Symmetry not used in FoFCou.
 Leave Link  703 at Fri Mar 14 15:42:09 2025, MaxMem=  8589934592 cpu:               3.7 elap:               0.4
 (Enter /home/enzo/gaussian_versions/gdv.j21/gdv/l716.exe)
 Dipole        = 2.10158764D-01-3.88797863D-01 4.15343410D-01
 ***** Axes restored to original set *****
 -------------------------------------------------------------------
 Center     Atomic                   Forces (Hartrees/Bohr)
 Number     Number              X              Y              Z
 -------------------------------------------------------------------
      1        7          -0.004050482   -0.000761229   -0.001003178
      2        6           0.000517924    0.003445918    0.006545398
      3        6          -0.000007819    0.003578157    0.003976347
      4        8           0.004172710   -0.004323623   -0.008935120
      5        8          -0.007793714   -0.002061416    0.001371962
      6        1           0.003283373    0.000245666   -0.000665683
      7        1           0.002920607    0.000173783    0.002854827
      8        1          -0.000722937   -0.000472874   -0.000330719
      9        1           0.000248734    0.002143116   -0.003045229
     10        1           0.001431604   -0.001967498   -0.000768605
 -------------------------------------------------------------------
 Cartesian Forces:  Max     0.008935120 RMS     0.003335148
 Leave Link  716 at Fri Mar 14 15:42:09 2025, MaxMem=  8589934592 cpu:               0.3 elap:               0.1
 (Enter /home/enzo/gaussian_versions/gdv.j21/gdv/l103.exe)

 GradGradGradGradGradGradGradGradGradGradGradGradGradGradGradGradGradGrad
 Berny optimization.
 Using GEDIIS/GDIIS optimizer.
 FormGI is forming the generalized inverse of G from B-inverse, IUseBI=4.
 Internal  Forces:  Max     0.010440181 RMS     0.003072378
 Search for a local minimum.
 Step number  14 out of a maximum of   46
 All quantities printed in internal units (Hartrees-Bohrs-Radians)
 RMS Force = .30724D-02 SwitMx=.10000D-02 MixMth= 1
 Mixed Optimization -- RFO/linear search
 Update second derivatives using D2CorX and points   13   14
 DE= -1.07D-03 DEPred=-1.82D-03 R= 5.87D-01
 TightC=F SS=  1.41D+00  RLast= 4.88D-01 DXNew= 2.7488D+00 1.4643D+00
 Trust test= 5.87D-01 RLast= 4.88D-01 DXMaxT set to 1.63D+00
 ITU=  1  0  1  0  1  1  1  1  1  1  0  1  1  0
 Use linear search instead of GDIIS.
     Eigenvalues ---    0.00009   0.00200   0.01910   0.03942   0.04589
     Eigenvalues ---    0.06139   0.07035   0.09260   0.13478   0.16099
     Eigenvalues ---    0.16459   0.16971   0.18345   0.25258   0.27192
     Eigenvalues ---    0.31084   0.32298   0.32606   0.34340   0.40685
     Eigenvalues ---    0.41736   0.46890   0.51003   0.86388
 RFO step:  Lambda=-1.68364865D-03 EMin= 8.66320545D-05
 Quartic linear search produced a step of -0.19551.
 Iteration  1 RMS(Cart)=  0.10895729 RMS(Int)=  0.02100089
 Iteration  2 RMS(Cart)=  0.02876887 RMS(Int)=  0.00046399
 Iteration  3 RMS(Cart)=  0.00063631 RMS(Int)=  0.00010409
 Iteration  4 RMS(Cart)=  0.00000017 RMS(Int)=  0.00010409
 Variable       Old X    -DE/DX   Delta X   Delta X   Delta X     New X
                                 (Linear)    (Quad)   (Total)
    R1        2.76260  -0.00239  -0.00017   0.01133   0.01116   2.77376
    R2        1.92989  -0.00326  -0.00054  -0.00468  -0.00521   1.92468
    R3        1.92801  -0.00183  -0.00027  -0.00399  -0.00426   1.92376
    R4        2.86898  -0.00035  -0.00120   0.00373   0.00253   2.87151
    R5        2.06851  -0.00050  -0.00099  -0.00392  -0.00490   2.06360
    R6        2.10054  -0.00343  -0.00255  -0.00174  -0.00429   2.09625
    R7        2.27795   0.01044   0.00134   0.00550   0.00684   2.28479
    R8        2.56828  -0.00643  -0.00142  -0.00883  -0.01025   2.55803
    R9        1.84098   0.00164   0.00085   0.00277   0.00362   1.84459
    A1        1.91829  -0.00037  -0.00351   0.00497   0.00159   1.91988
    A2        1.93682  -0.00589  -0.00983  -0.01465  -0.02436   1.91247
    A3        1.86575   0.00227  -0.00258   0.01124   0.00892   1.87467
    A4        1.89867  -0.00284  -0.00901  -0.01282  -0.02180   1.87687
    A5        1.90013   0.00125   0.00551   0.01286   0.01835   1.91847
    A6        2.02214  -0.00044  -0.00994  -0.00107  -0.01108   2.01106
    A7        1.90569   0.00198   0.00708   0.01403   0.02117   1.92686
    A8        1.86592   0.00011   0.00143  -0.00431  -0.00272   1.86320
    A9        1.86876   0.00016   0.00535  -0.00760  -0.00219   1.86657
   A10        2.14097   0.00569   0.00269   0.00092   0.00383   2.14480
   A11        1.99572  -0.00660  -0.00352  -0.00416  -0.00746   1.98826
   A12        2.14647   0.00091  -0.00019   0.00290   0.00294   2.14941
   A13        1.86090  -0.00254   0.00080  -0.01404  -0.01324   1.84765
    D1        3.10014  -0.00187   0.01619  -0.05689  -0.04083   3.05931
    D2       -1.10802  -0.00041   0.02251  -0.03999  -0.01758  -1.12560
    D3        0.99847   0.00045   0.02668  -0.04078  -0.01409   0.98439
    D4        1.04012  -0.00082   0.02691  -0.06488  -0.03796   1.00216
    D5        3.11515   0.00064   0.03323  -0.04798  -0.01471   3.10044
    D6       -1.06154   0.00150   0.03740  -0.04878  -0.01122  -1.07276
    D7       -0.97855   0.00169  -0.00216   0.24844   0.24619  -0.73236
    D8        2.16981   0.00180  -0.02443   0.30329   0.27884   2.44865
    D9       -3.05009   0.00070  -0.00744   0.23228   0.22476  -2.82532
   D10        0.09828   0.00081  -0.02971   0.28714   0.25741   0.35569
   D11        1.21705  -0.00054  -0.01843   0.23642   0.21805   1.43510
   D12       -1.91777  -0.00043  -0.04070   0.29128   0.25070  -1.66707
   D13       -3.09966  -0.00127   0.02046  -0.11824  -0.09769   3.08584
   D14        0.04872  -0.00118  -0.00168  -0.06318  -0.06494  -0.01622
         Item               Value     Threshold  Converged?
 Maximum Force            0.010440     0.000450     NO 
 RMS     Force            0.003072     0.000300     NO 
 Maximum Displacement     0.350551     0.001800     NO 
 RMS     Displacement     0.135413     0.001200     NO 
 Predicted change in Energy=-1.308796D-03
 Lowest energy point so far.  Saving SCF results.
 GradGradGradGradGradGradGradGradGradGradGradGradGradGradGradGradGradGrad

 Leave Link  103 at Fri Mar 14 15:42:10 2025, MaxMem=  8589934592 cpu:               0.3 elap:               0.1
 (Enter /home/enzo/gaussian_versions/gdv.j21/gdv/l202.exe)
                          Input orientation:                          
 ---------------------------------------------------------------------
 Center     Atomic      Atomic             Coordinates (Angstroms)
 Number     Number       Type             X           Y           Z
 ---------------------------------------------------------------------
      1          7           0       -1.980860   -0.034566   -0.429938
      2          6           0       -0.928818   -0.031536    0.593615
      3          6           0        0.406766    0.077362   -0.122874
      4          8           0        0.662280   -0.537084   -1.132326
      5          8           0        1.298107    0.885452    0.497508
      6          1           0       -2.889529   -0.184796    0.004904
      7          1           0       -1.823043   -0.802768   -1.079016
      8          1           0       -1.068861    0.815384    1.268599
      9          1           0       -0.880057   -0.942896    1.224137
     10          1           0        2.119394    0.829170   -0.027016
 ---------------------------------------------------------------------
                    Distance matrix (angstroms):
                    1          2          3          4          5
     1  N    0.000000
     2  C    1.467808   0.000000
     3  C    2.409891   1.519539   0.000000
     4  O    2.780659   2.401259   1.209059   0.000000
     5  O    3.529619   2.410248   1.353651   2.254826   0.000000
     6  H    1.018496   2.052914   3.309171   3.746030   4.350216
     7  H    1.018009   2.047469   2.580869   2.500052   3.882922
     8  H    2.106937   1.092011   2.158321   3.254298   2.490387
     9  H    2.184672   1.109286   2.123978   2.845418   2.935174
    10  H    4.209568   3.227629   1.872831   2.282880   0.976117
                    6          7          8          9         10
     6  H    0.000000
     7  H    1.641391   0.000000
     8  H    2.431484   2.949322   0.000000
     9  H    2.469660   2.492663   1.768947   0.000000
    10  H    5.110621   4.394625   3.441478   3.701663   0.000000
 Stoichiometry    C2H5NO2
 Framework group  C1[X(C2H5NO2)]
 Deg. of freedom    24
 Full point group                 C1      NOp   1
 RotChk:  IX=0 Diff= 2.45D-01
 Largest Abelian subgroup         C1      NOp   1
 Largest concise Abelian subgroup C1      NOp   1
                         Standard orientation:                         
 ---------------------------------------------------------------------
 Center     Atomic      Atomic             Coordinates (Angstroms)
 Number     Number       Type             X           Y           Z
 ---------------------------------------------------------------------
      1          7           0        1.831117    0.086892   -0.353762
      2          6           0        0.754713   -0.656341    0.312136
      3          6           0       -0.543607    0.090635    0.056415
      4          8           0       -0.629652    1.295382    0.111244
      5          8           0       -1.601907   -0.716657   -0.189859
      6          1           0        2.731605   -0.338914   -0.141287
      7          1           0        1.854941    1.041689   -0.001430
      8          1           0        0.696974   -1.669301   -0.091677
      9          1           0        0.857028   -0.752268    1.412520
     10          1           0       -2.372538   -0.125017   -0.284174
 ---------------------------------------------------------------------
 Rotational constants (GHZ):           9.9465566           3.9403942           3.0180899
 Leave Link  202 at Fri Mar 14 15:42:10 2025, MaxMem=  8589934592 cpu:               0.1 elap:               0.1
 (Enter /home/enzo/gaussian_versions/gdv.j21/gdv/l301.exe)
 Standard basis: 6-31G(d) (6D, 7F)
 Ernie: Thresh=  0.10000D-02 Tol=  0.10000D-05 Strict=F.
 There are    85 symmetry adapted cartesian basis functions of A   symmetry.
 There are    85 symmetry adapted basis functions of A   symmetry.
    85 basis functions,   160 primitive gaussians,    85 cartesian basis functions
    20 alpha electrons       20 beta electrons
       nuclear repulsion energy       179.1499505185 Hartrees.
 IExCor=      4002 DFT=T Ex+Corr=B3LYP ScaHFX=  0.200000
 ScaDFX=  0.800000  0.720000  1.000000  0.810000  1.000000  0.000000
 ScaDFX=  0.000000  0.000000  0.000000  0.000000  0.000000  0.000000
 IRadAn=      5 IRanWt=     -1 IRanGd=            0 ICorTp=0 IEmpDi=  4
 NAtoms=   10 NActive=   10 NUniq=   10 SFac= 1.00D+00 NAtFMM=   60 NAOKFM=F Big=F
 Integral buffers will be    131072 words long.
 Raffenetti 2 integral format.
 Two-electron integral symmetry is turned on.
 Leave Link  301 at Fri Mar 14 15:42:10 2025, MaxMem=  8589934592 cpu:               0.3 elap:               0.1
 (Enter /home/enzo/gaussian_versions/gdv.j21/gdv/l302.exe)
 NPDir=0 NMtPBC=     1 NCelOv=     1 NCel=       1 NClECP=     1 NCelD=      1
         NCelK=      1 NCelE2=     1 NClLst=     1 CellRange=     0.0.
 One-electron integrals computed using PRISM.
 One-electron integral symmetry used in STVInt
 NBasis=    85 RedAO= T EigKep=  3.76D-03  NBF=    85
 NBsUse=    85 1.00D-06 EigRej= -1.00D+00 NBFU=    85
 Precomputing XC quadrature grid using
 IXCGrd= 4 IRadAn=           5 IRanWt=          -1 IRanGd=           0 AccXCQ= 0.00D+00.
 Generated NRdTot=       0 NPtTot=      219374 NUsed=           0 NTot=          64
 NSgBfM=    85    85    85    85    85 MxSgAt=    10 MxSgA2=    10 SizInc=   0.000
 NMBTot=     1941 MaxBatPerAtom=       84 MaxMicBPerAtom=      202 NBfPt=            15889366.
 Leave Link  302 at Fri Mar 14 15:42:10 2025, MaxMem=  8589934592 cpu:               0.8 elap:               0.2
 (Enter /home/enzo/gaussian_versions/gdv.j21/gdv/l303.exe)
 DipDrv:  MaxL=1.
 Leave Link  303 at Fri Mar 14 15:42:10 2025, MaxMem=  8589934592 cpu:               0.1 elap:               0.1
 (Enter /home/enzo/gaussian_versions/gdv.j21/gdv/l401.exe)
 Initial guess from the checkpoint file:  "/local/home/enzo/scratch/Gau-2409754.chk"
 B after Tr=     0.000000   -0.000000    0.000000
         Rot=    0.999056   -0.038944   -0.000095    0.019271 Ang=  -4.98 deg.
 AO Guess basis will be translated and rotated to current coordinates.
 JPrj=2 DoOrth=T DoCkMO=T.
 Generating alternative initial guess.
 ExpMin= 1.61D-01 ExpMax= 5.48D+03 ExpMxC= 8.25D+02 IAcc=3 IRadAn=         5 AccDes= 0.00D+00
 Harris functional with IExCor= 4002 and IRadAn=       5 diagonalized for initial guess.
 HarFok:  IExCor=    4002 AccDes= 0.00D+00 IRadAn=         5 IDoV= 1 UseB2=F ITyADJ=14 ICtDFT=  3500011
 FoFCou: FMM=F IPFlag=           0 FMFlag=      100000 FMFlg1=           0
         NFxFlg=           0 DoJE=T BraDBF=F KetDBF=T FulRan=T
         wScrn=  0.000000 ICntrl=       500 IOpCl=  0 I1Cent=   200000004 NGrid=           0
         NMat0=    1 NMatS0=      1 NMatT0=    0 NMatD0=    1 NMtDS0=    0 NMtDT0=    0
 Petite list used in FoFCou.
 Harris En= -284.438856357034    
 Leave Link  401 at Fri Mar 14 15:42:10 2025, MaxMem=  8589934592 cpu:               1.9 elap:               0.2
 (Enter /home/enzo/gaussian_versions/gdv.j21/gdv/l502.exe)
 Keep R1 ints in memory in canonical form, NReq=17617987.
 FoFCou: FMM=F IPFlag=           0 FMFlag=           0 FMFlg1=           0
         NFxFlg=           0 DoJE=F BraDBF=F KetDBF=F FulRan=T
         wScrn=  0.000000 ICntrl=       600 IOpCl=  0 I1Cent=           0 NGrid=           0
         NMat0=    1 NMatS0=   3655 NMatT0=    0 NMatD0=    1 NMtDS0=    0 NMtDT0=    0
 Symmetry not used in FoFCou.
 Two-electron integral symmetry not used.
 Closed shell SCF:
 Using DIIS extrapolation, IDIIS=  1040.
 NGot=  8589934592 LenX=  8583230350 LenY=  8583222684
 Requested convergence on RMS density matrix=1.00D-08 within 128 cycles.
 Requested convergence on MAX density matrix=1.00D-06.
 Requested convergence on             energy=1.00D-06.
 No special actions if energy rises.
 Integral accuracy reduced to 1.0D-05 until final iterations.

 Cycle   1  Pass 0  IDiag  1:
 E= -284.395178480550    
 DIIS: error= 6.77D-03 at cycle   1 NSaved=   1.
 NSaved= 1 IEnMin= 1 EnMin= -284.395178480550     IErMin= 1 ErrMin= 6.77D-03
 ErrMax= 6.77D-03  0.00D+00 EMaxC= 1.00D-01 BMatC= 1.19D-02 BMatP= 1.19D-02
 IDIUse=3 WtCom= 9.32D-01 WtEn= 6.77D-02
 Coeff-Com:  0.100D+01
 Coeff-En:   0.100D+01
 Coeff:      0.100D+01
 Gap=     1.557 Goal=   None    Shift=    0.000
 GapD=    1.557 DampG=2.000 DampE=1.000 DampFc=2.0000 IDamp=-1.
 RMSDP=2.09D-03 MaxDP=2.33D-02              OVMax= 4.32D-02

 Cycle   2  Pass 0  IDiag  1:
 E= -284.418519128491     Delta-E=       -0.023340647940 Rises=F Damp=F
 DIIS: error= 8.80D-04 at cycle   2 NSaved=   2.
 NSaved= 2 IEnMin= 2 EnMin= -284.418519128491     IErMin= 2 ErrMin= 8.80D-04
 ErrMax= 8.80D-04  0.00D+00 EMaxC= 1.00D-01 BMatC= 1.87D-04 BMatP= 1.19D-02
 IDIUse=3 WtCom= 9.91D-01 WtEn= 8.80D-03
 Coeff-Com: -0.666D-01 0.107D+01
 Coeff-En:   0.000D+00 0.100D+01
 Coeff:     -0.660D-01 0.107D+01
 Gap=     0.250 Goal=   None    Shift=    0.000
 RMSDP=3.30D-04 MaxDP=3.64D-03 DE=-2.33D-02 OVMax= 6.71D-03

 Cycle   3  Pass 0  IDiag  1:
 E= -284.418711097566     Delta-E=       -0.000191969075 Rises=F Damp=F
 DIIS: error= 1.29D-03 at cycle   3 NSaved=   3.
 NSaved= 3 IEnMin= 3 EnMin= -284.418711097566     IErMin= 2 ErrMin= 8.80D-04
 ErrMax= 1.29D-03  0.00D+00 EMaxC= 1.00D-01 BMatC= 1.65D-04 BMatP= 1.87D-04
 IDIUse=3 WtCom= 9.87D-01 WtEn= 1.29D-02
 Coeff-Com: -0.442D-01 0.563D+00 0.481D+00
 Coeff-En:   0.000D+00 0.000D+00 0.100D+01
 Coeff:     -0.436D-01 0.555D+00 0.488D+00
 Gap=     0.248 Goal=   None    Shift=    0.000
 RMSDP=1.57D-04 MaxDP=3.31D-03 DE=-1.92D-04 OVMax= 5.99D-03

 Cycle   4  Pass 0  IDiag  1:
 E= -284.418812877361     Delta-E=       -0.000101779796 Rises=F Damp=F
 DIIS: error= 5.73D-04 at cycle   4 NSaved=   4.
 NSaved= 4 IEnMin= 4 EnMin= -284.418812877361     IErMin= 4 ErrMin= 5.73D-04
 ErrMax= 5.73D-04  0.00D+00 EMaxC= 1.00D-01 BMatC= 3.44D-05 BMatP= 1.65D-04
 IDIUse=3 WtCom= 9.94D-01 WtEn= 5.73D-03
 Coeff-Com: -0.158D-01 0.173D+00 0.319D+00 0.524D+00
 Coeff-En:   0.000D+00 0.000D+00 0.187D+00 0.813D+00
 Coeff:     -0.158D-01 0.172D+00 0.319D+00 0.525D+00
 Gap=     0.248 Goal=   None    Shift=    0.000
 RMSDP=5.88D-05 MaxDP=1.37D-03 DE=-1.02D-04 OVMax= 2.40D-03

 Cycle   5  Pass 0  IDiag  1:
 E= -284.418836726041     Delta-E=       -0.000023848680 Rises=F Damp=F
 DIIS: error= 1.63D-04 at cycle   5 NSaved=   5.
 NSaved= 5 IEnMin= 5 EnMin= -284.418836726041     IErMin= 5 ErrMin= 1.63D-04
 ErrMax= 1.63D-04  0.00D+00 EMaxC= 1.00D-01 BMatC= 2.92D-06 BMatP= 3.44D-05
 IDIUse=3 WtCom= 9.98D-01 WtEn= 1.63D-03
 Coeff-Com: -0.590D-02 0.595D-01 0.156D+00 0.316D+00 0.474D+00
 Coeff-En:   0.000D+00 0.000D+00 0.000D+00 0.000D+00 0.100D+01
 Coeff:     -0.589D-02 0.594D-01 0.155D+00 0.316D+00 0.475D+00
 Gap=     0.248 Goal=   None    Shift=    0.000
 RMSDP=1.67D-05 MaxDP=3.54D-04 DE=-2.38D-05 OVMax= 4.58D-04

 Cycle   6  Pass 0  IDiag  1:
 E= -284.418838924826     Delta-E=       -0.000002198785 Rises=F Damp=F
 DIIS: error= 3.71D-05 at cycle   6 NSaved=   6.
 NSaved= 6 IEnMin= 6 EnMin= -284.418838924826     IErMin= 6 ErrMin= 3.71D-05
 ErrMax= 3.71D-05  0.00D+00 EMaxC= 1.00D-01 BMatC= 1.65D-07 BMatP= 2.92D-06
 IDIUse=1 WtCom= 1.00D+00 WtEn= 0.00D+00
 Coeff-Com:  0.427D-03-0.810D-02 0.606D-02 0.344D-01 0.208D+00 0.759D+00
 Coeff:      0.427D-03-0.810D-02 0.606D-02 0.344D-01 0.208D+00 0.759D+00
 Gap=     0.248 Goal=   None    Shift=    0.000
 RMSDP=5.33D-06 MaxDP=1.09D-04 DE=-2.20D-06 OVMax= 1.80D-04

 Initial convergence to 1.0D-05 achieved.  Increase integral accuracy.
 Cycle   7  Pass 1  IDiag  1:
 E= -284.418836798643     Delta-E=        0.000002126183 Rises=F Damp=F
 DIIS: error= 1.03D-05 at cycle   1 NSaved=   1.
 NSaved= 1 IEnMin= 1 EnMin= -284.418836798643     IErMin= 1 ErrMin= 1.03D-05
 ErrMax= 1.03D-05  0.00D+00 EMaxC= 1.00D-01 BMatC= 1.61D-08 BMatP= 1.61D-08
 IDIUse=1 WtCom= 1.00D+00 WtEn= 0.00D+00
 Coeff-Com:  0.100D+01
 Coeff:      0.100D+01
 Gap=     0.248 Goal=   None    Shift=    0.000
 RMSDP=5.33D-06 MaxDP=1.09D-04 DE= 2.13D-06 OVMax= 6.00D-05

 Cycle   8  Pass 1  IDiag  1:
 E= -284.418836791831     Delta-E=        0.000000006812 Rises=F Damp=F
 DIIS: error= 1.44D-05 at cycle   2 NSaved=   2.
 NSaved= 2 IEnMin= 1 EnMin= -284.418836798643     IErMin= 1 ErrMin= 1.03D-05
 ErrMax= 1.44D-05  0.00D+00 EMaxC= 1.00D-01 BMatC= 2.75D-08 BMatP= 1.61D-08
 IDIUse=1 WtCom= 1.00D+00 WtEn= 0.00D+00
 Coeff-Com:  0.568D+00 0.432D+00
 Coeff:      0.568D+00 0.432D+00
 Gap=     0.248 Goal=   None    Shift=    0.000
 RMSDP=1.70D-06 MaxDP=2.72D-05 DE= 6.81D-09 OVMax= 3.31D-05

 Cycle   9  Pass 1  IDiag  1:
 E= -284.418836813079     Delta-E=       -0.000000021247 Rises=F Damp=F
 DIIS: error= 2.56D-06 at cycle   3 NSaved=   3.
 NSaved= 3 IEnMin= 3 EnMin= -284.418836813079     IErMin= 3 ErrMin= 2.56D-06
 ErrMax= 2.56D-06  0.00D+00 EMaxC= 1.00D-01 BMatC= 6.61D-10 BMatP= 1.61D-08
 IDIUse=1 WtCom= 1.00D+00 WtEn= 0.00D+00
 Coeff-Com:  0.281D+00 0.236D+00 0.483D+00
 Coeff:      0.281D+00 0.236D+00 0.483D+00
 Gap=     0.248 Goal=   None    Shift=    0.000
 RMSDP=2.76D-07 MaxDP=6.02D-06 DE=-2.12D-08 OVMax= 8.52D-06

 Cycle  10  Pass 1  IDiag  1:
 E= -284.418836813566     Delta-E=       -0.000000000487 Rises=F Damp=F
 DIIS: error= 6.84D-07 at cycle   4 NSaved=   4.
 NSaved= 4 IEnMin= 4 EnMin= -284.418836813566     IErMin= 4 ErrMin= 6.84D-07
 ErrMax= 6.84D-07  0.00D+00 EMaxC= 1.00D-01 BMatC= 8.70D-11 BMatP= 6.61D-10
 IDIUse=1 WtCom= 1.00D+00 WtEn= 0.00D+00
 Coeff-Com:  0.566D-01 0.560D-01 0.272D+00 0.616D+00
 Coeff:      0.566D-01 0.560D-01 0.272D+00 0.616D+00
 Gap=     0.248 Goal=   None    Shift=    0.000
 RMSDP=1.37D-07 MaxDP=3.11D-06 DE=-4.87D-10 OVMax= 4.72D-06

 Cycle  11  Pass 1  IDiag  1:
 E= -284.418836813627     Delta-E=       -0.000000000061 Rises=F Damp=F
 DIIS: error= 5.36D-07 at cycle   5 NSaved=   5.
 NSaved= 5 IEnMin= 5 EnMin= -284.418836813627     IErMin= 5 ErrMin= 5.36D-07
 ErrMax= 5.36D-07  0.00D+00 EMaxC= 1.00D-01 BMatC= 2.70D-11 BMatP= 8.70D-11
 IDIUse=1 WtCom= 1.00D+00 WtEn= 0.00D+00
 Coeff-Com: -0.315D-01-0.211D-01 0.631D-01 0.419D+00 0.571D+00
 Coeff:     -0.315D-01-0.211D-01 0.631D-01 0.419D+00 0.571D+00
 Gap=     0.248 Goal=   None    Shift=    0.000
 RMSDP=6.23D-08 MaxDP=1.03D-06 DE=-6.12D-11 OVMax= 2.18D-06

 Cycle  12  Pass 1  IDiag  1:
 E= -284.418836813651     Delta-E=       -0.000000000024 Rises=F Damp=F
 DIIS: error= 6.60D-08 at cycle   6 NSaved=   6.
 NSaved= 6 IEnMin= 6 EnMin= -284.418836813651     IErMin= 6 ErrMin= 6.60D-08
 ErrMax= 6.60D-08  0.00D+00 EMaxC= 1.00D-01 BMatC= 1.05D-12 BMatP= 2.70D-11
 IDIUse=1 WtCom= 1.00D+00 WtEn= 0.00D+00
 Coeff-Com: -0.207D-01-0.153D-01 0.802D-02 0.154D+00 0.267D+00 0.607D+00
 Coeff:     -0.207D-01-0.153D-01 0.802D-02 0.154D+00 0.267D+00 0.607D+00
 Gap=     0.248 Goal=   None    Shift=    0.000
 RMSDP=1.28D-08 MaxDP=2.02D-07 DE=-2.40D-11 OVMax= 4.12D-07

 Cycle  13  Pass 1  IDiag  1:
 E= -284.418836813650     Delta-E=        0.000000000001 Rises=F Damp=F
 DIIS: error= 2.15D-08 at cycle   7 NSaved=   7.
 NSaved= 7 IEnMin= 6 EnMin= -284.418836813651     IErMin= 7 ErrMin= 2.15D-08
 ErrMax= 2.15D-08  0.00D+00 EMaxC= 1.00D-01 BMatC= 1.09D-13 BMatP= 1.05D-12
 IDIUse=1 WtCom= 1.00D+00 WtEn= 0.00D+00
 Coeff-Com: -0.665D-02-0.515D-02-0.264D-02 0.315D-01 0.701D-01 0.292D+00
 Coeff-Com:  0.621D+00
 Coeff:     -0.665D-02-0.515D-02-0.264D-02 0.315D-01 0.701D-01 0.292D+00
 Coeff:      0.621D+00
 Gap=     0.248 Goal=   None    Shift=    0.000
 RMSDP=3.98D-09 MaxDP=7.41D-08 DE= 8.53D-13 OVMax= 1.05D-07

 SCF Done:  E(RB3LYP) =  -284.418836814     A.U. after   13 cycles
            NFock= 13  Conv=0.40D-08     -V/T= 2.0089
 KE= 2.819000209054D+02 PE=-1.024574173527D+03 EE= 2.791053652891D+02
 Leave Link  502 at Fri Mar 14 15:42:11 2025, MaxMem=  8589934592 cpu:               9.8 elap:               0.9
 (Enter /home/enzo/gaussian_versions/gdv.j21/gdv/l701.exe)
 ... and contract with generalized density number  0.
 Compute integral first derivatives.
 Leave Link  701 at Fri Mar 14 15:42:11 2025, MaxMem=  8589934592 cpu:               0.7 elap:               0.1
 (Enter /home/enzo/gaussian_versions/gdv.j21/gdv/l702.exe)
 L702 exits ... SP integral derivatives will be done elsewhere.
 Leave Link  702 at Fri Mar 14 15:42:12 2025, MaxMem=  8589934592 cpu:               0.1 elap:               0.1
 (Enter /home/enzo/gaussian_versions/gdv.j21/gdv/l703.exe)
 Integral derivatives from FoFJK, PRISM(SPDF).
 Compute integral first derivatives, UseDBF=F ICtDFT=           0.
 Calling FoFJK, ICntrl=      2127 FMM=F ISym2X=0 I1Cent= 0 IOpClX= 0 NMat=1 NMatS=1 NMatT=0.
 FoFJK:  IHMeth= 1 ICntrl=    2127 DoSepK=F KAlg= 0 I1Cent=           0 FoldK=F
 IRaf=         0 NMat=       1 IRICut=       1 DoRegI=T DoRafI=F ISym2E= 0 IDoP0=0 IntGTp=1.
 FoFCou: FMM=F IPFlag=           0 FMFlag=      100000 FMFlg1=         800
         NFxFlg=           0 DoJE=F BraDBF=F KetDBF=F FulRan=T
         wScrn=  0.000000 ICntrl=      2127 IOpCl=  0 I1Cent=           0 NGrid=           0
         NMat0=    1 NMatS0=      1 NMatT0=    0 NMatD0=    1 NMtDS0=    0 NMtDT0=    0
 Symmetry not used in FoFCou.
 Leave Link  703 at Fri Mar 14 15:42:12 2025, MaxMem=  8589934592 cpu:               3.1 elap:               0.4
 (Enter /home/enzo/gaussian_versions/gdv.j21/gdv/l716.exe)
 Dipole        = 9.23543958D-02-5.05937374D-01 5.14735244D-01
 ***** Axes restored to original set *****
 -------------------------------------------------------------------
 Center     Atomic                   Forces (Hartrees/Bohr)
 Number     Number              X              Y              Z
 -------------------------------------------------------------------
      1        7          -0.000632525    0.000958538    0.004317547
      2        6          -0.002240700    0.000295784   -0.004152783
      3        6          -0.001241683   -0.001972980    0.003484375
      4        8           0.002762562   -0.000400821   -0.003764957
      5        8          -0.002733060   -0.001536264    0.000656931
      6        1           0.001113642   -0.000470582    0.000224763
      7        1           0.001737822    0.000132473    0.000608652
      8        1           0.000079322    0.001392727   -0.000203111
      9        1           0.000852552    0.001261569   -0.000939884
     10        1           0.000302067    0.000339555   -0.000231533
 -------------------------------------------------------------------
 Cartesian Forces:  Max     0.004317547 RMS     0.001848307
 Leave Link  716 at Fri Mar 14 15:42:12 2025, MaxMem=  8589934592 cpu:               0.1 elap:               0.1
 (Enter /home/enzo/gaussian_versions/gdv.j21/gdv/l103.exe)

 GradGradGradGradGradGradGradGradGradGradGradGradGradGradGradGradGradGrad
 Berny optimization.
 Using GEDIIS/GDIIS optimizer.
 FormGI is forming the generalized inverse of G from B-inverse, IUseBI=4.
 Internal  Forces:  Max     0.005286666 RMS     0.001995670
 Search for a local minimum.
 Step number  15 out of a maximum of   46
 All quantities printed in internal units (Hartrees-Bohrs-Radians)
 RMS Force = .19957D-02 SwitMx=.10000D-02 MixMth= 1
 Mixed Optimization -- RFO/linear search
 Update second derivatives using D2CorX and points   14   15
 DE= -1.30D-03 DEPred=-1.31D-03 R= 9.95D-01
 TightC=F SS=  1.41D+00  RLast= 6.21D-01 DXNew= 2.7488D+00 1.8638D+00
 Trust test= 9.95D-01 RLast= 6.21D-01 DXMaxT set to 1.86D+00
 ITU=  1  1  0  1  0  1  1  1  1  1  1  0  1  1  0
 Use linear search instead of GDIIS.
     Eigenvalues ---    0.00010   0.00282   0.02080   0.03883   0.04622
     Eigenvalues ---    0.05877   0.06958   0.09436   0.12551   0.14642
     Eigenvalues ---    0.16430   0.17032   0.19734   0.23189   0.27249
     Eigenvalues ---    0.31332   0.31922   0.32605   0.33312   0.40651
     Eigenvalues ---    0.41667   0.44054   0.49164   0.81563
 RFO step:  Lambda=-1.47315429D-03 EMin= 9.65664231D-05
 Quartic linear search produced a step of  0.30722.
 Iteration  1 RMS(Cart)=  0.12167277 RMS(Int)=  0.00960903
 Iteration  2 RMS(Cart)=  0.01123573 RMS(Int)=  0.00014912
 Iteration  3 RMS(Cart)=  0.00008152 RMS(Int)=  0.00013345
 Iteration  4 RMS(Cart)=  0.00000001 RMS(Int)=  0.00013345
 Variable       Old X    -DE/DX   Delta X   Delta X   Delta X     New X
                                 (Linear)    (Quad)   (Total)
    R1        2.77376  -0.00518   0.00343  -0.03111  -0.02768   2.74607
    R2        1.92468  -0.00083  -0.00160  -0.00233  -0.00393   1.92075
    R3        1.92376  -0.00022  -0.00131   0.00059  -0.00072   1.92304
    R4        2.87151  -0.00112   0.00078  -0.00600  -0.00523   2.86629
    R5        2.06360   0.00094  -0.00151   0.00632   0.00481   2.06841
    R6        2.09625  -0.00153  -0.00132  -0.00152  -0.00284   2.09341
    R7        2.28479   0.00393   0.00210   0.00600   0.00810   2.29289
    R8        2.55803  -0.00212  -0.00315  -0.00247  -0.00562   2.55241
    R9        1.84459   0.00036   0.00111   0.00043   0.00154   1.84613
    A1        1.91988  -0.00078   0.00049  -0.00949  -0.00920   1.91068
    A2        1.91247  -0.00266  -0.00748  -0.02541  -0.03310   1.87937
    A3        1.87467   0.00121   0.00274  -0.00023   0.00207   1.87674
    A4        1.87687   0.00406  -0.00670   0.03181   0.02495   1.90182
    A5        1.91847  -0.00106   0.00564   0.00646   0.01195   1.93042
    A6        2.01106  -0.00061  -0.00340  -0.00628  -0.00958   2.00147
    A7        1.92686  -0.00111   0.00650  -0.00701  -0.00086   1.92600
    A8        1.86320  -0.00229  -0.00083  -0.02226  -0.02315   1.84005
    A9        1.86657   0.00086  -0.00067  -0.00420  -0.00490   1.86167
   A10        2.14480   0.00529   0.00118   0.02463   0.02576   2.17056
   A11        1.98826  -0.00501  -0.00229  -0.02147  -0.02381   1.96445
   A12        2.14941  -0.00027   0.00090  -0.00274  -0.00188   2.14753
   A13        1.84765   0.00038  -0.00407   0.00490   0.00084   1.84849
    D1        3.05931  -0.00097  -0.01254  -0.18860  -0.20112   2.85819
    D2       -1.12560  -0.00047  -0.00540  -0.17416  -0.17930  -1.30489
    D3        0.98439  -0.00058  -0.00433  -0.17914  -0.18339   0.80099
    D4        1.00216  -0.00039  -0.01166  -0.16744  -0.17932   0.82284
    D5        3.10044   0.00011  -0.00452  -0.15300  -0.15750   2.94294
    D6       -1.07276   0.00000  -0.00345  -0.15798  -0.16160  -1.23436
    D7       -0.73236   0.00062   0.07563   0.15077   0.22646  -0.50590
    D8        2.44865   0.00034   0.08567   0.13902   0.22474   2.67339
    D9       -2.82532   0.00006   0.06905   0.12755   0.19663  -2.62869
   D10        0.35569  -0.00022   0.07908   0.11580   0.19491   0.55060
   D11        1.43510   0.00089   0.06699   0.14859   0.21550   1.65060
   D12       -1.66707   0.00062   0.07702   0.13684   0.21378  -1.45329
   D13        3.08584   0.00047  -0.03001   0.02308  -0.00693   3.07890
   D14       -0.01622   0.00006  -0.01995   0.01060  -0.00935  -0.02557
         Item               Value     Threshold  Converged?
 Maximum Force            0.005287     0.000450     NO 
 RMS     Force            0.001996     0.000300     NO 
 Maximum Displacement     0.372828     0.001800     NO 
 RMS     Displacement     0.128033     0.001200     NO 
 Predicted change in Energy=-1.161293D-03
 Lowest energy point so far.  Saving SCF results.
 GradGradGradGradGradGradGradGradGradGradGradGradGradGradGradGradGradGrad

 Leave Link  103 at Fri Mar 14 15:42:12 2025, MaxMem=  8589934592 cpu:               0.1 elap:               0.1
 (Enter /home/enzo/gaussian_versions/gdv.j21/gdv/l202.exe)
                          Input orientation:                          
 ---------------------------------------------------------------------
 Center     Atomic      Atomic             Coordinates (Angstroms)
 Number     Number       Type             X           Y           Z
 ---------------------------------------------------------------------
      1          7           0       -2.017296   -0.066391   -0.406635
      2          6           0       -0.948778    0.036092    0.572875
      3          6           0        0.380657    0.109223   -0.153664
      4          8           0        0.597668   -0.392551   -1.236872
      5          8           0        1.325465    0.760082    0.559113
      6          1           0       -2.867878   -0.382088    0.051563
      7          1           0       -1.750198   -0.779293   -1.081911
      8          1           0       -1.087359    0.920275    1.203012
      9          1           0       -0.863535   -0.831220    1.256754
     10          1           0        2.146633    0.699592    0.033357
 ---------------------------------------------------------------------
                    Distance matrix (angstroms):
                    1          2          3          4          5
     1  N    0.000000
     2  C    1.453160   0.000000
     3  C    2.417646   1.516774   0.000000
     4  O    2.762916   2.418763   1.213347   0.000000
     5  O    3.576279   2.386740   1.350678   2.254732   0.000000
     6  H    1.016416   2.032139   3.291882   3.697321   4.375647
     7  H    1.017629   2.011329   2.488301   2.384545   3.810818
     8  H    2.104579   1.094558   2.157185   3.242817   2.502396
     9  H    2.164022   1.107785   2.102791   2.923306   2.794757
    10  H    4.256598   3.211368   1.871413   2.281568   0.976932
                    6          7          8          9         10
     6  H    0.000000
     7  H    1.640653   0.000000
     8  H    2.488420   2.923826   0.000000
     9  H    2.381512   2.501644   1.766556   0.000000
    10  H    5.129882   4.314651   3.446085   3.591824   0.000000
 Stoichiometry    C2H5NO2
 Framework group  C1[X(C2H5NO2)]
 Deg. of freedom    24
 Full point group                 C1      NOp   1
 RotChk:  IX=0 Diff= 1.52D-01
 Largest Abelian subgroup         C1      NOp   1
 Largest concise Abelian subgroup C1      NOp   1
                         Standard orientation:                         
 ---------------------------------------------------------------------
 Center     Atomic      Atomic             Coordinates (Angstroms)
 Number     Number       Type             X           Y           Z
 ---------------------------------------------------------------------
      1          7           0        1.859655    0.103508   -0.272867
      2          6           0        0.742568   -0.700714    0.192984
      3          6           0       -0.538738    0.094765    0.031512
      4          8           0       -0.603432    1.305553    0.076412
      5          8           0       -1.623045   -0.695472   -0.123843
      6          1           0        2.729849   -0.294253    0.070133
      7          1           0        1.764482    1.030712    0.135548
      8          1           0        0.682032   -1.638113   -0.368865
      9          1           0        0.785807   -0.975279    1.265333
     10          1           0       -2.390916   -0.092571   -0.159608
 ---------------------------------------------------------------------
 Rotational constants (GHZ):          10.2037949           3.9653312           2.9767358
 Leave Link  202 at Fri Mar 14 15:42:12 2025, MaxMem=  8589934592 cpu:               0.1 elap:               0.1
 (Enter /home/enzo/gaussian_versions/gdv.j21/gdv/l301.exe)
 Standard basis: 6-31G(d) (6D, 7F)
 Ernie: Thresh=  0.10000D-02 Tol=  0.10000D-05 Strict=F.
 There are    85 symmetry adapted cartesian basis functions of A   symmetry.
 There are    85 symmetry adapted basis functions of A   symmetry.
    85 basis functions,   160 primitive gaussians,    85 cartesian basis functions
    20 alpha electrons       20 beta electrons
       nuclear repulsion energy       179.5295584136 Hartrees.
 IExCor=      4002 DFT=T Ex+Corr=B3LYP ScaHFX=  0.200000
 ScaDFX=  0.800000  0.720000  1.000000  0.810000  1.000000  0.000000
 ScaDFX=  0.000000  0.000000  0.000000  0.000000  0.000000  0.000000
 IRadAn=      5 IRanWt=     -1 IRanGd=            0 ICorTp=0 IEmpDi=  4
 NAtoms=   10 NActive=   10 NUniq=   10 SFac= 1.00D+00 NAtFMM=   60 NAOKFM=F Big=F
 Integral buffers will be    131072 words long.
 Raffenetti 2 integral format.
 Two-electron integral symmetry is turned on.
 Leave Link  301 at Fri Mar 14 15:42:12 2025, MaxMem=  8589934592 cpu:               0.2 elap:               0.1
 (Enter /home/enzo/gaussian_versions/gdv.j21/gdv/l302.exe)
 NPDir=0 NMtPBC=     1 NCelOv=     1 NCel=       1 NClECP=     1 NCelD=      1
         NCelK=      1 NCelE2=     1 NClLst=     1 CellRange=     0.0.
 One-electron integrals computed using PRISM.
 One-electron integral symmetry used in STVInt
 NBasis=    85 RedAO= T EigKep=  3.81D-03  NBF=    85
 NBsUse=    85 1.00D-06 EigRej= -1.00D+00 NBFU=    85
 Precomputing XC quadrature grid using
 IXCGrd= 4 IRadAn=           5 IRanWt=          -1 IRanGd=           0 AccXCQ= 0.00D+00.
 Generated NRdTot=       0 NPtTot=      219382 NUsed=           0 NTot=          64
 NSgBfM=    85    85    85    85    85 MxSgAt=    10 MxSgA2=    10 SizInc=   0.000
 NMBTot=     1934 MaxBatPerAtom=       84 MaxMicBPerAtom=      199 NBfPt=            15891123.
 Leave Link  302 at Fri Mar 14 15:42:12 2025, MaxMem=  8589934592 cpu:               1.0 elap:               0.2
 (Enter /home/enzo/gaussian_versions/gdv.j21/gdv/l303.exe)
 DipDrv:  MaxL=1.
 Leave Link  303 at Fri Mar 14 15:42:12 2025, MaxMem=  8589934592 cpu:               0.1 elap:               0.1
 (Enter /home/enzo/gaussian_versions/gdv.j21/gdv/l401.exe)
 Initial guess from the checkpoint file:  "/local/home/enzo/scratch/Gau-2409754.chk"
 B after Tr=    -0.000000    0.000000    0.000000
         Rot=    0.999867   -0.015483    0.001731    0.004804 Ang=  -1.87 deg.
 AO Guess basis will be translated and rotated to current coordinates.
 JPrj=2 DoOrth=T DoCkMO=T.
 Generating alternative initial guess.
 ExpMin= 1.61D-01 ExpMax= 5.48D+03 ExpMxC= 8.25D+02 IAcc=3 IRadAn=         5 AccDes= 0.00D+00
 Harris functional with IExCor= 4002 and IRadAn=       5 diagonalized for initial guess.
 HarFok:  IExCor=    4002 AccDes= 0.00D+00 IRadAn=         5 IDoV= 1 UseB2=F ITyADJ=14 ICtDFT=  3500011
 FoFCou: FMM=F IPFlag=           0 FMFlag=      100000 FMFlg1=           0
         NFxFlg=           0 DoJE=T BraDBF=F KetDBF=T FulRan=T
         wScrn=  0.000000 ICntrl=       500 IOpCl=  0 I1Cent=   200000004 NGrid=           0
         NMat0=    1 NMatS0=      1 NMatT0=    0 NMatD0=    1 NMtDS0=    0 NMtDT0=    0
 Petite list used in FoFCou.
 Harris En= -284.439771523149    
 Leave Link  401 at Fri Mar 14 15:42:13 2025, MaxMem=  8589934592 cpu:               1.9 elap:               0.2
 (Enter /home/enzo/gaussian_versions/gdv.j21/gdv/l502.exe)
 Keep R1 ints in memory in canonical form, NReq=17617987.
 FoFCou: FMM=F IPFlag=           0 FMFlag=           0 FMFlg1=           0
         NFxFlg=           0 DoJE=F BraDBF=F KetDBF=F FulRan=T
         wScrn=  0.000000 ICntrl=       600 IOpCl=  0 I1Cent=           0 NGrid=           0
         NMat0=    1 NMatS0=   3655 NMatT0=    0 NMatD0=    1 NMtDS0=    0 NMtDT0=    0
 Symmetry not used in FoFCou.
 Two-electron integral symmetry not used.
 Closed shell SCF:
 Using DIIS extrapolation, IDIIS=  1040.
 NGot=  8589934592 LenX=  8583230350 LenY=  8583222684
 Requested convergence on RMS density matrix=1.00D-08 within 128 cycles.
 Requested convergence on MAX density matrix=1.00D-06.
 Requested convergence on             energy=1.00D-06.
 No special actions if energy rises.
 Integral accuracy reduced to 1.0D-05 until final iterations.

 Cycle   1  Pass 0  IDiag  1:
 E= -284.401418895338    
 DIIS: error= 7.70D-03 at cycle   1 NSaved=   1.
 NSaved= 1 IEnMin= 1 EnMin= -284.401418895338     IErMin= 1 ErrMin= 7.70D-03
 ErrMax= 7.70D-03  0.00D+00 EMaxC= 1.00D-01 BMatC= 9.04D-03 BMatP= 9.04D-03
 IDIUse=3 WtCom= 9.23D-01 WtEn= 7.70D-02
 Coeff-Com:  0.100D+01
 Coeff-En:   0.100D+01
 Coeff:      0.100D+01
 Gap=     1.546 Goal=   None    Shift=    0.000
 GapD=    1.546 DampG=2.000 DampE=1.000 DampFc=2.0000 IDamp=-1.
 RMSDP=1.92D-03 MaxDP=2.31D-02              OVMax= 4.25D-02

 Cycle   2  Pass 0  IDiag  1:
 E= -284.419489317033     Delta-E=       -0.018070421695 Rises=F Damp=F
 DIIS: error= 1.01D-03 at cycle   2 NSaved=   2.
 NSaved= 2 IEnMin= 2 EnMin= -284.419489317033     IErMin= 2 ErrMin= 1.01D-03
 ErrMax= 1.01D-03  0.00D+00 EMaxC= 1.00D-01 BMatC= 1.44D-04 BMatP= 9.04D-03
 IDIUse=3 WtCom= 9.90D-01 WtEn= 1.01D-02
 Coeff-Com: -0.645D-01 0.106D+01
 Coeff-En:   0.000D+00 0.100D+01
 Coeff:     -0.639D-01 0.106D+01
 Gap=     0.249 Goal=   None    Shift=    0.000
 RMSDP=3.33D-04 MaxDP=4.12D-03 DE=-1.81D-02 OVMax= 7.61D-03

 Cycle   3  Pass 0  IDiag  1:
 E= -284.419613370075     Delta-E=       -0.000124053043 Rises=F Damp=F
 DIIS: error= 1.41D-03 at cycle   3 NSaved=   3.
 NSaved= 3 IEnMin= 3 EnMin= -284.419613370075     IErMin= 2 ErrMin= 1.01D-03
 ErrMax= 1.41D-03  0.00D+00 EMaxC= 1.00D-01 BMatC= 1.77D-04 BMatP= 1.44D-04
 IDIUse=3 WtCom= 2.11D-01 WtEn= 7.89D-01
 Coeff-Com: -0.467D-01 0.610D+00 0.437D+00
 Coeff-En:   0.000D+00 0.138D+00 0.862D+00
 Coeff:     -0.984D-02 0.237D+00 0.772D+00
 Gap=     0.246 Goal=   None    Shift=    0.000
 RMSDP=2.85D-04 MaxDP=5.94D-03 DE=-1.24D-04 OVMax= 1.15D-02

 Cycle   4  Pass 0  IDiag  1:
 E= -284.419484558864     Delta-E=        0.000128811212 Rises=F Damp=F
 DIIS: error= 1.95D-03 at cycle   4 NSaved=   4.
 NSaved= 4 IEnMin= 3 EnMin= -284.419613370075     IErMin= 2 ErrMin= 1.01D-03
 ErrMax= 1.95D-03  0.00D+00 EMaxC= 1.00D-01 BMatC= 3.52D-04 BMatP= 1.44D-04
 IDIUse=3 WtCom= 1.84D-01 WtEn= 8.16D-01
 Coeff-Com: -0.167D-01 0.170D+00 0.531D+00 0.316D+00
 Coeff-En:   0.000D+00 0.000D+00 0.624D+00 0.376D+00
 Coeff:     -0.308D-02 0.313D-01 0.607D+00 0.365D+00
 Gap=     0.246 Goal=   None    Shift=    0.000
 RMSDP=1.51D-04 MaxDP=3.53D-03 DE= 1.29D-04 OVMax= 6.37D-03

 Cycle   5  Pass 0  IDiag  1:
 E= -284.419746642849     Delta-E=       -0.000262083985 Rises=F Damp=F
 DIIS: error= 1.93D-04 at cycle   5 NSaved=   5.
 NSaved= 5 IEnMin= 5 EnMin= -284.419746642849     IErMin= 5 ErrMin= 1.93D-04
 ErrMax= 1.93D-04  0.00D+00 EMaxC= 1.00D-01 BMatC= 5.15D-06 BMatP= 1.44D-04
 IDIUse=3 WtCom= 9.98D-01 WtEn= 1.93D-03
 Coeff-Com: -0.540D-02 0.447D-01 0.322D+00 0.171D+00 0.468D+00
 Coeff-En:   0.000D+00 0.000D+00 0.000D+00 0.000D+00 0.100D+01
 Coeff:     -0.539D-02 0.447D-01 0.321D+00 0.171D+00 0.469D+00
 Gap=     0.247 Goal=   None    Shift=    0.000
 RMSDP=2.24D-05 MaxDP=4.37D-04 DE=-2.62D-04 OVMax= 4.93D-04

 Cycle   6  Pass 0  IDiag  1:
 E= -284.419750739695     Delta-E=       -0.000004096847 Rises=F Damp=F
 DIIS: error= 4.44D-05 at cycle   6 NSaved=   6.
 NSaved= 6 IEnMin= 6 EnMin= -284.419750739695     IErMin= 6 ErrMin= 4.44D-05
 ErrMax= 4.44D-05  0.00D+00 EMaxC= 1.00D-01 BMatC= 1.73D-07 BMatP= 5.15D-06
 IDIUse=1 WtCom= 1.00D+00 WtEn= 0.00D+00
 Coeff-Com:  0.238D-03-0.840D-02 0.642D-01 0.280D-01 0.238D+00 0.678D+00
 Coeff:      0.238D-03-0.840D-02 0.642D-01 0.280D-01 0.238D+00 0.678D+00
 Gap=     0.247 Goal=   None    Shift=    0.000
 RMSDP=4.94D-06 MaxDP=8.26D-05 DE=-4.10D-06 OVMax= 1.55D-04

 Initial convergence to 1.0D-05 achieved.  Increase integral accuracy.
 Cycle   7  Pass 1  IDiag  1:
 E= -284.419753171151     Delta-E=       -0.000002431455 Rises=F Damp=F
 DIIS: error= 1.15D-05 at cycle   1 NSaved=   1.
 NSaved= 1 IEnMin= 1 EnMin= -284.419753171151     IErMin= 1 ErrMin= 1.15D-05
 ErrMax= 1.15D-05  0.00D+00 EMaxC= 1.00D-01 BMatC= 1.39D-08 BMatP= 1.39D-08
 IDIUse=1 WtCom= 1.00D+00 WtEn= 0.00D+00
 Coeff-Com:  0.100D+01
 Coeff:      0.100D+01
 Gap=     0.247 Goal=   None    Shift=    0.000
 RMSDP=4.94D-06 MaxDP=8.26D-05 DE=-2.43D-06 OVMax= 6.73D-05

 Cycle   8  Pass 1  IDiag  1:
 E= -284.419753169123     Delta-E=        0.000000002028 Rises=F Damp=F
 DIIS: error= 1.48D-05 at cycle   2 NSaved=   2.
 NSaved= 2 IEnMin= 1 EnMin= -284.419753171151     IErMin= 1 ErrMin= 1.15D-05
 ErrMax= 1.48D-05  0.00D+00 EMaxC= 1.00D-01 BMatC= 1.99D-08 BMatP= 1.39D-08
 IDIUse=1 WtCom= 1.00D+00 WtEn= 0.00D+00
 Coeff-Com:  0.546D+00 0.454D+00
 Coeff:      0.546D+00 0.454D+00
 Gap=     0.247 Goal=   None    Shift=    0.000
 RMSDP=1.53D-06 MaxDP=2.82D-05 DE= 2.03D-09 OVMax= 3.03D-05

 Cycle   9  Pass 1  IDiag  1:
 E= -284.419753183748     Delta-E=       -0.000000014624 Rises=F Damp=F
 DIIS: error= 3.27D-06 at cycle   3 NSaved=   3.
 NSaved= 3 IEnMin= 3 EnMin= -284.419753183748     IErMin= 3 ErrMin= 3.27D-06
 ErrMax= 3.27D-06  0.00D+00 EMaxC= 1.00D-01 BMatC= 7.94D-10 BMatP= 1.39D-08
 IDIUse=1 WtCom= 1.00D+00 WtEn= 0.00D+00
 Coeff-Com:  0.284D+00 0.264D+00 0.452D+00
 Coeff:      0.284D+00 0.264D+00 0.452D+00
 Gap=     0.247 Goal=   None    Shift=    0.000
 RMSDP=2.88D-07 MaxDP=6.23D-06 DE=-1.46D-08 OVMax= 8.76D-06

 Cycle  10  Pass 1  IDiag  1:
 E= -284.419753184346     Delta-E=       -0.000000000599 Rises=F Damp=F
 DIIS: error= 6.86D-07 at cycle   4 NSaved=   4.
 NSaved= 4 IEnMin= 4 EnMin= -284.419753184346     IErMin= 4 ErrMin= 6.86D-07
 ErrMax= 6.86D-07  0.00D+00 EMaxC= 1.00D-01 BMatC= 6.84D-11 BMatP= 7.94D-10
 IDIUse=1 WtCom= 1.00D+00 WtEn= 0.00D+00
 Coeff-Com:  0.379D-01 0.452D-01 0.228D+00 0.689D+00
 Coeff:      0.379D-01 0.452D-01 0.228D+00 0.689D+00
 Gap=     0.247 Goal=   None    Shift=    0.000
 RMSDP=1.34D-07 MaxDP=2.68D-06 DE=-5.99D-10 OVMax= 4.68D-06

 Cycle  11  Pass 1  IDiag  1:
 E= -284.419753184390     Delta-E=       -0.000000000043 Rises=F Damp=F
 DIIS: error= 6.05D-07 at cycle   5 NSaved=   5.
 NSaved= 5 IEnMin= 5 EnMin= -284.419753184390     IErMin= 5 ErrMin= 6.05D-07
 ErrMax= 6.05D-07  0.00D+00 EMaxC= 1.00D-01 BMatC= 3.29D-11 BMatP= 6.84D-11
 IDIUse=1 WtCom= 1.00D+00 WtEn= 0.00D+00
 Coeff-Com: -0.368D-01-0.279D-01 0.588D-01 0.493D+00 0.513D+00
 Coeff:     -0.368D-01-0.279D-01 0.588D-01 0.493D+00 0.513D+00
 Gap=     0.247 Goal=   None    Shift=    0.000
 RMSDP=6.21D-08 MaxDP=1.12D-06 DE=-4.34D-11 OVMax= 2.11D-06

 Cycle  12  Pass 1  IDiag  1:
 E= -284.419753184417     Delta-E=       -0.000000000027 Rises=F Damp=F
 DIIS: error= 3.53D-08 at cycle   6 NSaved=   6.
 NSaved= 6 IEnMin= 6 EnMin= -284.419753184417     IErMin= 6 ErrMin= 3.53D-08
 ErrMax= 3.53D-08  0.00D+00 EMaxC= 1.00D-01 BMatC= 4.13D-13 BMatP= 3.29D-11
 IDIUse=1 WtCom= 1.00D+00 WtEn= 0.00D+00
 Coeff-Com: -0.164D-01-0.137D-01 0.215D-02 0.125D+00 0.170D+00 0.733D+00
 Coeff:     -0.164D-01-0.137D-01 0.215D-02 0.125D+00 0.170D+00 0.733D+00
 Gap=     0.247 Goal=   None    Shift=    0.000
 RMSDP=1.07D-08 MaxDP=1.53D-07 DE=-2.73D-11 OVMax= 4.18D-07

 Cycle  13  Pass 1  IDiag  1:
 E= -284.419753184418     Delta-E=       -0.000000000002 Rises=F Damp=F
 DIIS: error= 2.07D-08 at cycle   7 NSaved=   7.
 NSaved= 7 IEnMin= 7 EnMin= -284.419753184418     IErMin= 7 ErrMin= 2.07D-08
 ErrMax= 2.07D-08  0.00D+00 EMaxC= 1.00D-01 BMatC= 5.23D-14 BMatP= 4.13D-13
 IDIUse=1 WtCom= 1.00D+00 WtEn= 0.00D+00
 Coeff-Com: -0.494D-02-0.430D-02-0.230D-02 0.266D-01 0.457D-01 0.324D+00
 Coeff-Com:  0.616D+00
 Coeff:     -0.494D-02-0.430D-02-0.230D-02 0.266D-01 0.457D-01 0.324D+00
 Coeff:      0.616D+00
 Gap=     0.247 Goal=   None    Shift=    0.000
 RMSDP=2.85D-09 MaxDP=6.06D-08 DE=-1.59D-12 OVMax= 6.35D-08

 SCF Done:  E(RB3LYP) =  -284.419753184     A.U. after   13 cycles
            NFock= 13  Conv=0.28D-08     -V/T= 2.0088
 KE= 2.819284397202D+02 PE=-1.025305330552D+03 EE= 2.794275792342D+02
 Leave Link  502 at Fri Mar 14 15:42:14 2025, MaxMem=  8589934592 cpu:               9.5 elap:               0.8
 (Enter /home/enzo/gaussian_versions/gdv.j21/gdv/l701.exe)
 ... and contract with generalized density number  0.
 Compute integral first derivatives.
 Leave Link  701 at Fri Mar 14 15:42:14 2025, MaxMem=  8589934592 cpu:               0.6 elap:               0.1
 (Enter /home/enzo/gaussian_versions/gdv.j21/gdv/l702.exe)
 L702 exits ... SP integral derivatives will be done elsewhere.
 Leave Link  702 at Fri Mar 14 15:42:14 2025, MaxMem=  8589934592 cpu:               0.1 elap:               0.1
 (Enter /home/enzo/gaussian_versions/gdv.j21/gdv/l703.exe)
 Integral derivatives from FoFJK, PRISM(SPDF).
 Compute integral first derivatives, UseDBF=F ICtDFT=           0.
 Calling FoFJK, ICntrl=      2127 FMM=F ISym2X=0 I1Cent= 0 IOpClX= 0 NMat=1 NMatS=1 NMatT=0.
 FoFJK:  IHMeth= 1 ICntrl=    2127 DoSepK=F KAlg= 0 I1Cent=           0 FoldK=F
 IRaf=         0 NMat=       1 IRICut=       1 DoRegI=T DoRafI=F ISym2E= 0 IDoP0=0 IntGTp=1.
 FoFCou: FMM=F IPFlag=           0 FMFlag=      100000 FMFlg1=         800
         NFxFlg=           0 DoJE=F BraDBF=F KetDBF=F FulRan=T
         wScrn=  0.000000 ICntrl=      2127 IOpCl=  0 I1Cent=           0 NGrid=           0
         NMat0=    1 NMatS0=      1 NMatT0=    0 NMatD0=    1 NMtDS0=    0 NMtDT0=    0
 Symmetry not used in FoFCou.
 Leave Link  703 at Fri Mar 14 15:42:14 2025, MaxMem=  8589934592 cpu:               2.9 elap:               0.3
 (Enter /home/enzo/gaussian_versions/gdv.j21/gdv/l716.exe)
 Dipole        =-3.33861914D-02-5.44948547D-01 5.79702984D-01
 ***** Axes restored to original set *****
 -------------------------------------------------------------------
 Center     Atomic                   Forces (Hartrees/Bohr)
 Number     Number              X              Y              Z
 -------------------------------------------------------------------
      1        7          -0.001439691   -0.000383747   -0.000597707
      2        6           0.001531707   -0.001453647    0.000835859
      3        6          -0.000443899    0.000176785   -0.002813471
      4        8          -0.000371504    0.001031699    0.003077400
      5        8           0.000946980   -0.000626829    0.000319844
      6        1          -0.001196136   -0.000247105   -0.000385068
      7        1          -0.001045280   -0.000108884   -0.001875949
      8        1           0.001462237    0.000565117   -0.000432253
      9        1           0.000829382    0.000609278    0.001361959
     10        1          -0.000273797    0.000437332    0.000509385
 -------------------------------------------------------------------
 Cartesian Forces:  Max     0.003077400 RMS     0.001158902
 Leave Link  716 at Fri Mar 14 15:42:14 2025, MaxMem=  8589934592 cpu:               0.1 elap:               0.1
 (Enter /home/enzo/gaussian_versions/gdv.j21/gdv/l103.exe)

 GradGradGradGradGradGradGradGradGradGradGradGradGradGradGradGradGradGrad
 Berny optimization.
 Using GEDIIS/GDIIS optimizer.
 FormGI is forming the generalized inverse of G from B-inverse, IUseBI=4.
 Internal  Forces:  Max     0.004686017 RMS     0.001353350
 Search for a local minimum.
 Step number  16 out of a maximum of   46
 All quantities printed in internal units (Hartrees-Bohrs-Radians)
 RMS Force = .13534D-02 SwitMx=.10000D-02 MixMth= 1
 Mixed Optimization -- RFO/linear search
 Update second derivatives using D2CorX and points   15   16
 DE= -9.16D-04 DEPred=-1.16D-03 R= 7.89D-01
 TightC=F SS=  1.41D+00  RLast= 6.82D-01 DXNew= 3.1345D+00 2.0453D+00
 Trust test= 7.89D-01 RLast= 6.82D-01 DXMaxT set to 2.05D+00
 ITU=  1  1  1  0  1  0  1  1  1  1  1  1  0  1  1  0
 Use linear search instead of GDIIS.
     Eigenvalues ---    0.00013   0.00316   0.02080   0.04266   0.04659
     Eigenvalues ---    0.06323   0.06894   0.08676   0.12496   0.14818
     Eigenvalues ---    0.16382   0.16978   0.17576   0.22482   0.27242
     Eigenvalues ---    0.31566   0.31828   0.32631   0.36710   0.40651
     Eigenvalues ---    0.41854   0.45090   0.49255   0.82903
 RFO step:  Lambda=-7.70385896D-04 EMin= 1.30134694D-04
 Quartic linear search produced a step of  0.06776.
 Iteration  1 RMS(Cart)=  0.10128669 RMS(Int)=  0.03752681
 Iteration  2 RMS(Cart)=  0.04513938 RMS(Int)=  0.00113029
 Iteration  3 RMS(Cart)=  0.00145272 RMS(Int)=  0.00019089
 Iteration  4 RMS(Cart)=  0.00000120 RMS(Int)=  0.00019089
 Iteration  5 RMS(Cart)=  0.00000000 RMS(Int)=  0.00019089
 Variable       Old X    -DE/DX   Delta X   Delta X   Delta X     New X
                                 (Linear)    (Quad)   (Total)
    R1        2.74607   0.00469  -0.00188   0.00503   0.00316   2.74923
    R2        1.92075   0.00090  -0.00027   0.00545   0.00518   1.92593
    R3        1.92304   0.00105  -0.00005   0.00303   0.00299   1.92603
    R4        2.86629  -0.00060  -0.00035  -0.00202  -0.00238   2.86391
    R5        2.06841   0.00002   0.00033  -0.00007   0.00026   2.06867
    R6        2.09341   0.00043  -0.00019   0.01253   0.01234   2.10575
    R7        2.29289  -0.00324   0.00055  -0.01214  -0.01159   2.28130
    R8        2.55241   0.00082  -0.00038   0.01103   0.01065   2.56306
    R9        1.84613  -0.00053   0.00010  -0.00245  -0.00234   1.84379
    A1        1.91068   0.00123  -0.00062   0.01461   0.01362   1.92431
    A2        1.87937   0.00295  -0.00224   0.03852   0.03591   1.91528
    A3        1.87674  -0.00113   0.00014   0.00319   0.00261   1.87935
    A4        1.90182   0.00206   0.00169   0.01009   0.01166   1.91348
    A5        1.93042   0.00001   0.00081   0.00203   0.00291   1.93333
    A6        2.00147   0.00069  -0.00065   0.01839   0.01762   2.01909
    A7        1.92600  -0.00210  -0.00006  -0.01866  -0.01876   1.90725
    A8        1.84005  -0.00079  -0.00157   0.00416   0.00231   1.84236
    A9        1.86167  -0.00009  -0.00033  -0.01775  -0.01814   1.84353
   A10        2.17056   0.00055   0.00175  -0.01841  -0.01682   2.15374
   A11        1.96445  -0.00087  -0.00161   0.01790   0.01612   1.98056
   A12        2.14753   0.00030  -0.00013  -0.00063  -0.00093   2.14660
   A13        1.84849   0.00083   0.00006   0.00847   0.00852   1.85701
    D1        2.85819   0.00103  -0.01363  -0.06568  -0.07904   2.77915
    D2       -1.30489  -0.00023  -0.01215  -0.08100  -0.09292  -1.39781
    D3        0.80099   0.00015  -0.01243  -0.08966  -0.10199   0.69901
    D4        0.82284   0.00009  -0.01215  -0.09865  -0.11093   0.71191
    D5        2.94294  -0.00118  -0.01067  -0.11397  -0.12481   2.81813
    D6       -1.23436  -0.00080  -0.01095  -0.12263  -0.13388  -1.36823
    D7       -0.50590  -0.00061   0.01534   0.24643   0.26179  -0.24412
    D8        2.67339  -0.00009   0.01523   0.27967   0.29482   2.96821
    D9       -2.62869  -0.00063   0.01332   0.24918   0.26262  -2.36607
   D10        0.55060  -0.00010   0.01321   0.28242   0.29565   0.84625
   D11        1.65060   0.00089   0.01460   0.27655   0.29116   1.94177
   D12       -1.45329   0.00142   0.01449   0.30979   0.32420  -1.12910
   D13        3.07890  -0.00008  -0.00047  -0.01652  -0.01712   3.06178
   D14       -0.02557   0.00043  -0.00063   0.01666   0.01616  -0.00941
         Item               Value     Threshold  Converged?
 Maximum Force            0.004686     0.000450     NO 
 RMS     Force            0.001353     0.000300     NO 
 Maximum Displacement     0.429224     0.001800     NO 
 RMS     Displacement     0.142430     0.001200     NO 
 Predicted change in Energy=-6.040077D-04
 Lowest energy point so far.  Saving SCF results.
 GradGradGradGradGradGradGradGradGradGradGradGradGradGradGradGradGradGrad

 Leave Link  103 at Fri Mar 14 15:42:14 2025, MaxMem=  8589934592 cpu:               0.1 elap:               0.1
 (Enter /home/enzo/gaussian_versions/gdv.j21/gdv/l202.exe)
                          Input orientation:                          
 ---------------------------------------------------------------------
 Center     Atomic      Atomic             Coordinates (Angstroms)
 Number     Number       Type             X           Y           Z
 ---------------------------------------------------------------------
      1          7           0       -2.034167   -0.140753   -0.396255
      2          6           0       -0.963680    0.087928    0.562024
      3          6           0        0.361846    0.178073   -0.167117
      4          8           0        0.513918   -0.165415   -1.314398
      5          8           0        1.383249    0.600661    0.618851
      6          1           0       -2.847987   -0.537320    0.071843
      7          1           0       -1.727224   -0.808626   -1.102314
      8          1           0       -1.133178    1.014591    1.119625
      9          1           0       -0.827607   -0.705432    1.332584
     10          1           0        2.190210    0.550014    0.072750
 ---------------------------------------------------------------------
                    Distance matrix (angstroms):
                    1          2          3          4          5
     1  N    0.000000
     2  C    1.454831   0.000000
     3  C    2.427969   1.515517   0.000000
     4  O    2.708566   2.401757   1.207214   0.000000
     5  O    3.641272   2.402957   1.356314   2.253899   0.000000
     6  H    1.019159   2.044951   3.297259   3.655460   4.415606
     7  H    1.019209   2.038830   2.492465   2.341242   3.824073
     8  H    2.108197   1.094693   2.142559   3.166987   2.598945
     9  H    2.182552   1.114315   2.108194   3.016260   2.665179
    10  H    4.306098   3.224893   1.881167   2.290409   0.975693
                    6          7          8          9         10
     6  H    0.000000
     7  H    1.645710   0.000000
     8  H    2.539064   2.934966   0.000000
     9  H    2.387397   2.597824   1.759887   0.000000
    10  H    5.154195   4.309636   3.515207   3.502934   0.000000
 Stoichiometry    C2H5NO2
 Framework group  C1[X(C2H5NO2)]
 Deg. of freedom    24
 Full point group                 C1      NOp   1
 RotChk:  IX=0 Diff= 1.99D-01
 Largest Abelian subgroup         C1      NOp   1
 Largest concise Abelian subgroup C1      NOp   1
                         Standard orientation:                         
 ---------------------------------------------------------------------
 Center     Atomic      Atomic             Coordinates (Angstroms)
 Number     Number       Type             X           Y           Z
 ---------------------------------------------------------------------
      1          7           0        1.884508    0.112880   -0.157655
      2          6           0        0.725341   -0.738620    0.061010
      3          6           0       -0.539031    0.093713   -0.012321
      4          8           0       -0.543199    1.300431    0.022041
      5          8           0       -1.674092   -0.648451   -0.032748
      6          1           0        2.722931   -0.329596    0.216440
      7          1           0        1.757934    0.998615    0.330441
      8          1           0        0.679459   -1.532628   -0.691186
      9          1           0        0.685545   -1.256462    1.046888
     10          1           0       -2.416955   -0.016480   -0.005480
 ---------------------------------------------------------------------
 Rotational constants (GHZ):          10.5862403           3.9327803           2.9387021
 Leave Link  202 at Fri Mar 14 15:42:14 2025, MaxMem=  8589934592 cpu:               0.1 elap:               0.1
 (Enter /home/enzo/gaussian_versions/gdv.j21/gdv/l301.exe)
 Standard basis: 6-31G(d) (6D, 7F)
 Ernie: Thresh=  0.10000D-02 Tol=  0.10000D-05 Strict=F.
 There are    85 symmetry adapted cartesian basis functions of A   symmetry.
 There are    85 symmetry adapted basis functions of A   symmetry.
    85 basis functions,   160 primitive gaussians,    85 cartesian basis functions
    20 alpha electrons       20 beta electrons
       nuclear repulsion energy       179.5015167500 Hartrees.
 IExCor=      4002 DFT=T Ex+Corr=B3LYP ScaHFX=  0.200000
 ScaDFX=  0.800000  0.720000  1.000000  0.810000  1.000000  0.000000
 ScaDFX=  0.000000  0.000000  0.000000  0.000000  0.000000  0.000000
 IRadAn=      5 IRanWt=     -1 IRanGd=            0 ICorTp=0 IEmpDi=  4
 NAtoms=   10 NActive=   10 NUniq=   10 SFac= 1.00D+00 NAtFMM=   60 NAOKFM=F Big=F
 Integral buffers will be    131072 words long.
 Raffenetti 2 integral format.
 Two-electron integral symmetry is turned on.
 Leave Link  301 at Fri Mar 14 15:42:14 2025, MaxMem=  8589934592 cpu:               0.3 elap:               0.1
 (Enter /home/enzo/gaussian_versions/gdv.j21/gdv/l302.exe)
 NPDir=0 NMtPBC=     1 NCelOv=     1 NCel=       1 NClECP=     1 NCelD=      1
         NCelK=      1 NCelE2=     1 NClLst=     1 CellRange=     0.0.
 One-electron integrals computed using PRISM.
 One-electron integral symmetry used in STVInt
 NBasis=    85 RedAO= T EigKep=  4.06D-03  NBF=    85
 NBsUse=    85 1.00D-06 EigRej= -1.00D+00 NBFU=    85
 Precomputing XC quadrature grid using
 IXCGrd= 4 IRadAn=           5 IRanWt=          -1 IRanGd=           0 AccXCQ= 0.00D+00.
 Generated NRdTot=       0 NPtTot=      219404 NUsed=           0 NTot=          64
 NSgBfM=    85    85    85    85    85 MxSgAt=    10 MxSgA2=    10 SizInc=   0.000
 NMBTot=     1931 MaxBatPerAtom=       84 MaxMicBPerAtom=      201 NBfPt=            15881671.
 Leave Link  302 at Fri Mar 14 15:42:15 2025, MaxMem=  8589934592 cpu:               1.0 elap:               0.1
 (Enter /home/enzo/gaussian_versions/gdv.j21/gdv/l303.exe)
 DipDrv:  MaxL=1.
 Leave Link  303 at Fri Mar 14 15:42:15 2025, MaxMem=  8589934592 cpu:               0.2 elap:               0.1
 (Enter /home/enzo/gaussian_versions/gdv.j21/gdv/l401.exe)
 Initial guess from the checkpoint file:  "/local/home/enzo/scratch/Gau-2409754.chk"
 B after Tr=     0.000000   -0.000000   -0.000000
         Rot=    0.999783   -0.017324    0.001492    0.011480 Ang=  -2.39 deg.
 AO Guess basis will be translated and rotated to current coordinates.
 JPrj=2 DoOrth=T DoCkMO=T.
 Generating alternative initial guess.
 ExpMin= 1.61D-01 ExpMax= 5.48D+03 ExpMxC= 8.25D+02 IAcc=3 IRadAn=         5 AccDes= 0.00D+00
 Harris functional with IExCor= 4002 and IRadAn=       5 diagonalized for initial guess.
 HarFok:  IExCor=    4002 AccDes= 0.00D+00 IRadAn=         5 IDoV= 1 UseB2=F ITyADJ=14 ICtDFT=  3500011
 FoFCou: FMM=F IPFlag=           0 FMFlag=      100000 FMFlg1=           0
         NFxFlg=           0 DoJE=T BraDBF=F KetDBF=T FulRan=T
         wScrn=  0.000000 ICntrl=       500 IOpCl=  0 I1Cent=   200000004 NGrid=           0
         NMat0=    1 NMatS0=      1 NMatT0=    0 NMatD0=    1 NMtDS0=    0 NMtDT0=    0
 Petite list used in FoFCou.
 Harris En= -284.439642295583    
 Leave Link  401 at Fri Mar 14 15:42:15 2025, MaxMem=  8589934592 cpu:               1.8 elap:               0.2
 (Enter /home/enzo/gaussian_versions/gdv.j21/gdv/l502.exe)
 Keep R1 ints in memory in canonical form, NReq=17617987.
 FoFCou: FMM=F IPFlag=           0 FMFlag=           0 FMFlg1=           0
         NFxFlg=           0 DoJE=F BraDBF=F KetDBF=F FulRan=T
         wScrn=  0.000000 ICntrl=       600 IOpCl=  0 I1Cent=           0 NGrid=           0
         NMat0=    1 NMatS0=   3655 NMatT0=    0 NMatD0=    1 NMtDS0=    0 NMtDT0=    0
 Symmetry not used in FoFCou.
 Two-electron integral symmetry not used.
 Closed shell SCF:
 Using DIIS extrapolation, IDIIS=  1040.
 NGot=  8589934592 LenX=  8583230350 LenY=  8583222684
 Requested convergence on RMS density matrix=1.00D-08 within 128 cycles.
 Requested convergence on MAX density matrix=1.00D-06.
 Requested convergence on             energy=1.00D-06.
 No special actions if energy rises.
 Integral accuracy reduced to 1.0D-05 until final iterations.

 Cycle   1  Pass 0  IDiag  1:
 E= -284.394308096353    
 DIIS: error= 1.09D-02 at cycle   1 NSaved=   1.
 NSaved= 1 IEnMin= 1 EnMin= -284.394308096353     IErMin= 1 ErrMin= 1.09D-02
 ErrMax= 1.09D-02  0.00D+00 EMaxC= 1.00D-01 BMatC= 1.23D-02 BMatP= 1.23D-02
 IDIUse=3 WtCom= 8.91D-01 WtEn= 1.09D-01
 Coeff-Com:  0.100D+01
 Coeff-En:   0.100D+01
 Coeff:      0.100D+01
 Recover alternate guess density for next cycle.
 RMSDP=4.95D-03 MaxDP=7.91D-02              OVMax= 0.00D+00

 Cycle   2  Pass 0  IDiag  1:
 E= -284.254358837724     Delta-E=        0.139949258629 Rises=F Damp=F
 Switch densities from cycles 1 and 2 for lowest energy.
 DIIS: error= 3.86D-02 at cycle   2 NSaved=   2.
 NSaved= 2 IEnMin= 1 EnMin= -284.394308096353     IErMin= 1 ErrMin= 1.09D-02
 ErrMax= 3.86D-02  0.00D+00 EMaxC= 1.00D+00 BMatC= 2.07D-01 BMatP= 1.23D-02
 IDIUse=1 WtCom= 1.00D+00 WtEn= 0.00D+00
 Coeff-Com:  0.949D+00 0.507D-01
 Coeff:      0.949D+00 0.507D-01
 Gap=     0.234 Goal=   None    Shift=    0.000
 RMSDP=2.38D-03 MaxDP=2.60D-02 DE= 1.40D-01 OVMax= 8.55D-02

 Cycle   3  Pass 0  IDiag  1:
 E= -284.418022879295     Delta-E=       -0.163664041571 Rises=F Damp=F
 DIIS: error= 3.46D-03 at cycle   3 NSaved=   3.
 NSaved= 3 IEnMin= 3 EnMin= -284.418022879295     IErMin= 3 ErrMin= 3.46D-03
 ErrMax= 3.46D-03  0.00D+00 EMaxC= 1.00D+00 BMatC= 1.60D-03 BMatP= 1.23D-02
 IDIUse=1 WtCom= 1.00D+00 WtEn= 0.00D+00
 Coeff-Com: -0.567D-01 0.789D-01 0.978D+00
 Coeff:     -0.567D-01 0.789D-01 0.978D+00
 Gap=     0.248 Goal=   None    Shift=    0.000
 RMSDP=4.71D-04 MaxDP=8.09D-03 DE=-1.64D-01 OVMax= 9.74D-03

 Cycle   4  Pass 0  IDiag  1:
 E= -284.419258476524     Delta-E=       -0.001235597229 Rises=F Damp=F
 DIIS: error= 1.61D-03 at cycle   4 NSaved=   4.
 NSaved= 4 IEnMin= 4 EnMin= -284.419258476524     IErMin= 4 ErrMin= 1.61D-03
 ErrMax= 1.61D-03  0.00D+00 EMaxC= 1.00D+00 BMatC= 1.73D-04 BMatP= 1.60D-03
 IDIUse=1 WtCom= 1.00D+00 WtEn= 0.00D+00
 Coeff-Com: -0.328D-01 0.293D-01 0.439D+00 0.564D+00
 Coeff:     -0.328D-01 0.293D-01 0.439D+00 0.564D+00
 Gap=     0.246 Goal=   None    Shift=    0.000
 RMSDP=1.70D-04 MaxDP=3.45D-03 DE=-1.24D-03 OVMax= 5.59D-03

 Cycle   5  Pass 0  IDiag  1:
 E= -284.419367438535     Delta-E=       -0.000108962011 Rises=F Damp=F
 DIIS: error= 5.68D-04 at cycle   5 NSaved=   5.
 NSaved= 5 IEnMin= 5 EnMin= -284.419367438535     IErMin= 5 ErrMin= 5.68D-04
 ErrMax= 5.68D-04  0.00D+00 EMaxC= 1.00D+00 BMatC= 4.73D-05 BMatP= 1.73D-04
 IDIUse=1 WtCom= 1.00D+00 WtEn= 0.00D+00
 Coeff-Com: -0.116D-01 0.737D-02 0.128D+00 0.360D+00 0.516D+00
 Coeff:     -0.116D-01 0.737D-02 0.128D+00 0.360D+00 0.516D+00
 Gap=     0.245 Goal=   None    Shift=    0.000
 RMSDP=7.18D-05 MaxDP=1.54D-03 DE=-1.09D-04 OVMax= 2.68D-03

 Cycle   6  Pass 0  IDiag  1:
 E= -284.419401075546     Delta-E=       -0.000033637012 Rises=F Damp=F
 DIIS: error= 1.92D-04 at cycle   6 NSaved=   6.
 NSaved= 6 IEnMin= 6 EnMin= -284.419401075546     IErMin= 6 ErrMin= 1.92D-04
 ErrMax= 1.92D-04  0.00D+00 EMaxC= 1.00D+00 BMatC= 4.09D-06 BMatP= 4.73D-05
 IDIUse=1 WtCom= 1.00D+00 WtEn= 0.00D+00
 Coeff-Com: -0.254D-02 0.963D-03 0.254D-01 0.147D+00 0.297D+00 0.532D+00
 Coeff:     -0.254D-02 0.963D-03 0.254D-01 0.147D+00 0.297D+00 0.532D+00
 Gap=     0.246 Goal=   None    Shift=    0.000
 RMSDP=2.25D-05 MaxDP=3.50D-04 DE=-3.36D-05 OVMax= 7.10D-04

 Cycle   7  Pass 0  IDiag  1:
 E= -284.419404305406     Delta-E=       -0.000003229860 Rises=F Damp=F
 DIIS: error= 3.35D-05 at cycle   7 NSaved=   7.
 NSaved= 7 IEnMin= 7 EnMin= -284.419404305406     IErMin= 7 ErrMin= 3.35D-05
 ErrMax= 3.35D-05  0.00D+00 EMaxC= 1.00D+00 BMatC= 1.79D-07 BMatP= 4.09D-06
 IDIUse=1 WtCom= 1.00D+00 WtEn= 0.00D+00
 Coeff-Com: -0.455D-03-0.140D-03 0.168D-02 0.429D-01 0.988D-01 0.248D+00
 Coeff-Com:  0.609D+00
 Coeff:     -0.455D-03-0.140D-03 0.168D-02 0.429D-01 0.988D-01 0.248D+00
 Coeff:      0.609D+00
 Gap=     0.246 Goal=   None    Shift=    0.000
 RMSDP=5.18D-06 MaxDP=8.86D-05 DE=-3.23D-06 OVMax= 1.20D-04

 Initial convergence to 1.0D-05 achieved.  Increase integral accuracy.
 Cycle   8  Pass 1  IDiag  1:
 E= -284.419408361707     Delta-E=       -0.000004056301 Rises=F Damp=F
 DIIS: error= 1.19D-05 at cycle   1 NSaved=   1.
 NSaved= 1 IEnMin= 1 EnMin= -284.419408361707     IErMin= 1 ErrMin= 1.19D-05
 ErrMax= 1.19D-05  0.00D+00 EMaxC= 1.00D+00 BMatC= 2.29D-08 BMatP= 2.29D-08
 IDIUse=1 WtCom= 1.00D+00 WtEn= 0.00D+00
 Coeff-Com:  0.100D+01
 Coeff:      0.100D+01
 Gap=     0.246 Goal=   None    Shift=    0.000
 RMSDP=5.18D-06 MaxDP=8.86D-05 DE=-4.06D-06 OVMax= 7.72D-05

 Cycle   9  Pass 1  IDiag  1:
 E= -284.419408346545     Delta-E=        0.000000015162 Rises=F Damp=F
 DIIS: error= 1.73D-05 at cycle   2 NSaved=   2.
 NSaved= 2 IEnMin= 1 EnMin= -284.419408361707     IErMin= 1 ErrMin= 1.19D-05
 ErrMax= 1.73D-05  0.00D+00 EMaxC= 1.00D+00 BMatC= 4.71D-08 BMatP= 2.29D-08
 IDIUse=1 WtCom= 1.00D+00 WtEn= 0.00D+00
 Coeff-Com:  0.591D+00 0.409D+00
 Coeff:      0.591D+00 0.409D+00
 Gap=     0.246 Goal=   None    Shift=    0.000
 RMSDP=1.97D-06 MaxDP=3.99D-05 DE= 1.52D-08 OVMax= 3.59D-05

 Cycle  10  Pass 1  IDiag  1:
 E= -284.419408382707     Delta-E=       -0.000000036162 Rises=F Damp=F
 DIIS: error= 1.50D-06 at cycle   3 NSaved=   3.
 NSaved= 3 IEnMin= 3 EnMin= -284.419408382707     IErMin= 3 ErrMin= 1.50D-06
 ErrMax= 1.50D-06  0.00D+00 EMaxC= 1.00D+00 BMatC= 3.47D-10 BMatP= 2.29D-08
 IDIUse=1 WtCom= 1.00D+00 WtEn= 0.00D+00
 Coeff-Com:  0.224D+00 0.169D+00 0.607D+00
 Coeff:      0.224D+00 0.169D+00 0.607D+00
 Gap=     0.246 Goal=   None    Shift=    0.000
 RMSDP=2.67D-07 MaxDP=4.08D-06 DE=-3.62D-08 OVMax= 7.29D-06

 Cycle  11  Pass 1  IDiag  1:
 E= -284.419408382986     Delta-E=       -0.000000000279 Rises=F Damp=F
 DIIS: error= 8.45D-07 at cycle   4 NSaved=   4.
 NSaved= 4 IEnMin= 4 EnMin= -284.419408382986     IErMin= 4 ErrMin= 8.45D-07
 ErrMax= 8.45D-07  0.00D+00 EMaxC= 1.00D+00 BMatC= 8.15D-11 BMatP= 3.47D-10
 IDIUse=1 WtCom= 1.00D+00 WtEn= 0.00D+00
 Coeff-Com: -0.102D-01-0.156D-02 0.313D+00 0.699D+00
 Coeff:     -0.102D-01-0.156D-02 0.313D+00 0.699D+00
 Gap=     0.246 Goal=   None    Shift=    0.000
 RMSDP=1.42D-07 MaxDP=2.13D-06 DE=-2.79D-10 OVMax= 5.59D-06

 Cycle  12  Pass 1  IDiag  1:
 E= -284.419408383048     Delta-E=       -0.000000000061 Rises=F Damp=F
 DIIS: error= 5.58D-07 at cycle   5 NSaved=   5.
 NSaved= 5 IEnMin= 5 EnMin= -284.419408383048     IErMin= 5 ErrMin= 5.58D-07
 ErrMax= 5.58D-07  0.00D+00 EMaxC= 1.00D+00 BMatC= 2.98D-11 BMatP= 8.15D-11
 IDIUse=1 WtCom= 1.00D+00 WtEn= 0.00D+00
 Coeff-Com: -0.351D-01-0.226D-01 0.133D+00 0.469D+00 0.456D+00
 Coeff:     -0.351D-01-0.226D-01 0.133D+00 0.469D+00 0.456D+00
 Gap=     0.246 Goal=   None    Shift=    0.000
 RMSDP=5.69D-08 MaxDP=1.36D-06 DE=-6.10D-11 OVMax= 2.10D-06

 Cycle  13  Pass 1  IDiag  1:
 E= -284.419408383070     Delta-E=       -0.000000000023 Rises=F Damp=F
 DIIS: error= 1.29D-07 at cycle   6 NSaved=   6.
 NSaved= 6 IEnMin= 6 EnMin= -284.419408383070     IErMin= 6 ErrMin= 1.29D-07
 ErrMax= 1.29D-07  0.00D+00 EMaxC= 1.00D+00 BMatC= 1.79D-12 BMatP= 2.98D-11
 IDIUse=1 WtCom= 1.00D+00 WtEn= 0.00D+00
 Coeff-Com: -0.179D-01-0.122D-01 0.256D-01 0.150D+00 0.244D+00 0.610D+00
 Coeff:     -0.179D-01-0.122D-01 0.256D-01 0.150D+00 0.244D+00 0.610D+00
 Gap=     0.246 Goal=   None    Shift=    0.000
 RMSDP=1.60D-08 MaxDP=3.04D-07 DE=-2.26D-11 OVMax= 5.42D-07

 Cycle  14  Pass 1  IDiag  1:
 E= -284.419408383072     Delta-E=       -0.000000000002 Rises=F Damp=F
 DIIS: error= 3.53D-08 at cycle   7 NSaved=   7.
 NSaved= 7 IEnMin= 7 EnMin= -284.419408383072     IErMin= 7 ErrMin= 3.53D-08
 ErrMax= 3.53D-08  0.00D+00 EMaxC= 1.00D+00 BMatC= 1.78D-13 BMatP= 1.79D-12
 IDIUse=1 WtCom= 1.00D+00 WtEn= 0.00D+00
 Coeff-Com: -0.609D-02-0.422D-02 0.791D-03 0.360D-01 0.845D-01 0.321D+00
 Coeff-Com:  0.568D+00
 Coeff:     -0.609D-02-0.422D-02 0.791D-03 0.360D-01 0.845D-01 0.321D+00
 Coeff:      0.568D+00
 Gap=     0.246 Goal=   None    Shift=    0.000
 RMSDP=4.65D-09 MaxDP=9.35D-08 DE=-1.71D-12 OVMax= 1.12D-07

 SCF Done:  E(RB3LYP) =  -284.419408383     A.U. after   14 cycles
            NFock= 14  Conv=0.46D-08     -V/T= 2.0089
 KE= 2.819082680543D+02 PE=-1.025253897652D+03 EE= 2.794247044641D+02
 Leave Link  502 at Fri Mar 14 15:42:16 2025, MaxMem=  8589934592 cpu:               8.7 elap:               0.8
 (Enter /home/enzo/gaussian_versions/gdv.j21/gdv/l701.exe)
 ... and contract with generalized density number  0.
 Compute integral first derivatives.
 Leave Link  701 at Fri Mar 14 15:42:16 2025, MaxMem=  8589934592 cpu:               0.7 elap:               0.1
 (Enter /home/enzo/gaussian_versions/gdv.j21/gdv/l702.exe)
 L702 exits ... SP integral derivatives will be done elsewhere.
 Leave Link  702 at Fri Mar 14 15:42:16 2025, MaxMem=  8589934592 cpu:               0.1 elap:               0.1
 (Enter /home/enzo/gaussian_versions/gdv.j21/gdv/l703.exe)
 Integral derivatives from FoFJK, PRISM(SPDF).
 Compute integral first derivatives, UseDBF=F ICtDFT=           0.
 Calling FoFJK, ICntrl=      2127 FMM=F ISym2X=0 I1Cent= 0 IOpClX= 0 NMat=1 NMatS=1 NMatT=0.
 FoFJK:  IHMeth= 1 ICntrl=    2127 DoSepK=F KAlg= 0 I1Cent=           0 FoldK=F
 IRaf=         0 NMat=       1 IRICut=       1 DoRegI=T DoRafI=F ISym2E= 0 IDoP0=0 IntGTp=1.
 FoFCou: FMM=F IPFlag=           0 FMFlag=      100000 FMFlg1=         800
         NFxFlg=           0 DoJE=F BraDBF=F KetDBF=F FulRan=T
         wScrn=  0.000000 ICntrl=      2127 IOpCl=  0 I1Cent=           0 NGrid=           0
         NMat0=    1 NMatS0=      1 NMatT0=    0 NMatD0=    1 NMtDS0=    0 NMtDT0=    0
 Symmetry not used in FoFCou.
 Leave Link  703 at Fri Mar 14 15:42:16 2025, MaxMem=  8589934592 cpu:               3.1 elap:               0.3
 (Enter /home/enzo/gaussian_versions/gdv.j21/gdv/l716.exe)
 Dipole        =-1.11181004D-01-5.83451114D-01 5.81357849D-01
 ***** Axes restored to original set *****
 -------------------------------------------------------------------
 Center     Atomic                   Forces (Hartrees/Bohr)
 Number     Number              X              Y              Z
 -------------------------------------------------------------------
      1        7          -0.003004142   -0.000661498    0.001166874
      2        6           0.002450666   -0.003944639    0.004103301
      3        6          -0.000103784   -0.002533928    0.002699649
      4        8           0.003933180   -0.000845494   -0.006795829
      5        8          -0.004455501    0.000706765    0.001359559
      6        1           0.001763038    0.001256702   -0.000636467
      7        1           0.000945974    0.001461349    0.001360489
      8        1          -0.000126603    0.001605476    0.000360064
      9        1          -0.000490135    0.002660016   -0.002886558
     10        1          -0.000912692    0.000295251   -0.000731082
 -------------------------------------------------------------------
 Cartesian Forces:  Max     0.006795829 RMS     0.002431147
 Leave Link  716 at Fri Mar 14 15:42:16 2025, MaxMem=  8589934592 cpu:               0.1 elap:               0.1
 (Enter /home/enzo/gaussian_versions/gdv.j21/gdv/l103.exe)

 GradGradGradGradGradGradGradGradGradGradGradGradGradGradGradGradGradGrad
 Berny optimization.
 Using GEDIIS/GDIIS optimizer.
 FormGI is forming the generalized inverse of G from B-inverse, IUseBI=4.
 Internal  Forces:  Max     0.007939271 RMS     0.002563988
 Search for a local minimum.
 Step number  17 out of a maximum of   46
 All quantities printed in internal units (Hartrees-Bohrs-Radians)
 RMS Force = .25640D-02 SwitMx=.10000D-02 MixMth= 1
 Mixed Optimization -- RFO/linear search
 Update second derivatives using D2CorX and points   17   16
 DE=  3.45D-04 DEPred=-6.04D-04 R=-5.71D-01
 Trust test=-5.71D-01 RLast= 7.60D-01 DXMaxT set to 1.02D+00
 ITU= -1  1  1  1  0  1  0  1  1  1  1  1  1  0  1  1  0
 Use linear search instead of GDIIS.
     Eigenvalues ---    0.00164   0.00342   0.02076   0.02525   0.04594
     Eigenvalues ---    0.05249   0.06647   0.08408   0.13418   0.14900
     Eigenvalues ---    0.16286   0.17071   0.18726   0.23808   0.27217
     Eigenvalues ---    0.28805   0.31767   0.32648   0.33891   0.40655
     Eigenvalues ---    0.41721   0.44694   0.50091   0.84088
 RFO step:  Lambda=-6.38262971D-04 EMin= 1.63502321D-03
 Quartic linear search produced a step of -0.64944.
 Iteration  1 RMS(Cart)=  0.11240851 RMS(Int)=  0.01056048
 Iteration  2 RMS(Cart)=  0.01434384 RMS(Int)=  0.00015191
 Iteration  3 RMS(Cart)=  0.00014599 RMS(Int)=  0.00011106
 Iteration  4 RMS(Cart)=  0.00000001 RMS(Int)=  0.00011106
 Variable       Old X    -DE/DX   Delta X   Delta X   Delta X     New X
                                 (Linear)    (Quad)   (Total)
    R1        2.74923  -0.00135  -0.00205   0.01105   0.00900   2.75823
    R2        1.92593  -0.00219  -0.00337  -0.00073  -0.00410   1.92183
    R3        1.92603  -0.00162  -0.00194   0.00214   0.00020   1.92623
    R4        2.86391   0.00018   0.00154  -0.00128   0.00027   2.86418
    R5        2.06867   0.00156  -0.00017   0.00360   0.00344   2.07211
    R6        2.10575  -0.00395  -0.00801  -0.00354  -0.01155   2.09420
    R7        2.28130   0.00719   0.00753  -0.00432   0.00321   2.28451
    R8        2.56306  -0.00337  -0.00692   0.00281  -0.00411   2.55895
    R9        1.84379  -0.00036   0.00152  -0.00062   0.00090   1.84469
    A1        1.92431  -0.00010  -0.00885   0.02091   0.01218   1.93648
    A2        1.91528  -0.00205  -0.02332   0.03466   0.01145   1.92673
    A3        1.87935   0.00112  -0.00169   0.00836   0.00688   1.88623
    A4        1.91348   0.00202  -0.00757   0.03147   0.02393   1.93741
    A5        1.93333  -0.00117  -0.00189  -0.00041  -0.00216   1.93117
    A6        2.01909   0.00004  -0.01144   0.02754   0.01611   2.03520
    A7        1.90725  -0.00085   0.01218  -0.04989  -0.03772   1.86952
    A8        1.84236  -0.00063  -0.00150  -0.00997  -0.01168   1.83069
    A9        1.84353   0.00049   0.01178  -0.00518   0.00630   1.84983
   A10        2.15374   0.00769   0.01093   0.03083   0.04186   2.19560
   A11        1.98056  -0.00794  -0.01047  -0.03259  -0.04295   1.93761
   A12        2.14660   0.00034   0.00060   0.00033   0.00105   2.14765
   A13        1.85701  -0.00176  -0.00554   0.00500  -0.00054   1.85647
    D1        2.77915   0.00036   0.05133   0.03006   0.08140   2.86055
    D2       -1.39781  -0.00013   0.06035  -0.01183   0.04844  -1.34937
    D3        0.69901  -0.00036   0.06623   0.00077   0.06689   0.76590
    D4        0.71191   0.00031   0.07204  -0.01419   0.05798   0.76989
    D5        2.81813  -0.00018   0.08106  -0.05608   0.02502   2.84315
    D6       -1.36823  -0.00041   0.08695  -0.04348   0.04347  -1.32476
    D7       -0.24412  -0.00038  -0.17002  -0.06259  -0.23265  -0.47677
    D8        2.96821  -0.00179  -0.19147  -0.04026  -0.23170   2.73651
    D9       -2.36607   0.00033  -0.17056  -0.05029  -0.22071  -2.58679
   D10        0.84625  -0.00108  -0.19201  -0.02797  -0.21976   0.62649
   D11        1.94177   0.00047  -0.18909  -0.01676  -0.20606   1.73571
   D12       -1.12910  -0.00094  -0.21055   0.00557  -0.20510  -1.33420
   D13        3.06178   0.00144   0.01112   0.00365   0.01489   3.07667
   D14       -0.00941  -0.00031  -0.01049   0.02446   0.01385   0.00444
         Item               Value     Threshold  Converged?
 Maximum Force            0.007939     0.000450     NO 
 RMS     Force            0.002564     0.000300     NO 
 Maximum Displacement     0.346145     0.001800     NO 
 RMS     Displacement     0.122941     0.001200     NO 
 Predicted change in Energy=-4.770272D-04
 GradGradGradGradGradGradGradGradGradGradGradGradGradGradGradGradGradGrad

 Leave Link  103 at Fri Mar 14 15:42:16 2025, MaxMem=  8589934592 cpu:               0.1 elap:               0.0
 (Enter /home/enzo/gaussian_versions/gdv.j21/gdv/l202.exe)
                          Input orientation:                          
 ---------------------------------------------------------------------
 Center     Atomic      Atomic             Coordinates (Angstroms)
 Number     Number       Type             X           Y           Z
 ---------------------------------------------------------------------
      1          7           0       -2.049979   -0.098815   -0.389822
      2          6           0       -0.943248    0.028609    0.553217
      3          6           0        0.383114    0.118885   -0.174678
      4          8           0        0.625840   -0.348587   -1.262806
      5          8           0        1.318438    0.725915    0.593684
      6          1           0       -2.892735   -0.420482    0.079817
      7          1           0       -1.818707   -0.771238   -1.120139
      8          1           0       -1.046868    0.942808    1.149740
      9          1           0       -0.813298   -0.797352    1.280549
     10          1           0        2.152823    0.693979    0.088031
 ---------------------------------------------------------------------
                    Distance matrix (angstroms):
                    1          2          3          4          5
     1  N    0.000000
     2  C    1.459593   0.000000
     3  C    2.452269   1.515657   0.000000
     4  O    2.825685   2.429455   1.208912   0.000000
     5  O    3.604677   2.367085   1.354140   2.254064   0.000000
     6  H    1.016989   2.055795   3.329696   3.766719   4.394572
     7  H    1.019315   2.050927   2.556215   2.484914   3.875607
     8  H    2.112217   1.096511   2.116077   3.207185   2.439449
     9  H    2.192595   1.108202   2.094894   2.956547   2.708583
    10  H    4.303534   3.200744   1.879260   2.289844   0.976167
                    6          7          8          9         10
     6  H    0.000000
     7  H    1.648168   0.000000
     8  H    2.531900   2.947208   0.000000
     9  H    2.430606   2.602851   1.760631   0.000000
    10  H    5.167179   4.402225   3.380408   3.527611   0.000000
 Stoichiometry    C2H5NO2
 Framework group  C1[X(C2H5NO2)]
 Deg. of freedom    24
 Full point group                 C1      NOp   1
 RotChk:  IX=0 Diff= 1.58D-01
 Largest Abelian subgroup         C1      NOp   1
 Largest concise Abelian subgroup C1      NOp   1
                         Standard orientation:                         
 ---------------------------------------------------------------------
 Center     Atomic      Atomic             Coordinates (Angstroms)
 Number     Number       Type             X           Y           Z
 ---------------------------------------------------------------------
      1          7           0        1.896485    0.098830   -0.239399
      2          6           0        0.737470   -0.687759    0.170935
      3          6           0       -0.542508    0.108878    0.015235
      4          8           0       -0.636633    1.313033    0.066419
      5          8           0       -1.613413   -0.711188   -0.104552
      6          1           0        2.758565   -0.317744    0.103457
      7          1           0        1.832965    1.045658    0.132736
      8          1           0        0.637781   -1.583866   -0.453076
      9          1           0        0.725495   -1.043706    1.220350
     10          1           0       -2.399608   -0.133633   -0.139628
 ---------------------------------------------------------------------
 Rotational constants (GHZ):          10.2011175           3.9079159           2.9277973
 Leave Link  202 at Fri Mar 14 15:42:17 2025, MaxMem=  8589934592 cpu:               0.1 elap:               0.1
 (Enter /home/enzo/gaussian_versions/gdv.j21/gdv/l301.exe)
 Standard basis: 6-31G(d) (6D, 7F)
 Ernie: Thresh=  0.10000D-02 Tol=  0.10000D-05 Strict=F.
 There are    85 symmetry adapted cartesian basis functions of A   symmetry.
 There are    85 symmetry adapted basis functions of A   symmetry.
    85 basis functions,   160 primitive gaussians,    85 cartesian basis functions
    20 alpha electrons       20 beta electrons
       nuclear repulsion energy       178.9535005980 Hartrees.
 IExCor=      4002 DFT=T Ex+Corr=B3LYP ScaHFX=  0.200000
 ScaDFX=  0.800000  0.720000  1.000000  0.810000  1.000000  0.000000
 ScaDFX=  0.000000  0.000000  0.000000  0.000000  0.000000  0.000000
 IRadAn=      5 IRanWt=     -1 IRanGd=            0 ICorTp=0 IEmpDi=  4
 NAtoms=   10 NActive=   10 NUniq=   10 SFac= 1.00D+00 NAtFMM=   60 NAOKFM=F Big=F
 Integral buffers will be    131072 words long.
 Raffenetti 2 integral format.
 Two-electron integral symmetry is turned on.
 Leave Link  301 at Fri Mar 14 15:42:17 2025, MaxMem=  8589934592 cpu:               0.3 elap:               0.1
 (Enter /home/enzo/gaussian_versions/gdv.j21/gdv/l302.exe)
 NPDir=0 NMtPBC=     1 NCelOv=     1 NCel=       1 NClECP=     1 NCelD=      1
         NCelK=      1 NCelE2=     1 NClLst=     1 CellRange=     0.0.
 One-electron integrals computed using PRISM.
 One-electron integral symmetry used in STVInt
 NBasis=    85 RedAO= T EigKep=  3.78D-03  NBF=    85
 NBsUse=    85 1.00D-06 EigRej= -1.00D+00 NBFU=    85
 Precomputing XC quadrature grid using
 IXCGrd= 4 IRadAn=           5 IRanWt=          -1 IRanGd=           0 AccXCQ= 0.00D+00.
 Generated NRdTot=       0 NPtTot=      219502 NUsed=           0 NTot=          64
 NSgBfM=    85    85    85    85    85 MxSgAt=    10 MxSgA2=    10 SizInc=   0.000
 NMBTot=     1944 MaxBatPerAtom=       84 MaxMicBPerAtom=      207 NBfPt=            15876547.
 Leave Link  302 at Fri Mar 14 15:42:17 2025, MaxMem=  8589934592 cpu:               1.0 elap:               0.1
 (Enter /home/enzo/gaussian_versions/gdv.j21/gdv/l303.exe)
 DipDrv:  MaxL=1.
 Leave Link  303 at Fri Mar 14 15:42:17 2025, MaxMem=  8589934592 cpu:               0.2 elap:               0.1
 (Enter /home/enzo/gaussian_versions/gdv.j21/gdv/l401.exe)
 Lowest energy guess from the checkpoint file:  "/local/home/enzo/scratch/Gau-2409754.chk"
 B after Tr=     0.000000   -0.000000   -0.000000
         Rot=    0.999995   -0.002070    0.001946   -0.001669 Ang=  -0.38 deg.
 AO Guess basis will be translated and rotated to current coordinates.
 B after Tr=    -0.000000   -0.000000    0.000000
         Rot=    0.999817    0.014018   -0.000209   -0.013038 Ang=   2.19 deg.
 AO Guess basis will be translated and rotated to current coordinates.
 CkInt1:  FT= 3.51D-01
 Max alpha theta=  4.279 degrees.
 JPrj=2 DoOrth=T DoCkMO=T.
 Leave Link  401 at Fri Mar 14 15:42:17 2025, MaxMem=  8589934592 cpu:               0.5 elap:               0.1
 (Enter /home/enzo/gaussian_versions/gdv.j21/gdv/l502.exe)
 Keep R1 ints in memory in canonical form, NReq=17617987.
 FoFCou: FMM=F IPFlag=           0 FMFlag=           0 FMFlg1=           0
         NFxFlg=           0 DoJE=F BraDBF=F KetDBF=F FulRan=T
         wScrn=  0.000000 ICntrl=       600 IOpCl=  0 I1Cent=           0 NGrid=           0
         NMat0=    1 NMatS0=   3655 NMatT0=    0 NMatD0=    1 NMtDS0=    0 NMtDT0=    0
 Symmetry not used in FoFCou.
 Two-electron integral symmetry not used.
 Closed shell SCF:
 Using DIIS extrapolation, IDIIS=  1040.
 NGot=  8589934592 LenX=  8583230350 LenY=  8583222684
 Requested convergence on RMS density matrix=1.00D-08 within 128 cycles.
 Requested convergence on MAX density matrix=1.00D-06.
 Requested convergence on             energy=1.00D-06.
 No special actions if energy rises.
 Integral accuracy reduced to 1.0D-05 until final iterations.

 Cycle   1  Pass 0  IDiag  1:
 E= -284.416912743164    
 DIIS: error= 2.42D-03 at cycle   1 NSaved=   1.
 NSaved= 1 IEnMin= 1 EnMin= -284.416912743164     IErMin= 1 ErrMin= 2.42D-03
 ErrMax= 2.42D-03  0.00D+00 EMaxC= 1.00D-01 BMatC= 1.60D-03 BMatP= 1.60D-03
 IDIUse=3 WtCom= 9.76D-01 WtEn= 2.42D-02
 Coeff-Com:  0.100D+01
 Coeff-En:   0.100D+01
 Coeff:      0.100D+01
 Gap=    17.349 Goal=   None    Shift=    0.000
 GapD=   17.349 DampG=2.000 DampE=1.000 DampFc=2.0000 IDamp=-1.
 RMSDP=7.84D-04 MaxDP=8.95D-03              OVMax= 1.40D-02

 Cycle   2  Pass 0  IDiag  1:
 E= -284.419538866947     Delta-E=       -0.002626123783 Rises=F Damp=F
 DIIS: error= 5.56D-04 at cycle   2 NSaved=   2.
 NSaved= 2 IEnMin= 2 EnMin= -284.419538866947     IErMin= 2 ErrMin= 5.56D-04
 ErrMax= 5.56D-04  0.00D+00 EMaxC= 1.00D-01 BMatC= 4.62D-05 BMatP= 1.60D-03
 IDIUse=3 WtCom= 9.94D-01 WtEn= 5.56D-03
 Coeff-Com: -0.185D-01 0.102D+01
 Coeff-En:   0.000D+00 0.100D+01
 Coeff:     -0.184D-01 0.102D+01
 Gap=     0.248 Goal=   None    Shift=    0.000
 RMSDP=1.43D-04 MaxDP=2.72D-03 DE=-2.63D-03 OVMax= 2.83D-03

 Cycle   3  Pass 0  IDiag  1:
 E= -284.419536274255     Delta-E=        0.000002592692 Rises=F Damp=F
 DIIS: error= 6.17D-04 at cycle   3 NSaved=   3.
 NSaved= 3 IEnMin= 2 EnMin= -284.419538866947     IErMin= 2 ErrMin= 5.56D-04
 ErrMax= 6.17D-04  0.00D+00 EMaxC= 1.00D-01 BMatC= 6.96D-05 BMatP= 4.62D-05
 IDIUse=3 WtCom= 2.87D-01 WtEn= 7.13D-01
 Coeff-Com: -0.369D-01 0.583D+00 0.454D+00
 Coeff-En:   0.000D+00 0.516D+00 0.484D+00
 Coeff:     -0.106D-01 0.535D+00 0.475D+00
 Gap=     0.247 Goal=   None    Shift=    0.000
 RMSDP=8.27D-05 MaxDP=2.22D-03 DE= 2.59D-06 OVMax= 2.66D-03

 Cycle   4  Pass 0  IDiag  1:
 E= -284.419582819760     Delta-E=       -0.000046545505 Rises=F Damp=F
 DIIS: error= 2.59D-04 at cycle   4 NSaved=   4.
 NSaved= 4 IEnMin= 4 EnMin= -284.419582819760     IErMin= 4 ErrMin= 2.59D-04
 ErrMax= 2.59D-04  0.00D+00 EMaxC= 1.00D-01 BMatC= 6.82D-06 BMatP= 4.62D-05
 IDIUse=3 WtCom= 9.97D-01 WtEn= 2.59D-03
 Coeff-Com: -0.181D-01 0.209D+00 0.285D+00 0.524D+00
 Coeff-En:   0.000D+00 0.000D+00 0.513D-01 0.949D+00
 Coeff:     -0.180D-01 0.209D+00 0.284D+00 0.525D+00
 Gap=     0.247 Goal=   None    Shift=    0.000
 RMSDP=2.85D-05 MaxDP=5.61D-04 DE=-4.65D-05 OVMax= 1.12D-03

 Cycle   5  Pass 0  IDiag  1:
 E= -284.419587397439     Delta-E=       -0.000004577679 Rises=F Damp=F
 DIIS: error= 9.40D-05 at cycle   5 NSaved=   5.
 NSaved= 5 IEnMin= 5 EnMin= -284.419587397439     IErMin= 5 ErrMin= 9.40D-05
 ErrMax= 9.40D-05  0.00D+00 EMaxC= 1.00D-01 BMatC= 8.55D-07 BMatP= 6.82D-06
 IDIUse=1 WtCom= 1.00D+00 WtEn= 0.00D+00
 Coeff-Com: -0.806D-02 0.793D-01 0.142D+00 0.348D+00 0.439D+00
 Coeff:     -0.806D-02 0.793D-01 0.142D+00 0.348D+00 0.439D+00
 Gap=     0.247 Goal=   None    Shift=    0.000
 RMSDP=8.53D-06 MaxDP=2.29D-04 DE=-4.58D-06 OVMax= 3.01D-04

 Initial convergence to 1.0D-05 achieved.  Increase integral accuracy.
 Cycle   6  Pass 1  IDiag  1:
 E= -284.419590631327     Delta-E=       -0.000003233888 Rises=F Damp=F
 DIIS: error= 1.72D-05 at cycle   1 NSaved=   1.
 NSaved= 1 IEnMin= 1 EnMin= -284.419590631327     IErMin= 1 ErrMin= 1.72D-05
 ErrMax= 1.72D-05  0.00D+00 EMaxC= 1.00D-01 BMatC= 2.96D-08 BMatP= 2.96D-08
 IDIUse=1 WtCom= 1.00D+00 WtEn= 0.00D+00
 Coeff-Com:  0.100D+01
 Coeff:      0.100D+01
 Gap=     0.247 Goal=   None    Shift=    0.000
 RMSDP=8.53D-06 MaxDP=2.29D-04 DE=-3.23D-06 OVMax= 1.04D-04

 Cycle   7  Pass 1  IDiag  1:
 E= -284.419590587113     Delta-E=        0.000000044214 Rises=F Damp=F
 DIIS: error= 3.41D-05 at cycle   2 NSaved=   2.
 NSaved= 2 IEnMin= 1 EnMin= -284.419590631327     IErMin= 1 ErrMin= 1.72D-05
 ErrMax= 3.41D-05  0.00D+00 EMaxC= 1.00D-01 BMatC= 9.16D-08 BMatP= 2.96D-08
 IDIUse=1 WtCom= 1.00D+00 WtEn= 0.00D+00
 Coeff-Com:  0.641D+00 0.359D+00
 Coeff:      0.641D+00 0.359D+00
 Gap=     0.247 Goal=   None    Shift=    0.000
 RMSDP=2.74D-06 MaxDP=7.04D-05 DE= 4.42D-08 OVMax= 8.42D-05

 Cycle   8  Pass 1  IDiag  1:
 E= -284.419590654439     Delta-E=       -0.000000067326 Rises=F Damp=F
 DIIS: error= 3.77D-06 at cycle   3 NSaved=   3.
 NSaved= 3 IEnMin= 3 EnMin= -284.419590654439     IErMin= 3 ErrMin= 3.77D-06
 ErrMax= 3.77D-06  0.00D+00 EMaxC= 1.00D-01 BMatC= 1.95D-09 BMatP= 2.96D-08
 IDIUse=1 WtCom= 1.00D+00 WtEn= 0.00D+00
 Coeff-Com:  0.340D+00 0.211D+00 0.449D+00
 Coeff:      0.340D+00 0.211D+00 0.449D+00
 Gap=     0.247 Goal=   None    Shift=    0.000
 RMSDP=4.93D-07 MaxDP=8.84D-06 DE=-6.73D-08 OVMax= 1.81D-05

 Cycle   9  Pass 1  IDiag  1:
 E= -284.419590655893     Delta-E=       -0.000000001453 Rises=F Damp=F
 DIIS: error= 1.13D-06 at cycle   4 NSaved=   4.
 NSaved= 4 IEnMin= 4 EnMin= -284.419590655893     IErMin= 4 ErrMin= 1.13D-06
 ErrMax= 1.13D-06  0.00D+00 EMaxC= 1.00D-01 BMatC= 1.61D-10 BMatP= 1.95D-09
 IDIUse=1 WtCom= 1.00D+00 WtEn= 0.00D+00
 Coeff-Com:  0.995D-01 0.663D-01 0.249D+00 0.585D+00
 Coeff:      0.995D-01 0.663D-01 0.249D+00 0.585D+00
 Gap=     0.247 Goal=   None    Shift=    0.000
 RMSDP=1.33D-07 MaxDP=3.00D-06 DE=-1.45D-09 OVMax= 3.90D-06

 Cycle  10  Pass 1  IDiag  1:
 E= -284.419590656014     Delta-E=       -0.000000000121 Rises=F Damp=F
 DIIS: error= 2.19D-07 at cycle   5 NSaved=   5.
 NSaved= 5 IEnMin= 5 EnMin= -284.419590656014     IErMin= 5 ErrMin= 2.19D-07
 ErrMax= 2.19D-07  0.00D+00 EMaxC= 1.00D-01 BMatC= 1.01D-11 BMatP= 1.61D-10
 IDIUse=1 WtCom= 1.00D+00 WtEn= 0.00D+00
 Coeff-Com: -0.110D-01-0.609D-02 0.319D-01 0.223D+00 0.762D+00
 Coeff:     -0.110D-01-0.609D-02 0.319D-01 0.223D+00 0.762D+00
 Gap=     0.247 Goal=   None    Shift=    0.000
 RMSDP=4.89D-08 MaxDP=6.63D-07 DE=-1.21D-10 OVMax= 1.58D-06

 Cycle  11  Pass 1  IDiag  1:
 E= -284.419590656021     Delta-E=       -0.000000000008 Rises=F Damp=F
 DIIS: error= 8.32D-08 at cycle   6 NSaved=   6.
 NSaved= 6 IEnMin= 6 EnMin= -284.419590656021     IErMin= 6 ErrMin= 8.32D-08
 ErrMax= 8.32D-08  0.00D+00 EMaxC= 1.00D-01 BMatC= 1.70D-12 BMatP= 1.01D-11
 IDIUse=1 WtCom= 1.00D+00 WtEn= 0.00D+00
 Coeff-Com: -0.144D-01-0.927D-02-0.739D-02 0.512D-01 0.378D+00 0.602D+00
 Coeff:     -0.144D-01-0.927D-02-0.739D-02 0.512D-01 0.378D+00 0.602D+00
 Gap=     0.247 Goal=   None    Shift=    0.000
 RMSDP=1.57D-08 MaxDP=2.61D-07 DE=-7.62D-12 OVMax= 4.36D-07

 Cycle  12  Pass 1  IDiag  1:
 E= -284.419590656024     Delta-E=       -0.000000000003 Rises=F Damp=F
 DIIS: error= 9.86D-09 at cycle   7 NSaved=   7.
 NSaved= 7 IEnMin= 7 EnMin= -284.419590656024     IErMin= 7 ErrMin= 9.86D-09
 ErrMax= 9.86D-09  0.00D+00 EMaxC= 1.00D-01 BMatC= 1.98D-14 BMatP= 1.70D-12
 IDIUse=1 WtCom= 1.00D+00 WtEn= 0.00D+00
 Coeff-Com: -0.298D-02-0.196D-02-0.319D-02 0.289D-02 0.639D-01 0.147D+00
 Coeff-Com:  0.794D+00
 Coeff:     -0.298D-02-0.196D-02-0.319D-02 0.289D-02 0.639D-01 0.147D+00
 Coeff:      0.794D+00
 Gap=     0.247 Goal=   None    Shift=    0.000
 RMSDP=2.56D-09 MaxDP=3.45D-08 DE=-2.50D-12 OVMax= 9.60D-08

 SCF Done:  E(RB3LYP) =  -284.419590656     A.U. after   12 cycles
            NFock= 12  Conv=0.26D-08     -V/T= 2.0089
 KE= 2.818995848299D+02 PE=-1.024151256890D+03 EE= 2.788785808059D+02
 Leave Link  502 at Fri Mar 14 15:42:18 2025, MaxMem=  8589934592 cpu:               8.1 elap:               0.7
 (Enter /home/enzo/gaussian_versions/gdv.j21/gdv/l701.exe)
 ... and contract with generalized density number  0.
 Compute integral first derivatives.
 Leave Link  701 at Fri Mar 14 15:42:18 2025, MaxMem=  8589934592 cpu:               0.7 elap:               0.1
 (Enter /home/enzo/gaussian_versions/gdv.j21/gdv/l702.exe)
 L702 exits ... SP integral derivatives will be done elsewhere.
 Leave Link  702 at Fri Mar 14 15:42:18 2025, MaxMem=  8589934592 cpu:               0.1 elap:               0.1
 (Enter /home/enzo/gaussian_versions/gdv.j21/gdv/l703.exe)
 Integral derivatives from FoFJK, PRISM(SPDF).
 Compute integral first derivatives, UseDBF=F ICtDFT=           0.
 Calling FoFJK, ICntrl=      2127 FMM=F ISym2X=0 I1Cent= 0 IOpClX= 0 NMat=1 NMatS=1 NMatT=0.
 FoFJK:  IHMeth= 1 ICntrl=    2127 DoSepK=F KAlg= 0 I1Cent=           0 FoldK=F
 IRaf=         0 NMat=       1 IRICut=       1 DoRegI=T DoRafI=F ISym2E= 0 IDoP0=0 IntGTp=1.
 FoFCou: FMM=F IPFlag=           0 FMFlag=      100000 FMFlg1=         800
         NFxFlg=           0 DoJE=F BraDBF=F KetDBF=F FulRan=T
         wScrn=  0.000000 ICntrl=      2127 IOpCl=  0 I1Cent=           0 NGrid=           0
         NMat0=    1 NMatS0=      1 NMatT0=    0 NMatD0=    1 NMtDS0=    0 NMtDT0=    0
 Symmetry not used in FoFCou.
 Leave Link  703 at Fri Mar 14 15:42:18 2025, MaxMem=  8589934592 cpu:               3.2 elap:               0.3
 (Enter /home/enzo/gaussian_versions/gdv.j21/gdv/l716.exe)
 Dipole        =-1.65248103D-02-5.37840096D-01 5.43360525D-01
 ***** Axes restored to original set *****
 -------------------------------------------------------------------
 Center     Atomic                   Forces (Hartrees/Bohr)
 Number     Number              X              Y              Z
 -------------------------------------------------------------------
      1        7           0.002770734    0.000662582    0.000399409
      2        6          -0.000496796    0.002740931   -0.001166486
      3        6          -0.000226799   -0.002845129    0.002461256
      4        8          -0.001161241    0.000197701   -0.003361901
      5        8           0.000844211    0.001223535   -0.000384322
      6        1           0.001444866   -0.000293607    0.000403531
      7        1           0.001522916    0.000269163    0.002356053
      8        1          -0.002492708   -0.000886486    0.000120724
      9        1          -0.001844507   -0.000708402   -0.000858951
     10        1          -0.000360677   -0.000360289    0.000030687
 -------------------------------------------------------------------
 Cartesian Forces:  Max     0.003361901 RMS     0.001514850
 Leave Link  716 at Fri Mar 14 15:42:18 2025, MaxMem=  8589934592 cpu:               0.1 elap:               0.0
 (Enter /home/enzo/gaussian_versions/gdv.j21/gdv/l103.exe)

 GradGradGradGradGradGradGradGradGradGradGradGradGradGradGradGradGradGrad
 Berny optimization.
 Using GEDIIS/GDIIS optimizer.
 FormGI is forming the generalized inverse of G from B-inverse, IUseBI=4.
 Internal  Forces:  Max     0.006447657 RMS     0.002051820
 Search for a local minimum.
 Step number  18 out of a maximum of   46
 All quantities printed in internal units (Hartrees-Bohrs-Radians)
 RMS Force = .20518D-02 SwitMx=.10000D-02 MixMth= 1
 Mixed Optimization -- RFO/linear search
 Update second derivatives using D2CorX and points   18   16
 DE=  1.63D-04 DEPred=-4.77D-04 R=-3.41D-01
 Trust test=-3.41D-01 RLast= 2.63D-01 DXMaxT set to 5.11D-01
 ITU= -1 -1  1  1  1  0  1  0  1  1  1  1  1  1  0  1  1  0
 Use linear search instead of GDIIS.
 Energy rises -- skip Quadratic/GDIIS search.
 Quartic linear search produced a step of -0.57959.
 Iteration  1 RMS(Cart)=  0.03190989 RMS(Int)=  0.00065334
 Iteration  2 RMS(Cart)=  0.00062532 RMS(Int)=  0.00013236
 Iteration  3 RMS(Cart)=  0.00000031 RMS(Int)=  0.00013236
 Variable       Old X    -DE/DX   Delta X   Delta X   Delta X     New X
                                 (Linear)    (Quad)   (Total)
    R1        2.75823  -0.00645  -0.00705   0.00000  -0.00705   2.75119
    R2        1.92183  -0.00092  -0.00063   0.00000  -0.00063   1.92120
    R3        1.92623  -0.00152  -0.00185   0.00000  -0.00185   1.92438
    R4        2.86418  -0.00030   0.00122   0.00000   0.00122   2.86540
    R5        2.07211  -0.00044  -0.00214   0.00000  -0.00214   2.06997
    R6        2.09420  -0.00025  -0.00046   0.00000  -0.00046   2.09374
    R7        2.28451   0.00272   0.00486   0.00000   0.00486   2.28937
    R8        2.55895   0.00052  -0.00379   0.00000  -0.00379   2.55516
    R9        1.84469  -0.00031   0.00084   0.00000   0.00084   1.84553
    A1        1.93648  -0.00131  -0.01495   0.00000  -0.01475   1.92173
    A2        1.92673  -0.00370  -0.02745   0.00000  -0.02724   1.89949
    A3        1.88623   0.00146  -0.00550   0.00000  -0.00507   1.88116
    A4        1.93741  -0.00529  -0.02063   0.00000  -0.02055   1.91687
    A5        1.93117   0.00031  -0.00043   0.00000  -0.00055   1.93061
    A6        2.03520  -0.00074  -0.01955   0.00000  -0.01944   2.01576
    A7        1.86952   0.00396   0.03274   0.00000   0.03276   1.90228
    A8        1.83069   0.00269   0.00543   0.00000   0.00576   1.83644
    A9        1.84983  -0.00020   0.00686   0.00000   0.00704   1.85687
   A10        2.19560  -0.00246  -0.01451   0.00000  -0.01447   2.18113
   A11        1.93761   0.00217   0.01555   0.00000   0.01560   1.95321
   A12        2.14765   0.00037  -0.00007   0.00000  -0.00003   2.14762
   A13        1.85647  -0.00059  -0.00463   0.00000  -0.00463   1.85184
    D1        2.86055  -0.00171  -0.00137   0.00000  -0.00159   2.85897
    D2       -1.34937   0.00003   0.02578   0.00000   0.02565  -1.32372
    D3        0.76590  -0.00054   0.02034   0.00000   0.02033   0.78623
    D4        0.76989  -0.00028   0.03069   0.00000   0.03071   0.80060
    D5        2.84315   0.00147   0.05784   0.00000   0.05795   2.90110
    D6       -1.32476   0.00090   0.05240   0.00000   0.05262  -1.27214
    D7       -0.47677   0.00166  -0.01688   0.00000  -0.01683  -0.49360
    D8        2.73651   0.00036  -0.03658   0.00000  -0.03656   2.69994
    D9       -2.58679   0.00190  -0.02429   0.00000  -0.02440  -2.61119
   D10        0.62649   0.00059  -0.04399   0.00000  -0.04413   0.58235
   D11        1.73571  -0.00070  -0.04933   0.00000  -0.04922   1.68649
   D12       -1.33420  -0.00201  -0.06903   0.00000  -0.06895  -1.40315
   D13        3.07667   0.00034   0.00129   0.00000   0.00124   3.07791
   D14        0.00444  -0.00078  -0.01739   0.00000  -0.01734  -0.01290
         Item               Value     Threshold  Converged?
 Maximum Force            0.006448     0.000450     NO 
 RMS     Force            0.002052     0.000300     NO 
 Maximum Displacement     0.075363     0.001800     NO 
 RMS     Displacement     0.031883     0.001200     NO 
 Predicted change in Energy=-1.825060D-04
 GradGradGradGradGradGradGradGradGradGradGradGradGradGradGradGradGradGrad

 Leave Link  103 at Fri Mar 14 15:42:18 2025, MaxMem=  8589934592 cpu:               0.2 elap:               0.1
 (Enter /home/enzo/gaussian_versions/gdv.j21/gdv/l202.exe)
                          Input orientation:                          
 ---------------------------------------------------------------------
 Center     Atomic      Atomic             Coordinates (Angstroms)
 Number     Number       Type             X           Y           Z
 ---------------------------------------------------------------------
      1          7           0       -2.031633   -0.080391   -0.398731
      2          6           0       -0.946167    0.031617    0.564991
      3          6           0        0.381415    0.114354   -0.162925
      4          8           0        0.608972   -0.370813   -1.249442
      5          8           0        1.322353    0.746684    0.574001
      6          1           0       -2.878359   -0.400355    0.064162
      7          1           0       -1.778827   -0.774810   -1.099360
      8          1           0       -1.070180    0.927316    1.183213
      9          1           0       -0.840994   -0.819967    1.265932
     10          1           0        2.148800    0.700086    0.055752
 ---------------------------------------------------------------------
                    Distance matrix (angstroms):
                    1          2          3          4          5
     1  N    0.000000
     2  C    1.455864   0.000000
     3  C    2.432351   1.516305   0.000000
     4  O    2.789418   2.423340   1.211482   0.000000
     5  O    3.588799   2.378568   1.352133   2.254475   0.000000
     6  H    1.016657   2.042253   3.307963   3.726648   4.384246
     7  H    1.018337   2.028229   2.516778   2.426381   3.838281
     8  H    2.107703   1.095379   2.140122   3.228390   2.475476
     9  H    2.176166   1.107960   2.099731   2.937899   2.759209
    10  H    4.276882   3.207023   1.874714   2.285044   0.976611
                    6          7          8          9         10
     6  H    0.000000
     7  H    1.644071   0.000000
     8  H    2.506890   2.934205   0.000000
     9  H    2.402329   2.544834   1.764190   0.000000
    10  H    5.146200   4.351536   3.418280   3.565665   0.000000
 Stoichiometry    C2H5NO2
 Framework group  C1[X(C2H5NO2)]
 Deg. of freedom    24
 Full point group                 C1      NOp   1
 RotChk:  IX=0 Diff= 2.15D-02
 Largest Abelian subgroup         C1      NOp   1
 Largest concise Abelian subgroup C1      NOp   1
                         Standard orientation:                         
 ---------------------------------------------------------------------
 Center     Atomic      Atomic             Coordinates (Angstroms)
 Number     Number       Type             X           Y           Z
 ---------------------------------------------------------------------
      1          7           0        1.875491    0.101479   -0.258717
      2          6           0        0.740310   -0.695457    0.183775
      3          6           0       -0.540297    0.100725    0.024652
      4          8           0       -0.617240    1.308830    0.072112
      5          8           0       -1.619303   -0.701942   -0.115841
      6          1           0        2.742255   -0.304100    0.084526
      7          1           0        1.793117    1.037412    0.134035
      8          1           0        0.662940   -1.616351   -0.404291
      9          1           0        0.760363   -1.004565    1.247554
     10          1           0       -2.394842   -0.109460   -0.151531
 ---------------------------------------------------------------------
 Rotational constants (GHZ):          10.2030056           3.9406511           2.9555377
 Leave Link  202 at Fri Mar 14 15:42:18 2025, MaxMem=  8589934592 cpu:               0.1 elap:               0.1
 (Enter /home/enzo/gaussian_versions/gdv.j21/gdv/l301.exe)
 Standard basis: 6-31G(d) (6D, 7F)
 Ernie: Thresh=  0.10000D-02 Tol=  0.10000D-05 Strict=F.
 There are    85 symmetry adapted cartesian basis functions of A   symmetry.
 There are    85 symmetry adapted basis functions of A   symmetry.
    85 basis functions,   160 primitive gaussians,    85 cartesian basis functions
    20 alpha electrons       20 beta electrons
       nuclear repulsion energy       179.2776791670 Hartrees.
 IExCor=      4002 DFT=T Ex+Corr=B3LYP ScaHFX=  0.200000
 ScaDFX=  0.800000  0.720000  1.000000  0.810000  1.000000  0.000000
 ScaDFX=  0.000000  0.000000  0.000000  0.000000  0.000000  0.000000
 IRadAn=      5 IRanWt=     -1 IRanGd=            0 ICorTp=0 IEmpDi=  4
 NAtoms=   10 NActive=   10 NUniq=   10 SFac= 1.00D+00 NAtFMM=   60 NAOKFM=F Big=F
 Integral buffers will be    131072 words long.
 Raffenetti 2 integral format.
 Two-electron integral symmetry is turned on.
 Leave Link  301 at Fri Mar 14 15:42:18 2025, MaxMem=  8589934592 cpu:               0.4 elap:               0.1
 (Enter /home/enzo/gaussian_versions/gdv.j21/gdv/l302.exe)
 NPDir=0 NMtPBC=     1 NCelOv=     1 NCel=       1 NClECP=     1 NCelD=      1
         NCelK=      1 NCelE2=     1 NClLst=     1 CellRange=     0.0.
 One-electron integrals computed using PRISM.
 One-electron integral symmetry used in STVInt
 NBasis=    85 RedAO= T EigKep=  3.79D-03  NBF=    85
 NBsUse=    85 1.00D-06 EigRej= -1.00D+00 NBFU=    85
 Precomputing XC quadrature grid using
 IXCGrd= 4 IRadAn=           5 IRanWt=          -1 IRanGd=           0 AccXCQ= 0.00D+00.
 Generated NRdTot=       0 NPtTot=      219287 NUsed=           0 NTot=          64
 NSgBfM=    85    85    85    85    85 MxSgAt=    10 MxSgA2=    10 SizInc=   0.000
 NMBTot=     1931 MaxBatPerAtom=       84 MaxMicBPerAtom=      199 NBfPt=            15880853.
 Leave Link  302 at Fri Mar 14 15:42:19 2025, MaxMem=  8589934592 cpu:               0.9 elap:               0.1
 (Enter /home/enzo/gaussian_versions/gdv.j21/gdv/l303.exe)
 DipDrv:  MaxL=1.
 Leave Link  303 at Fri Mar 14 15:42:19 2025, MaxMem=  8589934592 cpu:               0.2 elap:               0.1
 (Enter /home/enzo/gaussian_versions/gdv.j21/gdv/l401.exe)
 Lowest energy guess from the checkpoint file:  "/local/home/enzo/scratch/Gau-2409754.chk"
 B after Tr=     0.000000   -0.000000    0.000000
         Rot=    0.999999   -0.000840    0.000860   -0.000653 Ang=  -0.16 deg.
 AO Guess basis will be translated and rotated to current coordinates.
 B after Tr=     0.000000   -0.000000    0.000000
         Rot=    0.999998    0.001233   -0.001087    0.001015 Ang=   0.22 deg.
 AO Guess basis will be translated and rotated to current coordinates.
 CkInt1:  FT= 4.20D-01
 Max alpha theta=  1.442 degrees.
 JPrj=2 DoOrth=T DoCkMO=T.
 Leave Link  401 at Fri Mar 14 15:42:19 2025, MaxMem=  8589934592 cpu:               0.5 elap:               0.1
 (Enter /home/enzo/gaussian_versions/gdv.j21/gdv/l502.exe)
 Keep R1 ints in memory in canonical form, NReq=17617987.
 FoFCou: FMM=F IPFlag=           0 FMFlag=           0 FMFlg1=           0
         NFxFlg=           0 DoJE=F BraDBF=F KetDBF=F FulRan=T
         wScrn=  0.000000 ICntrl=       600 IOpCl=  0 I1Cent=           0 NGrid=           0
         NMat0=    1 NMatS0=   3655 NMatT0=    0 NMatD0=    1 NMtDS0=    0 NMtDT0=    0
 Symmetry not used in FoFCou.
 Two-electron integral symmetry not used.
 Closed shell SCF:
 Using DIIS extrapolation, IDIIS=  1040.
 NGot=  8589934592 LenX=  8583230350 LenY=  8583222684
 Requested convergence on RMS density matrix=1.00D-08 within 128 cycles.
 Requested convergence on MAX density matrix=1.00D-06.
 Requested convergence on             energy=1.00D-06.
 No special actions if energy rises.
 Integral accuracy reduced to 1.0D-05 until final iterations.

 Cycle   1  Pass 0  IDiag  1:
 E= -284.419941541792    
 DIIS: error= 3.83D-05 at cycle   1 NSaved=   1.
 NSaved= 1 IEnMin= 1 EnMin= -284.419941541792     IErMin= 1 ErrMin= 3.83D-05
 ErrMax= 3.83D-05  0.00D+00 EMaxC= 1.00D-01 BMatC= 2.32D-07 BMatP= 2.32D-07
 IDIUse=1 WtCom= 1.00D+00 WtEn= 0.00D+00
 Coeff-Com:  0.100D+01
 Coeff:      0.100D+01
 Gap=    14.958 Goal=   None    Shift=    0.000
 RMSDP=1.27D-05 MaxDP=1.51D-04              OVMax= 1.66D-04

 Cycle   2  Pass 0  IDiag  1:
 E= -284.419941736705     Delta-E=       -0.000000194913 Rises=F Damp=F
 DIIS: error= 2.63D-05 at cycle   2 NSaved=   2.
 NSaved= 2 IEnMin= 2 EnMin= -284.419941736705     IErMin= 2 ErrMin= 2.63D-05
 ErrMax= 2.63D-05  0.00D+00 EMaxC= 1.00D-01 BMatC= 1.14D-07 BMatP= 2.32D-07
 IDIUse=1 WtCom= 1.00D+00 WtEn= 0.00D+00
 Coeff-Com:  0.376D+00 0.624D+00
 Coeff:      0.376D+00 0.624D+00
 Gap=     0.247 Goal=   None    Shift=    0.000
 RMSDP=4.33D-06 MaxDP=1.14D-04 DE=-1.95D-07 OVMax= 9.38D-05

 Initial convergence to 1.0D-05 achieved.  Increase integral accuracy.
 Cycle   3  Pass 1  IDiag  1:
 E= -284.419944737102     Delta-E=       -0.000003000397 Rises=F Damp=F
 DIIS: error= 1.56D-05 at cycle   1 NSaved=   1.
 NSaved= 1 IEnMin= 1 EnMin= -284.419944737102     IErMin= 1 ErrMin= 1.56D-05
 ErrMax= 1.56D-05  0.00D+00 EMaxC= 1.00D-01 BMatC= 4.81D-08 BMatP= 4.81D-08
 IDIUse=1 WtCom= 1.00D+00 WtEn= 0.00D+00
 Coeff-Com:  0.100D+01
 Coeff:      0.100D+01
 Gap=     0.247 Goal=   None    Shift=    0.000
 RMSDP=4.33D-06 MaxDP=1.14D-04 DE=-3.00D-06 OVMax= 1.14D-04

 Cycle   4  Pass 1  IDiag  1:
 E= -284.419944675199     Delta-E=        0.000000061903 Rises=F Damp=F
 DIIS: error= 2.67D-05 at cycle   2 NSaved=   2.
 NSaved= 2 IEnMin= 1 EnMin= -284.419944737102     IErMin= 1 ErrMin= 1.56D-05
 ErrMax= 2.67D-05  0.00D+00 EMaxC= 1.00D-01 BMatC= 1.34D-07 BMatP= 4.81D-08
 IDIUse=1 WtCom= 1.00D+00 WtEn= 0.00D+00
 Coeff-Com:  0.625D+00 0.375D+00
 Coeff:      0.625D+00 0.375D+00
 Gap=     0.247 Goal=   None    Shift=    0.000
 RMSDP=2.87D-06 MaxDP=8.20D-05 DE= 6.19D-08 OVMax= 8.33D-05

 Cycle   5  Pass 1  IDiag  1:
 E= -284.419944771403     Delta-E=       -0.000000096205 Rises=F Damp=F
 DIIS: error= 2.46D-06 at cycle   3 NSaved=   3.
 NSaved= 3 IEnMin= 3 EnMin= -284.419944771403     IErMin= 3 ErrMin= 2.46D-06
 ErrMax= 2.46D-06  0.00D+00 EMaxC= 1.00D-01 BMatC= 9.12D-10 BMatP= 4.81D-08
 IDIUse=1 WtCom= 1.00D+00 WtEn= 0.00D+00
 Coeff-Com:  0.399D+00 0.242D+00 0.359D+00
 Coeff:      0.399D+00 0.242D+00 0.359D+00
 Gap=     0.247 Goal=   None    Shift=    0.000
 RMSDP=2.95D-07 MaxDP=7.78D-06 DE=-9.62D-08 OVMax= 1.16D-05

 Cycle   6  Pass 1  IDiag  1:
 E= -284.419944772074     Delta-E=       -0.000000000671 Rises=F Damp=F
 DIIS: error= 4.15D-07 at cycle   4 NSaved=   4.
 NSaved= 4 IEnMin= 4 EnMin= -284.419944772074     IErMin= 4 ErrMin= 4.15D-07
 ErrMax= 4.15D-07  0.00D+00 EMaxC= 1.00D-01 BMatC= 2.12D-11 BMatP= 9.12D-10
 IDIUse=1 WtCom= 1.00D+00 WtEn= 0.00D+00
 Coeff-Com:  0.108D-01 0.817D-02 0.131D+00 0.850D+00
 Coeff:      0.108D-01 0.817D-02 0.131D+00 0.850D+00
 Gap=     0.247 Goal=   None    Shift=    0.000
 RMSDP=5.36D-08 MaxDP=1.09D-06 DE=-6.71D-10 OVMax= 1.36D-06

 Cycle   7  Pass 1  IDiag  1:
 E= -284.419944772090     Delta-E=       -0.000000000015 Rises=F Damp=F
 DIIS: error= 1.61D-07 at cycle   5 NSaved=   5.
 NSaved= 5 IEnMin= 5 EnMin= -284.419944772090     IErMin= 5 ErrMin= 1.61D-07
 ErrMax= 1.61D-07  0.00D+00 EMaxC= 1.00D-01 BMatC= 2.54D-12 BMatP= 2.12D-11
 IDIUse=1 WtCom= 1.00D+00 WtEn= 0.00D+00
 Coeff-Com: -0.902D-02-0.474D-02 0.552D-01 0.443D+00 0.516D+00
 Coeff:     -0.902D-02-0.474D-02 0.552D-01 0.443D+00 0.516D+00
 Gap=     0.247 Goal=   None    Shift=    0.000
 RMSDP=1.64D-08 MaxDP=4.57D-07 DE=-1.55D-11 OVMax= 4.22D-07

 Cycle   8  Pass 1  IDiag  1:
 E= -284.419944772090     Delta-E=        0.000000000000 Rises=F Damp=F
 DIIS: error= 3.20D-08 at cycle   6 NSaved=   6.
 NSaved= 6 IEnMin= 5 EnMin= -284.419944772090     IErMin= 6 ErrMin= 3.20D-08
 ErrMax= 3.20D-08  0.00D+00 EMaxC= 1.00D-01 BMatC= 1.01D-13 BMatP= 2.54D-12
 IDIUse=1 WtCom= 1.00D+00 WtEn= 0.00D+00
 Coeff-Com: -0.447D-02-0.265D-02 0.943D-02 0.911D-01 0.208D+00 0.698D+00
 Coeff:     -0.447D-02-0.265D-02 0.943D-02 0.911D-01 0.208D+00 0.698D+00
 Gap=     0.247 Goal=   None    Shift=    0.000
 RMSDP=3.98D-09 MaxDP=6.91D-08 DE= 0.00D+00 OVMax= 9.26D-08

 SCF Done:  E(RB3LYP) =  -284.419944772     A.U. after    8 cycles
            NFock=  8  Conv=0.40D-08     -V/T= 2.0089
 KE= 2.819156219125D+02 PE=-1.024800669788D+03 EE= 2.791874239367D+02
 Leave Link  502 at Fri Mar 14 15:42:19 2025, MaxMem=  8589934592 cpu:               6.6 elap:               0.6
 (Enter /home/enzo/gaussian_versions/gdv.j21/gdv/l701.exe)
 ... and contract with generalized density number  0.
 Compute integral first derivatives.
 Leave Link  701 at Fri Mar 14 15:42:19 2025, MaxMem=  8589934592 cpu:               0.7 elap:               0.1
 (Enter /home/enzo/gaussian_versions/gdv.j21/gdv/l702.exe)
 L702 exits ... SP integral derivatives will be done elsewhere.
 Leave Link  702 at Fri Mar 14 15:42:20 2025, MaxMem=  8589934592 cpu:               0.1 elap:               0.0
 (Enter /home/enzo/gaussian_versions/gdv.j21/gdv/l703.exe)
 Integral derivatives from FoFJK, PRISM(SPDF).
 Compute integral first derivatives, UseDBF=F ICtDFT=           0.
 Calling FoFJK, ICntrl=      2127 FMM=F ISym2X=0 I1Cent= 0 IOpClX= 0 NMat=1 NMatS=1 NMatT=0.
 FoFJK:  IHMeth= 1 ICntrl=    2127 DoSepK=F KAlg= 0 I1Cent=           0 FoldK=F
 IRaf=         0 NMat=       1 IRICut=       1 DoRegI=T DoRafI=F ISym2E= 0 IDoP0=0 IntGTp=1.
 FoFCou: FMM=F IPFlag=           0 FMFlag=      100000 FMFlg1=         800
         NFxFlg=           0 DoJE=F BraDBF=F KetDBF=F FulRan=T
         wScrn=  0.000000 ICntrl=      2127 IOpCl=  0 I1Cent=           0 NGrid=           0
         NMat0=    1 NMatS0=      1 NMatT0=    0 NMatD0=    1 NMtDS0=    0 NMtDT0=    0
 Symmetry not used in FoFCou.
 Leave Link  703 at Fri Mar 14 15:42:20 2025, MaxMem=  8589934592 cpu:               3.1 elap:               0.3
 (Enter /home/enzo/gaussian_versions/gdv.j21/gdv/l716.exe)
 Dipole        =-2.65493748D-02-5.41940060D-01 5.64703077D-01
 ***** Axes restored to original set *****
 -------------------------------------------------------------------
 Center     Atomic                   Forces (Hartrees/Bohr)
 Number     Number              X              Y              Z
 -------------------------------------------------------------------
      1        7           0.000458711    0.000082856   -0.000169382
      2        6           0.000649423    0.000270875   -0.000003726
      3        6          -0.000371998   -0.000942516   -0.000639025
      4        8          -0.000792301    0.000628909    0.000404278
      5        8           0.000854050    0.000128474    0.000006227
      6        1          -0.000055409   -0.000298118   -0.000041106
      7        1           0.000010988    0.000054099   -0.000014478
      8        1          -0.000173250   -0.000080827   -0.000260211
      9        1          -0.000269303    0.000074906    0.000394326
     10        1          -0.000310911    0.000081342    0.000323098
 -------------------------------------------------------------------
 Cartesian Forces:  Max     0.000942516 RMS     0.000397965
 Leave Link  716 at Fri Mar 14 15:42:20 2025, MaxMem=  8589934592 cpu:               0.1 elap:               0.0
 (Enter /home/enzo/gaussian_versions/gdv.j21/gdv/l103.exe)

 GradGradGradGradGradGradGradGradGradGradGradGradGradGradGradGradGradGrad
 Berny optimization.
 Using GEDIIS/GDIIS optimizer.
 FormGI is forming the generalized inverse of G from B-inverse, IUseBI=4.
 Internal  Forces:  Max     0.001190953 RMS     0.000384588
 Search for a local minimum.
 Step number  19 out of a maximum of   46
 All quantities printed in internal units (Hartrees-Bohrs-Radians)
 RMS Force = .38459D-03 SwitMx=.10000D-02 MixMth= 2
 Mixed Optimization -- En-DIIS/RFO-DIIS
 Update second derivatives using D2CorX and points   18   16   19
 ITU=  0 -1 -1  1  1  1  0  1  0  1  1  1  1  1  1  0  1  1  0
 Use linear search instead of GDIIS.
     Eigenvalues ---    0.00127   0.00342   0.02074   0.04195   0.04728
     Eigenvalues ---    0.05988   0.06784   0.09297   0.13412   0.16040
     Eigenvalues ---    0.16336   0.17171   0.20603   0.24035   0.27213
     Eigenvalues ---    0.30659   0.32000   0.32864   0.36327   0.40657
     Eigenvalues ---    0.42051   0.44604   0.50273   0.84443
 RFO step:  Lambda=-2.20916755D-04 EMin= 1.27495957D-03
 Quartic linear search produced a step of -0.00018.
 Iteration  1 RMS(Cart)=  0.06445425 RMS(Int)=  0.00195511
 Iteration  2 RMS(Cart)=  0.00229902 RMS(Int)=  0.00000417
 Iteration  3 RMS(Cart)=  0.00000271 RMS(Int)=  0.00000363
 Iteration  4 RMS(Cart)=  0.00000000 RMS(Int)=  0.00000363
 Variable       Old X    -DE/DX   Delta X   Delta X   Delta X     New X
                                 (Linear)    (Quad)   (Total)
    R1        2.75119  -0.00015  -0.00000  -0.00290  -0.00290   2.74829
    R2        1.92120   0.00012  -0.00000   0.00060   0.00060   1.92180
    R3        1.92438  -0.00002  -0.00000   0.00010   0.00010   1.92448
    R4        2.86540  -0.00060   0.00000  -0.00294  -0.00294   2.86247
    R5        2.06997  -0.00019  -0.00000   0.00106   0.00106   2.07102
    R6        2.09374   0.00017  -0.00000   0.00162   0.00162   2.09536
    R7        2.28937  -0.00076   0.00000  -0.00160  -0.00160   2.28777
    R8        2.55516   0.00066  -0.00000   0.00246   0.00246   2.55762
    R9        1.84553  -0.00044   0.00000  -0.00166  -0.00166   1.84387
    A1        1.92173   0.00006  -0.00000   0.00181   0.00180   1.92354
    A2        1.89949  -0.00003  -0.00000   0.00282   0.00281   1.90230
    A3        1.88116  -0.00009  -0.00000  -0.00009  -0.00010   1.88106
    A4        1.91687  -0.00119  -0.00000   0.00041   0.00040   1.91727
    A5        1.93061   0.00026  -0.00000   0.00195   0.00195   1.93257
    A6        2.01576   0.00010  -0.00000   0.00224   0.00223   2.01799
    A7        1.90228   0.00047   0.00000  -0.00285  -0.00284   1.89944
    A8        1.83644   0.00062   0.00000   0.00458   0.00457   1.84102
    A9        1.85687  -0.00019   0.00000  -0.00670  -0.00669   1.85017
   A10        2.18113  -0.00078  -0.00000  -0.00067  -0.00068   2.18046
   A11        1.95321   0.00039   0.00000  -0.00074  -0.00075   1.95246
   A12        2.14762   0.00039  -0.00000   0.00170   0.00170   2.14931
   A13        1.85184   0.00023  -0.00000   0.00128   0.00128   1.85313
    D1        2.85897  -0.00014  -0.00000  -0.07503  -0.07503   2.78394
    D2       -1.32372  -0.00016   0.00000  -0.07707  -0.07706  -1.40078
    D3        0.78623  -0.00013   0.00000  -0.08278  -0.08278   0.70345
    D4        0.80060  -0.00005   0.00000  -0.07764  -0.07764   0.72296
    D5        2.90110  -0.00007   0.00001  -0.07968  -0.07967   2.82143
    D6       -1.27214  -0.00004   0.00001  -0.08540  -0.08539  -1.35753
    D7       -0.49360   0.00035  -0.00000   0.12525   0.12525  -0.36835
    D8        2.69994   0.00013  -0.00000   0.11906   0.11905   2.81899
    D9       -2.61119   0.00047  -0.00000   0.12440   0.12439  -2.48680
   D10        0.58235   0.00025  -0.00001   0.11820   0.11819   0.70054
   D11        1.68649   0.00017  -0.00001   0.13110   0.13109   1.81759
   D12       -1.40315  -0.00005  -0.00001   0.12490   0.12489  -1.27826
   D13        3.07791   0.00009   0.00000   0.00744   0.00744   3.08535
   D14       -0.01290  -0.00009  -0.00000   0.00146   0.00145  -0.01145
         Item               Value     Threshold  Converged?
 Maximum Force            0.001191     0.000450     NO 
 RMS     Force            0.000385     0.000300     NO 
 Maximum Displacement     0.167435     0.001800     NO 
 RMS     Displacement     0.064408     0.001200     NO 
 Predicted change in Energy=-1.249088D-04
 Lowest energy point so far.  Saving SCF results.
 GradGradGradGradGradGradGradGradGradGradGradGradGradGradGradGradGradGrad

 Leave Link  103 at Fri Mar 14 15:42:20 2025, MaxMem=  8589934592 cpu:               0.3 elap:               0.1
 (Enter /home/enzo/gaussian_versions/gdv.j21/gdv/l202.exe)
                          Input orientation:                          
 ---------------------------------------------------------------------
 Center     Atomic      Atomic             Coordinates (Angstroms)
 Number     Number       Type             X           Y           Z
 ---------------------------------------------------------------------
      1          7           0       -2.038430   -0.105706   -0.390681
      2          6           0       -0.953408    0.058215    0.563746
      3          6           0        0.369856    0.133063   -0.169632
      4          8           0        0.566058   -0.282210   -1.289765
      5          8           0        1.342589    0.675117    0.599621
      6          1           0       -2.859145   -0.487835    0.072610
      7          1           0       -1.750643   -0.767500   -1.109239
      8          1           0       -1.086265    0.975699    1.148255
      9          1           0       -0.836624   -0.760596    1.302249
     10          1           0        2.161392    0.635476    0.070430
 ---------------------------------------------------------------------
                    Distance matrix (angstroms):
                    1          2          3          4          5
     1  N    0.000000
     2  C    1.454330   0.000000
     3  C    2.430168   1.514751   0.000000
     4  O    2.760954   2.420778   1.210638   0.000000
     5  O    3.608556   2.377700   1.353434   2.255938   0.000000
     6  H    1.016972   2.042356   3.297065   3.691932   4.391442
     7  H    1.018390   2.028859   2.488050   2.373858   3.816993
     8  H    2.108170   1.095938   2.137089   3.202569   2.508123
     9  H    2.176977   1.108817   2.102535   2.985784   2.702578
    10  H    4.289578   3.206020   1.876073   2.288530   0.975732
                    6          7          8          9         10
     6  H    0.000000
     7  H    1.644310   0.000000
     8  H    2.538119   2.928553   0.000000
     9  H    2.382645   2.578905   1.760896   0.000000
    10  H    5.144669   4.320183   3.438711   3.529093   0.000000
 Stoichiometry    C2H5NO2
 Framework group  C1[X(C2H5NO2)]
 Deg. of freedom    24
 Full point group                 C1      NOp   1
 RotChk:  IX=0 Diff= 8.43D-02
 Largest Abelian subgroup         C1      NOp   1
 Largest concise Abelian subgroup C1      NOp   1
                         Standard orientation:                         
 ---------------------------------------------------------------------
 Center     Atomic      Atomic             Coordinates (Angstroms)
 Number     Number       Type             X           Y           Z
 ---------------------------------------------------------------------
      1          7           0        1.881523    0.105569   -0.213701
      2          6           0        0.731417   -0.717515    0.125216
      3          6           0       -0.537990    0.101395    0.013578
      4          8           0       -0.588525    1.310397    0.051094
      5          8           0       -1.637281   -0.682733   -0.078530
      6          1           0        2.730561   -0.302020    0.170017
      7          1           0        1.763541    1.027479    0.202566
      8          1           0        0.657808   -1.577898   -0.549618
      9          1           0        0.725770   -1.133661    1.152965
     10          1           0       -2.402456   -0.077471   -0.093293
 ---------------------------------------------------------------------
 Rotational constants (GHZ):          10.3253394           3.9529811           2.9473363
 Leave Link  202 at Fri Mar 14 15:42:20 2025, MaxMem=  8589934592 cpu:               0.1 elap:               0.0
 (Enter /home/enzo/gaussian_versions/gdv.j21/gdv/l301.exe)
 Standard basis: 6-31G(d) (6D, 7F)
 Ernie: Thresh=  0.10000D-02 Tol=  0.10000D-05 Strict=F.
 There are    85 symmetry adapted cartesian basis functions of A   symmetry.
 There are    85 symmetry adapted basis functions of A   symmetry.
    85 basis functions,   160 primitive gaussians,    85 cartesian basis functions
    20 alpha electrons       20 beta electrons
       nuclear repulsion energy       179.4399082221 Hartrees.
 IExCor=      4002 DFT=T Ex+Corr=B3LYP ScaHFX=  0.200000
 ScaDFX=  0.800000  0.720000  1.000000  0.810000  1.000000  0.000000
 ScaDFX=  0.000000  0.000000  0.000000  0.000000  0.000000  0.000000
 IRadAn=      5 IRanWt=     -1 IRanGd=            0 ICorTp=0 IEmpDi=  4
 NAtoms=   10 NActive=   10 NUniq=   10 SFac= 1.00D+00 NAtFMM=   60 NAOKFM=F Big=F
 Integral buffers will be    131072 words long.
 Raffenetti 2 integral format.
 Two-electron integral symmetry is turned on.
 Leave Link  301 at Fri Mar 14 15:42:20 2025, MaxMem=  8589934592 cpu:               0.3 elap:               0.0
 (Enter /home/enzo/gaussian_versions/gdv.j21/gdv/l302.exe)
 NPDir=0 NMtPBC=     1 NCelOv=     1 NCel=       1 NClECP=     1 NCelD=      1
         NCelK=      1 NCelE2=     1 NClLst=     1 CellRange=     0.0.
 One-electron integrals computed using PRISM.
 One-electron integral symmetry used in STVInt
 NBasis=    85 RedAO= T EigKep=  3.88D-03  NBF=    85
 NBsUse=    85 1.00D-06 EigRej= -1.00D+00 NBFU=    85
 Precomputing XC quadrature grid using
 IXCGrd= 4 IRadAn=           5 IRanWt=          -1 IRanGd=           0 AccXCQ= 0.00D+00.
 Generated NRdTot=       0 NPtTot=      219406 NUsed=           0 NTot=          64
 NSgBfM=    85    85    85    85    85 MxSgAt=    10 MxSgA2=    10 SizInc=   0.000
 NMBTot=     1934 MaxBatPerAtom=       84 MaxMicBPerAtom=      201 NBfPt=            15880597.
 Leave Link  302 at Fri Mar 14 15:42:20 2025, MaxMem=  8589934592 cpu:               0.8 elap:               0.1
 (Enter /home/enzo/gaussian_versions/gdv.j21/gdv/l303.exe)
 DipDrv:  MaxL=1.
 Leave Link  303 at Fri Mar 14 15:42:20 2025, MaxMem=  8589934592 cpu:               0.2 elap:               0.1
 (Enter /home/enzo/gaussian_versions/gdv.j21/gdv/l401.exe)
 Initial guess from the checkpoint file:  "/local/home/enzo/scratch/Gau-2409754.chk"
 B after Tr=    -0.000000    0.000000   -0.000000
         Rot=    0.999957   -0.007884    0.000468    0.004783 Ang=  -1.06 deg.
 AO Guess basis will be translated and rotated to current coordinates.
 JPrj=2 DoOrth=T DoCkMO=T.
 Generating alternative initial guess.
 ExpMin= 1.61D-01 ExpMax= 5.48D+03 ExpMxC= 8.25D+02 IAcc=3 IRadAn=         5 AccDes= 0.00D+00
 Harris functional with IExCor= 4002 and IRadAn=       5 diagonalized for initial guess.
 HarFok:  IExCor=    4002 AccDes= 0.00D+00 IRadAn=         5 IDoV= 1 UseB2=F ITyADJ=14 ICtDFT=  3500011
 FoFCou: FMM=F IPFlag=           0 FMFlag=      100000 FMFlg1=           0
         NFxFlg=           0 DoJE=T BraDBF=F KetDBF=T FulRan=T
         wScrn=  0.000000 ICntrl=       500 IOpCl=  0 I1Cent=   200000004 NGrid=           0
         NMat0=    1 NMatS0=      1 NMatT0=    0 NMatD0=    1 NMtDS0=    0 NMtDT0=    0
 Petite list used in FoFCou.
 Harris En= -284.439967393279    
 Leave Link  401 at Fri Mar 14 15:42:20 2025, MaxMem=  8589934592 cpu:               1.8 elap:               0.2
 (Enter /home/enzo/gaussian_versions/gdv.j21/gdv/l502.exe)
 Keep R1 ints in memory in canonical form, NReq=17617987.
 FoFCou: FMM=F IPFlag=           0 FMFlag=           0 FMFlg1=           0
         NFxFlg=           0 DoJE=F BraDBF=F KetDBF=F FulRan=T
         wScrn=  0.000000 ICntrl=       600 IOpCl=  0 I1Cent=           0 NGrid=           0
         NMat0=    1 NMatS0=   3655 NMatT0=    0 NMatD0=    1 NMtDS0=    0 NMtDT0=    0
 Symmetry not used in FoFCou.
 Two-electron integral symmetry not used.
 Closed shell SCF:
 Using DIIS extrapolation, IDIIS=  1040.
 NGot=  8589934592 LenX=  8583230350 LenY=  8583222684
 Requested convergence on RMS density matrix=1.00D-08 within 128 cycles.
 Requested convergence on MAX density matrix=1.00D-06.
 Requested convergence on             energy=1.00D-06.
 No special actions if energy rises.
 Integral accuracy reduced to 1.0D-05 until final iterations.

 Cycle   1  Pass 0  IDiag  1:
 E= -284.415256427893    
 DIIS: error= 4.85D-03 at cycle   1 NSaved=   1.
 NSaved= 1 IEnMin= 1 EnMin= -284.415256427893     IErMin= 1 ErrMin= 4.85D-03
 ErrMax= 4.85D-03  0.00D+00 EMaxC= 1.00D-01 BMatC= 2.35D-03 BMatP= 2.35D-03
 IDIUse=3 WtCom= 9.52D-01 WtEn= 4.85D-02
 Coeff-Com:  0.100D+01
 Coeff-En:   0.100D+01
 Coeff:      0.100D+01
 Gap=     1.552 Goal=   None    Shift=    0.000
 GapD=    1.552 DampG=2.000 DampE=1.000 DampFc=2.0000 IDamp=-1.
 RMSDP=1.01D-03 MaxDP=9.85D-03              OVMax= 2.16D-02

 Cycle   2  Pass 0  IDiag  1:
 E= -284.419973270079     Delta-E=       -0.004716842186 Rises=F Damp=F
 DIIS: error= 3.99D-04 at cycle   2 NSaved=   2.
 NSaved= 2 IEnMin= 2 EnMin= -284.419973270079     IErMin= 2 ErrMin= 3.99D-04
 ErrMax= 3.99D-04  0.00D+00 EMaxC= 1.00D-01 BMatC= 3.15D-05 BMatP= 2.35D-03
 IDIUse=3 WtCom= 9.96D-01 WtEn= 3.99D-03
 Coeff-Com: -0.771D-01 0.108D+01
 Coeff-En:   0.000D+00 0.100D+01
 Coeff:     -0.768D-01 0.108D+01
 Gap=     0.247 Goal=   None    Shift=    0.000
 RMSDP=1.39D-04 MaxDP=1.60D-03 DE=-4.72D-03 OVMax= 2.94D-03

 Cycle   3  Pass 0  IDiag  1:
 E= -284.420022850940     Delta-E=       -0.000049580861 Rises=F Damp=F
 DIIS: error= 2.60D-04 at cycle   3 NSaved=   3.
 NSaved= 3 IEnMin= 3 EnMin= -284.420022850940     IErMin= 3 ErrMin= 2.60D-04
 ErrMax= 2.60D-04  0.00D+00 EMaxC= 1.00D-01 BMatC= 1.20D-05 BMatP= 3.15D-05
 IDIUse=3 WtCom= 9.97D-01 WtEn= 2.60D-03
 Coeff-Com: -0.377D-01 0.462D+00 0.576D+00
 Coeff-En:   0.000D+00 0.000D+00 0.100D+01
 Coeff:     -0.376D-01 0.460D+00 0.577D+00
 Gap=     0.246 Goal=   None    Shift=    0.000
 RMSDP=5.53D-05 MaxDP=1.23D-03 DE=-4.96D-05 OVMax= 1.89D-03

 Cycle   4  Pass 0  IDiag  1:
 E= -284.420028040715     Delta-E=       -0.000005189775 Rises=F Damp=F
 DIIS: error= 2.26D-04 at cycle   4 NSaved=   4.
 NSaved= 4 IEnMin= 4 EnMin= -284.420028040715     IErMin= 4 ErrMin= 2.26D-04
 ErrMax= 2.26D-04  0.00D+00 EMaxC= 1.00D-01 BMatC= 6.11D-06 BMatP= 1.20D-05
 IDIUse=3 WtCom= 9.98D-01 WtEn= 2.26D-03
 Coeff-Com: -0.140D-01 0.157D+00 0.408D+00 0.449D+00
 Coeff-En:   0.000D+00 0.000D+00 0.342D+00 0.658D+00
 Coeff:     -0.139D-01 0.156D+00 0.408D+00 0.449D+00
 Gap=     0.246 Goal=   None    Shift=    0.000
 RMSDP=2.44D-05 MaxDP=6.12D-04 DE=-5.19D-06 OVMax= 9.88D-04

 Cycle   5  Pass 0  IDiag  1:
 E= -284.420032553295     Delta-E=       -0.000004512580 Rises=F Damp=F
 DIIS: error= 3.60D-05 at cycle   5 NSaved=   5.
 NSaved= 5 IEnMin= 5 EnMin= -284.420032553295     IErMin= 5 ErrMin= 3.60D-05
 ErrMax= 3.60D-05  0.00D+00 EMaxC= 1.00D-01 BMatC= 2.35D-07 BMatP= 6.11D-06
 IDIUse=1 WtCom= 1.00D+00 WtEn= 0.00D+00
 Coeff-Com: -0.312D-02 0.296D-01 0.148D+00 0.230D+00 0.596D+00
 Coeff:     -0.312D-02 0.296D-01 0.148D+00 0.230D+00 0.596D+00
 Gap=     0.246 Goal=   None    Shift=    0.000
 RMSDP=5.46D-06 MaxDP=8.34D-05 DE=-4.51D-06 OVMax= 1.17D-04

 Initial convergence to 1.0D-05 achieved.  Increase integral accuracy.
 Cycle   6  Pass 1  IDiag  1:
 E= -284.420036533159     Delta-E=       -0.000003979864 Rises=F Damp=F
 DIIS: error= 6.14D-06 at cycle   1 NSaved=   1.
 NSaved= 1 IEnMin= 1 EnMin= -284.420036533159     IErMin= 1 ErrMin= 6.14D-06
 ErrMax= 6.14D-06  0.00D+00 EMaxC= 1.00D-01 BMatC= 1.06D-08 BMatP= 1.06D-08
 IDIUse=1 WtCom= 1.00D+00 WtEn= 0.00D+00
 Coeff-Com:  0.100D+01
 Coeff:      0.100D+01
 Gap=     0.246 Goal=   None    Shift=    0.000
 RMSDP=5.46D-06 MaxDP=8.34D-05 DE=-3.98D-06 OVMax= 6.14D-05

 Cycle   7  Pass 1  IDiag  1:
 E= -284.420036533059     Delta-E=        0.000000000099 Rises=F Damp=F
 DIIS: error= 7.57D-06 at cycle   2 NSaved=   2.
 NSaved= 2 IEnMin= 1 EnMin= -284.420036533159     IErMin= 1 ErrMin= 6.14D-06
 ErrMax= 7.57D-06  0.00D+00 EMaxC= 1.00D-01 BMatC= 1.44D-08 BMatP= 1.06D-08
 IDIUse=1 WtCom= 1.00D+00 WtEn= 0.00D+00
 Coeff-Com:  0.541D+00 0.459D+00
 Coeff:      0.541D+00 0.459D+00
 Gap=     0.246 Goal=   None    Shift=    0.000
 RMSDP=1.18D-06 MaxDP=2.16D-05 DE= 9.92D-11 OVMax= 2.81D-05

 Cycle   8  Pass 1  IDiag  1:
 E= -284.420036544836     Delta-E=       -0.000000011776 Rises=F Damp=F
 DIIS: error= 2.63D-06 at cycle   3 NSaved=   3.
 NSaved= 3 IEnMin= 3 EnMin= -284.420036544836     IErMin= 3 ErrMin= 2.63D-06
 ErrMax= 2.63D-06  0.00D+00 EMaxC= 1.00D-01 BMatC= 7.02D-10 BMatP= 1.06D-08
 IDIUse=1 WtCom= 1.00D+00 WtEn= 0.00D+00
 Coeff-Com:  0.233D+00 0.244D+00 0.523D+00
 Coeff:      0.233D+00 0.244D+00 0.523D+00
 Gap=     0.246 Goal=   None    Shift=    0.000
 RMSDP=3.66D-07 MaxDP=8.67D-06 DE=-1.18D-08 OVMax= 1.43D-05

 Cycle   9  Pass 1  IDiag  1:
 E= -284.420036545259     Delta-E=       -0.000000000423 Rises=F Damp=F
 DIIS: error= 1.28D-06 at cycle   4 NSaved=   4.
 NSaved= 4 IEnMin= 4 EnMin= -284.420036545259     IErMin= 4 ErrMin= 1.28D-06
 ErrMax= 1.28D-06  0.00D+00 EMaxC= 1.00D-01 BMatC= 2.09D-10 BMatP= 7.02D-10
 IDIUse=1 WtCom= 1.00D+00 WtEn= 0.00D+00
 Coeff-Com:  0.136D-01 0.424D-01 0.363D+00 0.581D+00
 Coeff:      0.136D-01 0.424D-01 0.363D+00 0.581D+00
 Gap=     0.246 Goal=   None    Shift=    0.000
 RMSDP=1.64D-07 MaxDP=3.02D-06 DE=-4.23D-10 OVMax= 5.45D-06

 Cycle  10  Pass 1  IDiag  1:
 E= -284.420036545431     Delta-E=       -0.000000000172 Rises=F Damp=F
 DIIS: error= 3.08D-07 at cycle   5 NSaved=   5.
 NSaved= 5 IEnMin= 5 EnMin= -284.420036545431     IErMin= 5 ErrMin= 3.08D-07
 ErrMax= 3.08D-07  0.00D+00 EMaxC= 1.00D-01 BMatC= 1.00D-11 BMatP= 2.09D-10
 IDIUse=1 WtCom= 1.00D+00 WtEn= 0.00D+00
 Coeff-Com: -0.231D-01-0.117D-01 0.986D-01 0.254D+00 0.682D+00
 Coeff:     -0.231D-01-0.117D-01 0.986D-01 0.254D+00 0.682D+00
 Gap=     0.246 Goal=   None    Shift=    0.000
 RMSDP=4.75D-08 MaxDP=6.72D-07 DE=-1.72D-10 OVMax= 1.70D-06

 Cycle  11  Pass 1  IDiag  1:
 E= -284.420036545442     Delta-E=       -0.000000000011 Rises=F Damp=F
 DIIS: error= 1.28D-07 at cycle   6 NSaved=   6.
 NSaved= 6 IEnMin= 6 EnMin= -284.420036545442     IErMin= 6 ErrMin= 1.28D-07
 ErrMax= 1.28D-07  0.00D+00 EMaxC= 1.00D-01 BMatC= 1.97D-12 BMatP= 1.00D-11
 IDIUse=1 WtCom= 1.00D+00 WtEn= 0.00D+00
 Coeff-Com: -0.147D-01-0.120D-01 0.862D-02 0.656D-01 0.371D+00 0.581D+00
 Coeff:     -0.147D-01-0.120D-01 0.862D-02 0.656D-01 0.371D+00 0.581D+00
 Gap=     0.246 Goal=   None    Shift=    0.000
 RMSDP=1.46D-08 MaxDP=2.32D-07 DE=-1.13D-11 OVMax= 4.93D-07

 Cycle  12  Pass 1  IDiag  1:
 E= -284.420036545443     Delta-E=       -0.000000000001 Rises=F Damp=F
 DIIS: error= 2.60D-08 at cycle   7 NSaved=   7.
 NSaved= 7 IEnMin= 7 EnMin= -284.420036545443     IErMin= 7 ErrMin= 2.60D-08
 ErrMax= 2.60D-08  0.00D+00 EMaxC= 1.00D-01 BMatC= 7.08D-14 BMatP= 1.97D-12
 IDIUse=1 WtCom= 1.00D+00 WtEn= 0.00D+00
 Coeff-Com: -0.513D-02-0.452D-02-0.870D-03 0.162D-01 0.128D+00 0.251D+00
 Coeff-Com:  0.616D+00
 Coeff:     -0.513D-02-0.452D-02-0.870D-03 0.162D-01 0.128D+00 0.251D+00
 Coeff:      0.616D+00
 Gap=     0.246 Goal=   None    Shift=    0.000
 RMSDP=3.19D-09 MaxDP=6.58D-08 DE=-7.39D-13 OVMax= 8.70D-08

 SCF Done:  E(RB3LYP) =  -284.420036545     A.U. after   12 cycles
            NFock= 12  Conv=0.32D-08     -V/T= 2.0089
 KE= 2.819187053685D+02 PE=-1.025121183918D+03 EE= 2.793425337819D+02
 Leave Link  502 at Fri Mar 14 15:42:21 2025, MaxMem=  8589934592 cpu:               8.6 elap:               0.8
 (Enter /home/enzo/gaussian_versions/gdv.j21/gdv/l701.exe)
 ... and contract with generalized density number  0.
 Compute integral first derivatives.
 Leave Link  701 at Fri Mar 14 15:42:21 2025, MaxMem=  8589934592 cpu:               0.7 elap:               0.1
 (Enter /home/enzo/gaussian_versions/gdv.j21/gdv/l702.exe)
 L702 exits ... SP integral derivatives will be done elsewhere.
 Leave Link  702 at Fri Mar 14 15:42:21 2025, MaxMem=  8589934592 cpu:               0.1 elap:               0.0
 (Enter /home/enzo/gaussian_versions/gdv.j21/gdv/l703.exe)
 Integral derivatives from FoFJK, PRISM(SPDF).
 Compute integral first derivatives, UseDBF=F ICtDFT=           0.
 Calling FoFJK, ICntrl=      2127 FMM=F ISym2X=0 I1Cent= 0 IOpClX= 0 NMat=1 NMatS=1 NMatT=0.
 FoFJK:  IHMeth= 1 ICntrl=    2127 DoSepK=F KAlg= 0 I1Cent=           0 FoldK=F
 IRaf=         0 NMat=       1 IRICut=       1 DoRegI=T DoRafI=F ISym2E= 0 IDoP0=0 IntGTp=1.
 FoFCou: FMM=F IPFlag=           0 FMFlag=      100000 FMFlg1=         800
         NFxFlg=           0 DoJE=F BraDBF=F KetDBF=F FulRan=T
         wScrn=  0.000000 ICntrl=      2127 IOpCl=  0 I1Cent=           0 NGrid=           0
         NMat0=    1 NMatS0=      1 NMatT0=    0 NMatD0=    1 NMtDS0=    0 NMtDT0=    0
 Symmetry not used in FoFCou.
 Leave Link  703 at Fri Mar 14 15:42:22 2025, MaxMem=  8589934592 cpu:               3.1 elap:               0.3
 (Enter /home/enzo/gaussian_versions/gdv.j21/gdv/l716.exe)
 Dipole        =-8.18794817D-02-5.55656306D-01 5.75325691D-01
 ***** Axes restored to original set *****
 -------------------------------------------------------------------
 Center     Atomic                   Forces (Hartrees/Bohr)
 Number     Number              X              Y              Z
 -------------------------------------------------------------------
      1        7          -0.000911220   -0.000333303   -0.000018043
      2        6           0.000568944   -0.000727936    0.000868787
      3        6          -0.000044802    0.000016530    0.000282947
      4        8           0.000381088   -0.000091950   -0.000394923
      5        8          -0.000296983   -0.000001127   -0.000086326
      6        1           0.000186993    0.000187848   -0.000241254
      7        1           0.000181117    0.000256736    0.000182542
      8        1           0.000049790    0.000227424   -0.000053710
      9        1          -0.000216815    0.000412383   -0.000459913
     10        1           0.000101887    0.000053395   -0.000080104
 -------------------------------------------------------------------
 Cartesian Forces:  Max     0.000911220 RMS     0.000356070
 Leave Link  716 at Fri Mar 14 15:42:22 2025, MaxMem=  8589934592 cpu:               0.1 elap:               0.0
 (Enter /home/enzo/gaussian_versions/gdv.j21/gdv/l103.exe)

 GradGradGradGradGradGradGradGradGradGradGradGradGradGradGradGradGradGrad
 Berny optimization.
 Using GEDIIS/GDIIS optimizer.
 FormGI is forming the generalized inverse of G from B-inverse, IUseBI=4.
 Internal  Forces:  Max     0.000633657 RMS     0.000230164
 Search for a local minimum.
 Step number  20 out of a maximum of   46
 All quantities printed in internal units (Hartrees-Bohrs-Radians)
 RMS Force = .23016D-03 SwitMx=.10000D-02 MixMth= 2
 Mixed Optimization -- En-DIIS/RFO-DIIS
 Swapping is turned off.
 Update second derivatives using D2CorX and points   17   18   16   19   20
 DE= -9.18D-05 DEPred=-1.25D-04 R= 7.35D-01
 TightC=F SS=  1.41D+00  RLast= 3.61D-01 DXNew= 8.5994D-01 1.0832D+00
 Trust test= 7.35D-01 RLast= 3.61D-01 DXMaxT set to 8.60D-01
 ITU=  1  0 -1 -1  1  1  1  0  1  0  1  1  1  1  1  1  0  1  1  0
     Eigenvalues ---    0.00158   0.00347   0.02056   0.04137   0.04579
     Eigenvalues ---    0.05933   0.06804   0.09418   0.13311   0.15935
     Eigenvalues ---    0.16250   0.17147   0.20227   0.23009   0.27317
     Eigenvalues ---    0.30486   0.32173   0.32891   0.35736   0.40667
     Eigenvalues ---    0.41897   0.44501   0.49778   0.83818
 En-DIIS/RFO-DIIS/Sim-DIIS IScMMF=       -3 using points:    20   19
 RFO step:  Lambda=-1.49963044D-05.
 NNeg= 0 NGDIIS= 2 SimSw=  2.50D-03 Rises=F DC= -9.18D-05 SmlDif=  1.00D-05
 NRisDI= 0 DoIntr=F SqrtH=F CThrHd= 10.0 CDAdj=  3.0
 RMS Error=  0.8271355732D-02 NUsed= 2 OKEnD=T EnDIS=F
 InvSVX:  RCond= 1.45D-01 Info=           0 Equed=N FErr=  9.97D-16 BErr=  5.18D-17
 DidBck=FF Rises=F RFO-DIIS coefs:    0.89880    0.10120
 Iteration  1 RMS(Cart)=  0.01014740 RMS(Int)=  0.00005219
 Iteration  2 RMS(Cart)=  0.00007119 RMS(Int)=  0.00000065
 Iteration  3 RMS(Cart)=  0.00000000 RMS(Int)=  0.00000065
 Variable       Old X    -DE/DX   Delta X   Delta X   Delta X     New X
                                 (Linear)    (Quad)   (Total)
    R1        2.74829   0.00044   0.00029   0.00136   0.00165   2.74994
    R2        1.92180  -0.00033  -0.00006  -0.00054  -0.00060   1.92120
    R3        1.92448  -0.00024  -0.00001  -0.00026  -0.00027   1.92420
    R4        2.86247   0.00026   0.00030  -0.00007   0.00023   2.86269
    R5        2.07102   0.00016  -0.00011   0.00041   0.00031   2.07133
    R6        2.09536  -0.00063  -0.00016  -0.00170  -0.00186   2.09350
    R7        2.28777   0.00046   0.00016   0.00027   0.00043   2.28821
    R8        2.55762  -0.00021  -0.00025  -0.00040  -0.00065   2.55697
    R9        1.84387   0.00013   0.00017   0.00002   0.00019   1.84406
    A1        1.92354   0.00028  -0.00018   0.00131   0.00113   1.92466
    A2        1.90230  -0.00036  -0.00028  -0.00206  -0.00235   1.89995
    A3        1.88106   0.00011   0.00001   0.00011   0.00012   1.88118
    A4        1.91727   0.00014  -0.00004  -0.00032  -0.00036   1.91691
    A5        1.93257  -0.00009  -0.00020  -0.00018  -0.00038   1.93219
    A6        2.01799  -0.00009  -0.00023  -0.00091  -0.00114   2.01685
    A7        1.89944  -0.00015   0.00029  -0.00121  -0.00092   1.89851
    A8        1.84102   0.00009  -0.00046   0.00167   0.00121   1.84222
    A9        1.85017   0.00009   0.00068   0.00100   0.00168   1.85185
   A10        2.18046   0.00049   0.00007   0.00115   0.00122   2.18168
   A11        1.95246  -0.00027   0.00008  -0.00080  -0.00073   1.95173
   A12        2.14931  -0.00022  -0.00017  -0.00020  -0.00037   2.14894
   A13        1.85313   0.00003  -0.00013   0.00042   0.00029   1.85341
    D1        2.78394   0.00011   0.00759  -0.01045  -0.00285   2.78109
    D2       -1.40078  -0.00004   0.00780  -0.01228  -0.00448  -1.40526
    D3        0.70345  -0.00005   0.00838  -0.01176  -0.00338   0.70007
    D4        0.72296   0.00004   0.00786  -0.01011  -0.00225   0.72071
    D5        2.82143  -0.00012   0.00806  -0.01194  -0.00388   2.81755
    D6       -1.35753  -0.00012   0.00864  -0.01142  -0.00278  -1.36031
    D7       -0.36835  -0.00007  -0.01267  -0.00582  -0.01849  -0.38684
    D8        2.81899  -0.00017  -0.01205  -0.00947  -0.02152   2.79748
    D9       -2.48680   0.00005  -0.01259  -0.00463  -0.01722  -2.50402
   D10        0.70054  -0.00005  -0.01196  -0.00828  -0.02024   0.68030
   D11        1.81759  -0.00004  -0.01327  -0.00606  -0.01932   1.79826
   D12       -1.27826  -0.00013  -0.01264  -0.00971  -0.02235  -1.30060
   D13        3.08535   0.00011  -0.00075   0.00384   0.00308   3.08843
   D14       -0.01145  -0.00001  -0.00015   0.00022   0.00007  -0.01137
         Item               Value     Threshold  Converged?
 Maximum Force            0.000634     0.000450     NO 
 RMS     Force            0.000230     0.000300     YES
 Maximum Displacement     0.033512     0.001800     NO 
 RMS     Displacement     0.010151     0.001200     NO 
 Predicted change in Energy=-7.517025D-06
 Lowest energy point so far.  Saving SCF results.
 GradGradGradGradGradGradGradGradGradGradGradGradGradGradGradGradGradGrad

 Leave Link  103 at Fri Mar 14 15:42:22 2025, MaxMem=  8589934592 cpu:               0.2 elap:               0.1
 (Enter /home/enzo/gaussian_versions/gdv.j21/gdv/l202.exe)
                          Input orientation:                          
 ---------------------------------------------------------------------
 Center     Atomic      Atomic             Coordinates (Angstroms)
 Number     Number       Type             X           Y           Z
 ---------------------------------------------------------------------
      1          7           0       -2.038807   -0.100553   -0.389850
      2          6           0       -0.952394    0.054401    0.565827
      3          6           0        0.370987    0.126950   -0.167821
      4          8           0        0.571139   -0.299944   -1.283124
      5          8           0        1.338974    0.685788    0.594776
      6          1           0       -2.860579   -0.483691    0.070019
      7          1           0       -1.751007   -0.758764   -1.111483
      8          1           0       -1.080798    0.970795    1.153338
      9          1           0       -0.840480   -0.767932    1.299676
     10          1           0        2.158343    0.646673    0.066235
 ---------------------------------------------------------------------
                    Distance matrix (angstroms):
                    1          2          3          4          5
     1  N    0.000000
     2  C    1.455206   0.000000
     3  C    2.430671   1.514873   0.000000
     4  O    2.765775   2.421845   1.210868   0.000000
     5  O    3.605166   2.376942   1.353090   2.255603   0.000000
     6  H    1.016653   2.043658   3.297343   3.693433   4.390820
     7  H    1.018245   2.027903   2.485527   2.373255   3.813926
     8  H    2.108790   1.096100   2.136636   3.206247   2.499703
     9  H    2.176207   1.107831   2.102858   2.980358   2.712970
    10  H    4.287474   3.205786   1.876043   2.288246   0.975834
                    6          7          8          9         10
     6  H    0.000000
     7  H    1.644008   0.000000
     8  H    2.541010   2.927451   0.000000
     9  H    2.381942   2.577368   1.761346   0.000000
    10  H    5.144640   4.318020   3.432038   3.537715   0.000000
 Stoichiometry    C2H5NO2
 Framework group  C1[X(C2H5NO2)]
 Deg. of freedom    24
 Full point group                 C1      NOp   1
 RotChk:  IX=0 Diff= 1.46D-02
 Largest Abelian subgroup         C1      NOp   1
 Largest concise Abelian subgroup C1      NOp   1
                         Standard orientation:                         
 ---------------------------------------------------------------------
 Center     Atomic      Atomic             Coordinates (Angstroms)
 Number     Number       Type             X           Y           Z
 ---------------------------------------------------------------------
      1          7           0        1.880852    0.104149   -0.221851
      2          6           0        0.732407   -0.715338    0.134713
      3          6           0       -0.538034    0.101369    0.017202
      4          8           0       -0.592516    1.310405    0.055480
      5          8           0       -1.634154   -0.685329   -0.085162
      6          1           0        2.732079   -0.294728    0.165307
      7          1           0        1.760994    1.031740    0.180681
      8          1           0        0.655658   -1.584583   -0.528581
      9          1           0        0.733428   -1.116065    1.167528
     10          1           0       -2.401003   -0.082205   -0.106011
 ---------------------------------------------------------------------
 Rotational constants (GHZ):          10.3016054           3.9529080           2.9490812
 Leave Link  202 at Fri Mar 14 15:42:22 2025, MaxMem=  8589934592 cpu:               0.1 elap:               0.0
 (Enter /home/enzo/gaussian_versions/gdv.j21/gdv/l301.exe)
 Standard basis: 6-31G(d) (6D, 7F)
 Ernie: Thresh=  0.10000D-02 Tol=  0.10000D-05 Strict=F.
 There are    85 symmetry adapted cartesian basis functions of A   symmetry.
 There are    85 symmetry adapted basis functions of A   symmetry.
    85 basis functions,   160 primitive gaussians,    85 cartesian basis functions
    20 alpha electrons       20 beta electrons
       nuclear repulsion energy       179.4256091081 Hartrees.
 IExCor=      4002 DFT=T Ex+Corr=B3LYP ScaHFX=  0.200000
 ScaDFX=  0.800000  0.720000  1.000000  0.810000  1.000000  0.000000
 ScaDFX=  0.000000  0.000000  0.000000  0.000000  0.000000  0.000000
 IRadAn=      5 IRanWt=     -1 IRanGd=            0 ICorTp=0 IEmpDi=  4
 NAtoms=   10 NActive=   10 NUniq=   10 SFac= 1.00D+00 NAtFMM=   60 NAOKFM=F Big=F
 Integral buffers will be    131072 words long.
 Raffenetti 2 integral format.
 Two-electron integral symmetry is turned on.
 Leave Link  301 at Fri Mar 14 15:42:22 2025, MaxMem=  8589934592 cpu:               0.3 elap:               0.0
 (Enter /home/enzo/gaussian_versions/gdv.j21/gdv/l302.exe)
 NPDir=0 NMtPBC=     1 NCelOv=     1 NCel=       1 NClECP=     1 NCelD=      1
         NCelK=      1 NCelE2=     1 NClLst=     1 CellRange=     0.0.
 One-electron integrals computed using PRISM.
 One-electron integral symmetry used in STVInt
 NBasis=    85 RedAO= T EigKep=  3.86D-03  NBF=    85
 NBsUse=    85 1.00D-06 EigRej= -1.00D+00 NBFU=    85
 Precomputing XC quadrature grid using
 IXCGrd= 4 IRadAn=           5 IRanWt=          -1 IRanGd=           0 AccXCQ= 0.00D+00.
 Generated NRdTot=       0 NPtTot=      219435 NUsed=           0 NTot=          64
 NSgBfM=    85    85    85    85    85 MxSgAt=    10 MxSgA2=    10 SizInc=   0.000
 NMBTot=     1938 MaxBatPerAtom=       84 MaxMicBPerAtom=      201 NBfPt=            15883777.
 Leave Link  302 at Fri Mar 14 15:42:22 2025, MaxMem=  8589934592 cpu:               0.8 elap:               0.1
 (Enter /home/enzo/gaussian_versions/gdv.j21/gdv/l303.exe)
 DipDrv:  MaxL=1.
 Leave Link  303 at Fri Mar 14 15:42:22 2025, MaxMem=  8589934592 cpu:               0.1 elap:               0.0
 (Enter /home/enzo/gaussian_versions/gdv.j21/gdv/l401.exe)
 Initial guess from the checkpoint file:  "/local/home/enzo/scratch/Gau-2409754.chk"
 B after Tr=    -0.000000   -0.000000    0.000000
         Rot=    0.999999    0.001153   -0.000105   -0.000745 Ang=   0.16 deg.
 AO Guess basis will be translated and rotated to current coordinates.
 JPrj=2 DoOrth=T DoCkMO=T.
 Generating alternative initial guess.
 ExpMin= 1.61D-01 ExpMax= 5.48D+03 ExpMxC= 8.25D+02 IAcc=3 IRadAn=         5 AccDes= 0.00D+00
 Harris functional with IExCor= 4002 and IRadAn=       5 diagonalized for initial guess.
 HarFok:  IExCor=    4002 AccDes= 0.00D+00 IRadAn=         5 IDoV= 1 UseB2=F ITyADJ=14 ICtDFT=  3500011
 FoFCou: FMM=F IPFlag=           0 FMFlag=      100000 FMFlg1=           0
         NFxFlg=           0 DoJE=T BraDBF=F KetDBF=T FulRan=T
         wScrn=  0.000000 ICntrl=       500 IOpCl=  0 I1Cent=   200000004 NGrid=           0
         NMat0=    1 NMatS0=      1 NMatT0=    0 NMatD0=    1 NMtDS0=    0 NMtDT0=    0
 Petite list used in FoFCou.
 Harris En= -284.439968780845    
 Leave Link  401 at Fri Mar 14 15:42:22 2025, MaxMem=  8589934592 cpu:               2.0 elap:               0.2
 (Enter /home/enzo/gaussian_versions/gdv.j21/gdv/l502.exe)
 Keep R1 ints in memory in canonical form, NReq=17617987.
 FoFCou: FMM=F IPFlag=           0 FMFlag=           0 FMFlg1=           0
         NFxFlg=           0 DoJE=F BraDBF=F KetDBF=F FulRan=T
         wScrn=  0.000000 ICntrl=       600 IOpCl=  0 I1Cent=           0 NGrid=           0
         NMat0=    1 NMatS0=   3655 NMatT0=    0 NMatD0=    1 NMtDS0=    0 NMtDT0=    0
 Symmetry not used in FoFCou.
 Two-electron integral symmetry not used.
 Closed shell SCF:
 Using DIIS extrapolation, IDIIS=  1040.
 NGot=  8589934592 LenX=  8583230350 LenY=  8583222684
 Requested convergence on RMS density matrix=1.00D-08 within 128 cycles.
 Requested convergence on MAX density matrix=1.00D-06.
 Requested convergence on             energy=1.00D-06.
 No special actions if energy rises.
 Integral accuracy reduced to 1.0D-05 until final iterations.

 Cycle   1  Pass 0  IDiag  1:
 E= -284.419897430863    
 DIIS: error= 6.94D-04 at cycle   1 NSaved=   1.
 NSaved= 1 IEnMin= 1 EnMin= -284.419897430863     IErMin= 1 ErrMin= 6.94D-04
 ErrMax= 6.94D-04  0.00D+00 EMaxC= 1.00D-01 BMatC= 7.10D-05 BMatP= 7.10D-05
 IDIUse=3 WtCom= 9.93D-01 WtEn= 6.94D-03
 Coeff-Com:  0.100D+01
 Coeff-En:   0.100D+01
 Coeff:      0.100D+01
 Gap=     1.554 Goal=   None    Shift=    0.000
 RMSDP=1.78D-04 MaxDP=1.96D-03              OVMax= 3.76D-03

 Cycle   2  Pass 0  IDiag  1:
 E= -284.420038929770     Delta-E=       -0.000141498907 Rises=F Damp=F
 DIIS: error= 6.90D-05 at cycle   2 NSaved=   2.
 NSaved= 2 IEnMin= 2 EnMin= -284.420038929770     IErMin= 2 ErrMin= 6.90D-05
 ErrMax= 6.90D-05  0.00D+00 EMaxC= 1.00D-01 BMatC= 1.06D-06 BMatP= 7.10D-05
 IDIUse=1 WtCom= 1.00D+00 WtEn= 0.00D+00
 Coeff-Com: -0.740D-01 0.107D+01
 Coeff:     -0.740D-01 0.107D+01
 Gap=     0.246 Goal=   None    Shift=    0.000
 RMSDP=2.64D-05 MaxDP=3.55D-04 DE=-1.41D-04 OVMax= 5.99D-04

 Cycle   3  Pass 0  IDiag  1:
 E= -284.420040150490     Delta-E=       -0.000001220720 Rises=F Damp=F
 DIIS: error= 8.92D-05 at cycle   3 NSaved=   3.
 NSaved= 3 IEnMin= 3 EnMin= -284.420040150490     IErMin= 2 ErrMin= 6.90D-05
 ErrMax= 8.92D-05  0.00D+00 EMaxC= 1.00D-01 BMatC= 8.85D-07 BMatP= 1.06D-06
 IDIUse=1 WtCom= 1.00D+00 WtEn= 0.00D+00
 Coeff-Com: -0.456D-01 0.573D+00 0.472D+00
 Coeff:     -0.456D-01 0.573D+00 0.472D+00
 Gap=     0.246 Goal=   None    Shift=    0.000
 RMSDP=1.12D-05 MaxDP=2.11D-04 DE=-1.22D-06 OVMax= 4.26D-04

 Cycle   4  Pass 0  IDiag  1:
 E= -284.420040734874     Delta-E=       -0.000000584384 Rises=F Damp=F
 DIIS: error= 3.74D-05 at cycle   4 NSaved=   4.
 NSaved= 4 IEnMin= 4 EnMin= -284.420040734874     IErMin= 4 ErrMin= 3.74D-05
 ErrMax= 3.74D-05  0.00D+00 EMaxC= 1.00D-01 BMatC= 1.57D-07 BMatP= 8.85D-07
 IDIUse=1 WtCom= 1.00D+00 WtEn= 0.00D+00
 Coeff-Com: -0.155D-01 0.172D+00 0.299D+00 0.544D+00
 Coeff:     -0.155D-01 0.172D+00 0.299D+00 0.544D+00
 Gap=     0.246 Goal=   None    Shift=    0.000
 RMSDP=4.15D-06 MaxDP=9.69D-05 DE=-5.84D-07 OVMax= 1.66D-04

 Initial convergence to 1.0D-05 achieved.  Increase integral accuracy.
 Cycle   5  Pass 1  IDiag  1:
 E= -284.420044949504     Delta-E=       -0.000004214630 Rises=F Damp=F
 DIIS: error= 1.26D-05 at cycle   1 NSaved=   1.
 NSaved= 1 IEnMin= 1 EnMin= -284.420044949504     IErMin= 1 ErrMin= 1.26D-05
 ErrMax= 1.26D-05  0.00D+00 EMaxC= 1.00D-01 BMatC= 1.80D-08 BMatP= 1.80D-08
 IDIUse=1 WtCom= 1.00D+00 WtEn= 0.00D+00
 Coeff-Com:  0.100D+01
 Coeff:      0.100D+01
 Gap=     0.246 Goal=   None    Shift=    0.000
 RMSDP=4.15D-06 MaxDP=9.69D-05 DE=-4.21D-06 OVMax= 1.04D-04

 Cycle   6  Pass 1  IDiag  1:
 E= -284.420044913774     Delta-E=        0.000000035731 Rises=F Damp=F
 DIIS: error= 2.55D-05 at cycle   2 NSaved=   2.
 NSaved= 2 IEnMin= 1 EnMin= -284.420044949504     IErMin= 1 ErrMin= 1.26D-05
 ErrMax= 2.55D-05  0.00D+00 EMaxC= 1.00D-01 BMatC= 6.53D-08 BMatP= 1.80D-08
 IDIUse=1 WtCom= 1.00D+00 WtEn= 0.00D+00
 Coeff-Com:  0.659D+00 0.341D+00
 Coeff:      0.659D+00 0.341D+00
 Gap=     0.246 Goal=   None    Shift=    0.000
 RMSDP=2.33D-06 MaxDP=5.71D-05 DE= 3.57D-08 OVMax= 8.22D-05

 Cycle   7  Pass 1  IDiag  1:
 E= -284.420044963504     Delta-E=       -0.000000049730 Rises=F Damp=F
 DIIS: error= 2.89D-06 at cycle   3 NSaved=   3.
 NSaved= 3 IEnMin= 3 EnMin= -284.420044963504     IErMin= 3 ErrMin= 2.89D-06
 ErrMax= 2.89D-06  0.00D+00 EMaxC= 1.00D-01 BMatC= 1.15D-09 BMatP= 1.80D-08
 IDIUse=1 WtCom= 1.00D+00 WtEn= 0.00D+00
 Coeff-Com:  0.375D+00 0.210D+00 0.416D+00
 Coeff:      0.375D+00 0.210D+00 0.416D+00
 Gap=     0.246 Goal=   None    Shift=    0.000
 RMSDP=3.22D-07 MaxDP=6.01D-06 DE=-4.97D-08 OVMax= 1.10D-05

 Cycle   8  Pass 1  IDiag  1:
 E= -284.420044964402     Delta-E=       -0.000000000898 Rises=F Damp=F
 DIIS: error= 3.41D-07 at cycle   4 NSaved=   4.
 NSaved= 4 IEnMin= 4 EnMin= -284.420044964402     IErMin= 4 ErrMin= 3.41D-07
 ErrMax= 3.41D-07  0.00D+00 EMaxC= 1.00D-01 BMatC= 1.95D-11 BMatP= 1.15D-09
 IDIUse=1 WtCom= 1.00D+00 WtEn= 0.00D+00
 Coeff-Com:  0.140D-01 0.125D-01 0.109D+00 0.864D+00
 Coeff:      0.140D-01 0.125D-01 0.109D+00 0.864D+00
 Gap=     0.246 Goal=   None    Shift=    0.000
 RMSDP=7.06D-08 MaxDP=1.38D-06 DE=-8.98D-10 OVMax= 2.83D-06

 Cycle   9  Pass 1  IDiag  1:
 E= -284.420044964416     Delta-E=       -0.000000000014 Rises=F Damp=F
 DIIS: error= 1.90D-07 at cycle   5 NSaved=   5.
 NSaved= 5 IEnMin= 5 EnMin= -284.420044964416     IErMin= 5 ErrMin= 1.90D-07
 ErrMax= 1.90D-07  0.00D+00 EMaxC= 1.00D-01 BMatC= 8.39D-12 BMatP= 1.95D-11
 IDIUse=1 WtCom= 1.00D+00 WtEn= 0.00D+00
 Coeff-Com: -0.295D-01-0.136D-01 0.226D-01 0.504D+00 0.517D+00
 Coeff:     -0.295D-01-0.136D-01 0.226D-01 0.504D+00 0.517D+00
 Gap=     0.246 Goal=   None    Shift=    0.000
 RMSDP=2.62D-08 MaxDP=5.83D-07 DE=-1.43D-11 OVMax= 7.40D-07

 Cycle  10  Pass 1  IDiag  1:
 E= -284.420044964425     Delta-E=       -0.000000000009 Rises=F Damp=F
 DIIS: error= 2.47D-08 at cycle   6 NSaved=   6.
 NSaved= 6 IEnMin= 6 EnMin= -284.420044964425     IErMin= 6 ErrMin= 2.47D-08
 ErrMax= 2.47D-08  0.00D+00 EMaxC= 1.00D-01 BMatC= 1.49D-13 BMatP= 8.39D-12
 IDIUse=1 WtCom= 1.00D+00 WtEn= 0.00D+00
 Coeff-Com: -0.976D-02-0.493D-02 0.313D-03 0.102D+00 0.160D+00 0.753D+00
 Coeff:     -0.976D-02-0.493D-02 0.313D-03 0.102D+00 0.160D+00 0.753D+00
 Gap=     0.246 Goal=   None    Shift=    0.000
 RMSDP=6.90D-09 MaxDP=9.04D-08 DE=-8.98D-12 OVMax= 2.68D-07

 SCF Done:  E(RB3LYP) =  -284.420044964     A.U. after   10 cycles
            NFock= 10  Conv=0.69D-08     -V/T= 2.0089
 KE= 2.819189285567D+02 PE=-1.025090969760D+03 EE= 2.793263871304D+02
 Leave Link  502 at Fri Mar 14 15:42:23 2025, MaxMem=  8589934592 cpu:               6.2 elap:               0.5
 (Enter /home/enzo/gaussian_versions/gdv.j21/gdv/l701.exe)
 ... and contract with generalized density number  0.
 Compute integral first derivatives.
 Leave Link  701 at Fri Mar 14 15:42:23 2025, MaxMem=  8589934592 cpu:               0.7 elap:               0.1
 (Enter /home/enzo/gaussian_versions/gdv.j21/gdv/l702.exe)
 L702 exits ... SP integral derivatives will be done elsewhere.
 Leave Link  702 at Fri Mar 14 15:42:23 2025, MaxMem=  8589934592 cpu:               0.1 elap:               0.0
 (Enter /home/enzo/gaussian_versions/gdv.j21/gdv/l703.exe)
 Integral derivatives from FoFJK, PRISM(SPDF).
 Compute integral first derivatives, UseDBF=F ICtDFT=           0.
 Calling FoFJK, ICntrl=      2127 FMM=F ISym2X=0 I1Cent= 0 IOpClX= 0 NMat=1 NMatS=1 NMatT=0.
 FoFJK:  IHMeth= 1 ICntrl=    2127 DoSepK=F KAlg= 0 I1Cent=           0 FoldK=F
 IRaf=         0 NMat=       1 IRICut=       1 DoRegI=T DoRafI=F ISym2E= 0 IDoP0=0 IntGTp=1.
 FoFCou: FMM=F IPFlag=           0 FMFlag=      100000 FMFlg1=         800
         NFxFlg=           0 DoJE=F BraDBF=F KetDBF=F FulRan=T
         wScrn=  0.000000 ICntrl=      2127 IOpCl=  0 I1Cent=           0 NGrid=           0
         NMat0=    1 NMatS0=      1 NMatT0=    0 NMatD0=    1 NMtDS0=    0 NMtDT0=    0
 Symmetry not used in FoFCou.
 Leave Link  703 at Fri Mar 14 15:42:23 2025, MaxMem=  8589934592 cpu:               3.5 elap:               0.3
 (Enter /home/enzo/gaussian_versions/gdv.j21/gdv/l716.exe)
 Dipole        =-8.02731042D-02-5.48227240D-01 5.73985017D-01
 ***** Axes restored to original set *****
 -------------------------------------------------------------------
 Center     Atomic                   Forces (Hartrees/Bohr)
 Number     Number              X              Y              Z
 -------------------------------------------------------------------
      1        7          -0.000233081   -0.000149554   -0.000037815
      2        6           0.000031739   -0.000156996    0.000350639
      3        6          -0.000006618    0.000187256    0.000008649
      4        8           0.000085288   -0.000072314   -0.000112853
      5        8          -0.000018746   -0.000018506   -0.000010375
      6        1           0.000050028    0.000057484   -0.000037318
      7        1           0.000077477    0.000080560    0.000010196
      8        1           0.000043288    0.000012462   -0.000067628
      9        1          -0.000089869    0.000071652   -0.000080314
     10        1           0.000060494   -0.000012044   -0.000023182
 -------------------------------------------------------------------
 Cartesian Forces:  Max     0.000350639 RMS     0.000106200
 Leave Link  716 at Fri Mar 14 15:42:23 2025, MaxMem=  8589934592 cpu:               0.1 elap:               0.0
 (Enter /home/enzo/gaussian_versions/gdv.j21/gdv/l103.exe)

 GradGradGradGradGradGradGradGradGradGradGradGradGradGradGradGradGradGrad
 Berny optimization.
 Using GEDIIS/GDIIS optimizer.
 FormGI is forming the generalized inverse of G from B-inverse, IUseBI=4.
 Internal  Forces:  Max     0.000176217 RMS     0.000064089
 Search for a local minimum.
 Step number  21 out of a maximum of   46
 All quantities printed in internal units (Hartrees-Bohrs-Radians)
 RMS Force = .64089D-04 SwitMx=.10000D-02 MixMth= 2
 Mixed Optimization -- En-DIIS/RFO-DIIS
 Swapping is turned off.
 Update second derivatives using D2CorX and points   17   18   16   19   20
                                                     21
 DE= -8.42D-06 DEPred=-7.52D-06 R= 1.12D+00
 TightC=F SS=  1.41D+00  RLast= 4.98D-02 DXNew= 1.4462D+00 1.4953D-01
 Trust test= 1.12D+00 RLast= 4.98D-02 DXMaxT set to 8.60D-01
 ITU=  1  1  0 -1 -1  1  1  1  0  1  0  1  1  1  1  1  1  0  1  1
 ITU=  0
     Eigenvalues ---    0.00160   0.00313   0.02090   0.04093   0.04658
     Eigenvalues ---    0.05936   0.06659   0.09396   0.12607   0.15663
     Eigenvalues ---    0.16354   0.17193   0.21502   0.22878   0.27200
     Eigenvalues ---    0.30856   0.31205   0.32819   0.36082   0.40607
     Eigenvalues ---    0.41655   0.44542   0.50243   0.83614
 En-DIIS/RFO-DIIS/Sim-DIIS IScMMF=       -3 using points:    21   20   19
 RFO step:  Lambda=-1.48640485D-06.
 NNeg= 0 NGDIIS= 3 SimSw=  2.50D-01 Rises=F DC= -8.42D-06 SmlDif=  1.00D-05
 NRisDI= 0 DoIntr=F SqrtH=F CThrHd= 10.0 CDAdj=  3.0
 RMS Error=  0.3137382236D-02 NUsed= 3 OKEnD=F EnDIS=F
 InvSVX:  RCond= 1.85D-04 Info=           0 Equed=N FErr=  3.44D-15 BErr=  8.47D-17
 DidBck=FF Rises=F RFO-DIIS coefs:    1.43276   -0.35043   -0.08233
 Iteration  1 RMS(Cart)=  0.00311813 RMS(Int)=  0.00001016
 Iteration  2 RMS(Cart)=  0.00000977 RMS(Int)=  0.00000054
 Iteration  3 RMS(Cart)=  0.00000000 RMS(Int)=  0.00000054
 Variable       Old X    -DE/DX   Delta X   Delta X   Delta X     New X
                                 (Linear)    (Quad)   (Total)
    R1        2.74994   0.00012   0.00048   0.00006   0.00053   2.75047
    R2        1.92120  -0.00008  -0.00021  -0.00012  -0.00034   1.92086
    R3        1.92420  -0.00004  -0.00011  -0.00001  -0.00012   1.92409
    R4        2.86269   0.00018  -0.00014   0.00066   0.00052   2.86321
    R5        2.07133  -0.00003   0.00022  -0.00022   0.00000   2.07133
    R6        2.09350  -0.00012  -0.00067   0.00001  -0.00066   2.09283
    R7        2.28821   0.00014   0.00006   0.00019   0.00024   2.28845
    R8        2.55697  -0.00000  -0.00008  -0.00009  -0.00017   2.55680
    R9        1.84406   0.00006  -0.00005   0.00016   0.00010   1.84416
    A1        1.92466   0.00004   0.00064  -0.00004   0.00060   1.92526
    A2        1.89995  -0.00010  -0.00078  -0.00006  -0.00085   1.89911
    A3        1.88118   0.00006   0.00004   0.00065   0.00069   1.88187
    A4        1.91691  -0.00007  -0.00012  -0.00018  -0.00030   1.91661
    A5        1.93219   0.00003  -0.00000   0.00036   0.00035   1.93254
    A6        2.01685  -0.00004  -0.00031  -0.00024  -0.00055   2.01630
    A7        1.89851  -0.00003  -0.00063  -0.00021  -0.00084   1.89767
    A8        1.84222   0.00009   0.00090  -0.00001   0.00089   1.84312
    A9        1.85185   0.00002   0.00017   0.00026   0.00043   1.85229
   A10        2.18168   0.00004   0.00047  -0.00000   0.00047   2.18215
   A11        1.95173   0.00005  -0.00038   0.00022  -0.00016   1.95157
   A12        2.14894  -0.00008  -0.00002  -0.00029  -0.00032   2.14863
   A13        1.85341   0.00001   0.00023  -0.00028  -0.00005   1.85336
    D1        2.78109   0.00004  -0.00741  -0.00001  -0.00743   2.77366
    D2       -1.40526  -0.00003  -0.00828  -0.00016  -0.00844  -1.41370
    D3        0.70007  -0.00000  -0.00828   0.00029  -0.00799   0.69208
    D4        0.72071  -0.00000  -0.00737  -0.00074  -0.00811   0.71260
    D5        2.81755  -0.00006  -0.00824  -0.00088  -0.00912   2.80843
    D6       -1.36031  -0.00004  -0.00823  -0.00044  -0.00867  -1.36898
    D7       -0.38684  -0.00002   0.00231  -0.00095   0.00136  -0.38548
    D8        2.79748   0.00002   0.00049   0.00117   0.00166   2.79913
    D9       -2.50402   0.00000   0.00279  -0.00115   0.00164  -2.50238
   D10        0.68030   0.00004   0.00097   0.00097   0.00194   0.68224
   D11        1.79826  -0.00005   0.00243  -0.00135   0.00108   1.79934
   D12       -1.30060  -0.00001   0.00061   0.00077   0.00138  -1.29922
   D13        3.08843  -0.00003   0.00195  -0.00290  -0.00096   3.08748
   D14       -0.01137   0.00001   0.00015  -0.00084  -0.00069  -0.01206
         Item               Value     Threshold  Converged?
 Maximum Force            0.000176     0.000450     YES
 RMS     Force            0.000064     0.000300     YES
 Maximum Displacement     0.011750     0.001800     NO 
 RMS     Displacement     0.003118     0.001200     NO 
 Predicted change in Energy=-7.300748D-07
 Lowest energy point so far.  Saving SCF results.
 GradGradGradGradGradGradGradGradGradGradGradGradGradGradGradGradGradGrad

 Leave Link  103 at Fri Mar 14 15:42:23 2025, MaxMem=  8589934592 cpu:               0.1 elap:               0.0
 (Enter /home/enzo/gaussian_versions/gdv.j21/gdv/l202.exe)
                          Input orientation:                          
 ---------------------------------------------------------------------
 Center     Atomic      Atomic             Coordinates (Angstroms)
 Number     Number       Type             X           Y           Z
 ---------------------------------------------------------------------
      1          7           0       -2.039754   -0.100826   -0.388639
      2          6           0       -0.952884    0.055286    0.566762
      3          6           0        0.370326    0.126977   -0.167842
      4          8           0        0.570063   -0.299921   -1.283358
      5          8           0        1.339038    0.684827    0.594397
      6          1           0       -2.859314   -0.489909    0.069792
      7          1           0       -1.748520   -0.754005   -1.113371
      8          1           0       -1.080280    0.972812    1.152725
      9          1           0       -0.841623   -0.765952    1.301403
     10          1           0        2.158326    0.644432    0.065725
 ---------------------------------------------------------------------
                    Distance matrix (angstroms):
                    1          2          3          4          5
     1  N    0.000000
     2  C    1.455488   0.000000
     3  C    2.430870   1.515146   0.000000
     4  O    2.766099   2.422495   1.210996   0.000000
     5  O    3.605529   2.376971   1.353000   2.255441   0.000000
     6  H    1.016476   2.044184   3.296603   3.691576   4.391056
     7  H    1.018183   2.027519   2.481867   2.368737   3.810475
     8  H    2.109287   1.096101   2.136257   3.205929   2.499553
     9  H    2.175811   1.107479   2.103527   2.981784   2.712913
    10  H    4.287858   3.205895   1.875968   2.287882   0.975889
                    6          7          8          9         10
     6  H    0.000000
     7  H    1.644228   0.000000
     8  H    2.545046   2.926369   0.000000
     9  H    2.379946   2.579484   1.761352   0.000000
    10  H    5.144264   4.313854   3.431905   3.537764   0.000000
 Stoichiometry    C2H5NO2
 Framework group  C1[X(C2H5NO2)]
 Deg. of freedom    24
 Full point group                 C1      NOp   1
 RotChk:  IX=0 Diff= 7.85D-04
 Largest Abelian subgroup         C1      NOp   1
 Largest concise Abelian subgroup C1      NOp   1
                         Standard orientation:                         
 ---------------------------------------------------------------------
 Center     Atomic      Atomic             Coordinates (Angstroms)
 Number     Number       Type             X           Y           Z
 ---------------------------------------------------------------------
      1          7           0        1.881268    0.104073   -0.221280
      2          6           0        0.732509   -0.716101    0.133844
      3          6           0       -0.537894    0.101270    0.017000
      4          8           0       -0.592470    1.310421    0.055570
      5          8           0       -1.634184   -0.685111   -0.084790
      6          1           0        2.731657   -0.291005    0.171118
      7          1           0        1.756873    1.033100    0.176376
      8          1           0        0.655047   -1.583953   -0.531189
      9          1           0        0.734046   -1.118375    1.165678
     10          1           0       -2.400964   -0.081766   -0.104334
 ---------------------------------------------------------------------
 Rotational constants (GHZ):          10.3008071           3.9529972           2.9487623
 Leave Link  202 at Fri Mar 14 15:42:23 2025, MaxMem=  8589934592 cpu:               0.1 elap:               0.0
 (Enter /home/enzo/gaussian_versions/gdv.j21/gdv/l301.exe)
 Standard basis: 6-31G(d) (6D, 7F)
 Ernie: Thresh=  0.10000D-02 Tol=  0.10000D-05 Strict=F.
 There are    85 symmetry adapted cartesian basis functions of A   symmetry.
 There are    85 symmetry adapted basis functions of A   symmetry.
    85 basis functions,   160 primitive gaussians,    85 cartesian basis functions
    20 alpha electrons       20 beta electrons
       nuclear repulsion energy       179.4225033531 Hartrees.
 IExCor=      4002 DFT=T Ex+Corr=B3LYP ScaHFX=  0.200000
 ScaDFX=  0.800000  0.720000  1.000000  0.810000  1.000000  0.000000
 ScaDFX=  0.000000  0.000000  0.000000  0.000000  0.000000  0.000000
 IRadAn=      5 IRanWt=     -1 IRanGd=            0 ICorTp=0 IEmpDi=  4
 NAtoms=   10 NActive=   10 NUniq=   10 SFac= 1.00D+00 NAtFMM=   60 NAOKFM=F Big=F
 Integral buffers will be    131072 words long.
 Raffenetti 2 integral format.
 Two-electron integral symmetry is turned on.
 Leave Link  301 at Fri Mar 14 15:42:23 2025, MaxMem=  8589934592 cpu:               0.3 elap:               0.0
 (Enter /home/enzo/gaussian_versions/gdv.j21/gdv/l302.exe)
 NPDir=0 NMtPBC=     1 NCelOv=     1 NCel=       1 NClECP=     1 NCelD=      1
         NCelK=      1 NCelE2=     1 NClLst=     1 CellRange=     0.0.
 One-electron integrals computed using PRISM.
 One-electron integral symmetry used in STVInt
 NBasis=    85 RedAO= T EigKep=  3.86D-03  NBF=    85
 NBsUse=    85 1.00D-06 EigRej= -1.00D+00 NBFU=    85
 Precomputing XC quadrature grid using
 IXCGrd= 4 IRadAn=           5 IRanWt=          -1 IRanGd=           0 AccXCQ= 0.00D+00.
 Generated NRdTot=       0 NPtTot=      219401 NUsed=           0 NTot=          64
 NSgBfM=    85    85    85    85    85 MxSgAt=    10 MxSgA2=    10 SizInc=   0.000
 NMBTot=     1945 MaxBatPerAtom=       84 MaxMicBPerAtom=      204 NBfPt=            15879761.
 Leave Link  302 at Fri Mar 14 15:42:24 2025, MaxMem=  8589934592 cpu:               0.7 elap:               0.1
 (Enter /home/enzo/gaussian_versions/gdv.j21/gdv/l303.exe)
 DipDrv:  MaxL=1.
 Leave Link  303 at Fri Mar 14 15:42:24 2025, MaxMem=  8589934592 cpu:               0.1 elap:               0.0
 (Enter /home/enzo/gaussian_versions/gdv.j21/gdv/l401.exe)
 Initial guess from the checkpoint file:  "/local/home/enzo/scratch/Gau-2409754.chk"
 B after Tr=     0.000000   -0.000000   -0.000000
         Rot=    1.000000   -0.000102    0.000004   -0.000034 Ang=  -0.01 deg.
 AO Guess basis will be translated and rotated to current coordinates.
 JPrj=2 DoOrth=T DoCkMO=T.
 Leave Link  401 at Fri Mar 14 15:42:24 2025, MaxMem=  8589934592 cpu:               0.4 elap:               0.1
 (Enter /home/enzo/gaussian_versions/gdv.j21/gdv/l502.exe)
 Keep R1 ints in memory in canonical form, NReq=17617987.
 FoFCou: FMM=F IPFlag=           0 FMFlag=           0 FMFlg1=           0
         NFxFlg=           0 DoJE=F BraDBF=F KetDBF=F FulRan=T
         wScrn=  0.000000 ICntrl=       600 IOpCl=  0 I1Cent=           0 NGrid=           0
         NMat0=    1 NMatS0=   3655 NMatT0=    0 NMatD0=    1 NMtDS0=    0 NMtDT0=    0
 Symmetry not used in FoFCou.
 Two-electron integral symmetry not used.
 Closed shell SCF:
 Using DIIS extrapolation, IDIIS=  1040.
 NGot=  8589934592 LenX=  8583230350 LenY=  8583222684
 Requested convergence on RMS density matrix=1.00D-08 within 128 cycles.
 Requested convergence on MAX density matrix=1.00D-06.
 Requested convergence on             energy=1.00D-06.
 No special actions if energy rises.

 Cycle   1  Pass 1  IDiag  1:
 E= -284.420035348211    
 DIIS: error= 2.61D-04 at cycle   1 NSaved=   1.
 NSaved= 1 IEnMin= 1 EnMin= -284.420035348211     IErMin= 1 ErrMin= 2.61D-04
 ErrMax= 2.61D-04  0.00D+00 EMaxC= 1.00D-01 BMatC= 5.45D-06 BMatP= 5.45D-06
 IDIUse=3 WtCom= 9.97D-01 WtEn= 2.61D-03
 Coeff-Com:  0.100D+01
 Coeff-En:   0.100D+01
 Coeff:      0.100D+01
 Gap=     1.554 Goal=   None    Shift=    0.000
 RMSDP=4.94D-05 MaxDP=9.29D-04              OVMax= 1.58D-03

 Cycle   2  Pass 1  IDiag  1:
 E= -284.420045688570     Delta-E=       -0.000010340359 Rises=F Damp=F
 DIIS: error= 3.03D-05 at cycle   2 NSaved=   2.
 NSaved= 2 IEnMin= 2 EnMin= -284.420045688570     IErMin= 2 ErrMin= 3.03D-05
 ErrMax= 3.03D-05  0.00D+00 EMaxC= 1.00D-01 BMatC= 1.03D-07 BMatP= 5.45D-06
 IDIUse=1 WtCom= 1.00D+00 WtEn= 0.00D+00
 Coeff-Com: -0.573D-01 0.106D+01
 Coeff:     -0.573D-01 0.106D+01
 Gap=     0.246 Goal=   None    Shift=    0.000
 RMSDP=1.12D-05 MaxDP=1.83D-04 DE=-1.03D-05 OVMax= 2.94D-04

 Cycle   3  Pass 1  IDiag  1:
 E= -284.420045619996     Delta-E=        0.000000068574 Rises=F Damp=F
 DIIS: error= 5.27D-05 at cycle   3 NSaved=   3.
 NSaved= 3 IEnMin= 2 EnMin= -284.420045688570     IErMin= 2 ErrMin= 3.03D-05
 ErrMax= 5.27D-05  0.00D+00 EMaxC= 1.00D-01 BMatC= 3.16D-07 BMatP= 1.03D-07
 IDIUse=1 WtCom= 1.00D+00 WtEn= 0.00D+00
 Coeff-Com: -0.544D-01 0.714D+00 0.340D+00
 Coeff:     -0.544D-01 0.714D+00 0.340D+00
 Gap=     0.246 Goal=   None    Shift=    0.000
 RMSDP=5.45D-06 MaxDP=1.34D-04 DE= 6.86D-08 OVMax= 2.16D-04

 Cycle   4  Pass 1  IDiag  1:
 E= -284.420045859067     Delta-E=       -0.000000239071 Rises=F Damp=F
 DIIS: error= 5.21D-06 at cycle   4 NSaved=   4.
 NSaved= 4 IEnMin= 4 EnMin= -284.420045859067     IErMin= 4 ErrMin= 5.21D-06
 ErrMax= 5.21D-06  0.00D+00 EMaxC= 1.00D-01 BMatC= 5.12D-09 BMatP= 1.03D-07
 IDIUse=1 WtCom= 1.00D+00 WtEn= 0.00D+00
 Coeff-Com: -0.230D-01 0.252D+00 0.155D+00 0.616D+00
 Coeff:     -0.230D-01 0.252D+00 0.155D+00 0.616D+00
 Gap=     0.246 Goal=   None    Shift=    0.000
 RMSDP=9.20D-07 MaxDP=1.03D-05 DE=-2.39D-07 OVMax= 1.79D-05

 Cycle   5  Pass 1  IDiag  1:
 E= -284.420045862984     Delta-E=       -0.000000003917 Rises=F Damp=F
 DIIS: error= 1.64D-06 at cycle   5 NSaved=   5.
 NSaved= 5 IEnMin= 5 EnMin= -284.420045862984     IErMin= 5 ErrMin= 1.64D-06
 ErrMax= 1.64D-06  0.00D+00 EMaxC= 1.00D-01 BMatC= 4.24D-10 BMatP= 5.12D-09
 IDIUse=1 WtCom= 1.00D+00 WtEn= 0.00D+00
 Coeff-Com: -0.328D-02 0.227D-01 0.206D-01 0.240D+00 0.720D+00
 Coeff:     -0.328D-02 0.227D-01 0.206D-01 0.240D+00 0.720D+00
 Gap=     0.246 Goal=   None    Shift=    0.000
 RMSDP=2.97D-07 MaxDP=5.72D-06 DE=-3.92D-09 OVMax= 7.45D-06

 Cycle   6  Pass 1  IDiag  1:
 E= -284.420045863329     Delta-E=       -0.000000000344 Rises=F Damp=F
 DIIS: error= 7.80D-07 at cycle   6 NSaved=   6.
 NSaved= 6 IEnMin= 6 EnMin= -284.420045863329     IErMin= 6 ErrMin= 7.80D-07
 ErrMax= 7.80D-07  0.00D+00 EMaxC= 1.00D-01 BMatC= 5.91D-11 BMatP= 4.24D-10
 IDIUse=1 WtCom= 1.00D+00 WtEn= 0.00D+00
 Coeff-Com:  0.483D-03-0.990D-02-0.296D-02 0.541D-01 0.336D+00 0.623D+00
 Coeff:      0.483D-03-0.990D-02-0.296D-02 0.541D-01 0.336D+00 0.623D+00
 Gap=     0.246 Goal=   None    Shift=    0.000
 RMSDP=9.53D-08 MaxDP=2.17D-06 DE=-3.44D-10 OVMax= 2.54D-06

 Cycle   7  Pass 1  IDiag  1:
 E= -284.420045863378     Delta-E=       -0.000000000049 Rises=F Damp=F
 DIIS: error= 1.49D-07 at cycle   7 NSaved=   7.
 NSaved= 7 IEnMin= 7 EnMin= -284.420045863378     IErMin= 7 ErrMin= 1.49D-07
 ErrMax= 1.49D-07  0.00D+00 EMaxC= 1.00D-01 BMatC= 4.81D-12 BMatP= 5.91D-11
 IDIUse=1 WtCom= 1.00D+00 WtEn= 0.00D+00
 Coeff-Com:  0.420D-03-0.597D-02-0.246D-02 0.978D-02 0.116D+00 0.307D+00
 Coeff-Com:  0.576D+00
 Coeff:      0.420D-03-0.597D-02-0.246D-02 0.978D-02 0.116D+00 0.307D+00
 Coeff:      0.576D+00
 Gap=     0.246 Goal=   None    Shift=    0.000
 RMSDP=2.55D-08 MaxDP=3.76D-07 DE=-4.91D-11 OVMax= 4.84D-07

 Cycle   8  Pass 1  IDiag  1:
 E= -284.420045863380     Delta-E=       -0.000000000002 Rises=F Damp=F
 DIIS: error= 2.39D-08 at cycle   8 NSaved=   8.
 NSaved= 8 IEnMin= 8 EnMin= -284.420045863380     IErMin= 8 ErrMin= 2.39D-08
 ErrMax= 2.39D-08  0.00D+00 EMaxC= 1.00D-01 BMatC= 1.01D-13 BMatP= 4.81D-12
 IDIUse=1 WtCom= 1.00D+00 WtEn= 0.00D+00
 Coeff-Com:  0.991D-04-0.128D-02-0.588D-03-0.600D-03 0.146D-01 0.596D-01
 Coeff-Com:  0.180D+00 0.749D+00
 Coeff:      0.991D-04-0.128D-02-0.588D-03-0.600D-03 0.146D-01 0.596D-01
 Coeff:      0.180D+00 0.749D+00
 Gap=     0.246 Goal=   None    Shift=    0.000
 RMSDP=4.37D-09 MaxDP=7.50D-08 DE=-1.71D-12 OVMax= 7.93D-08

 SCF Done:  E(RB3LYP) =  -284.420045863     A.U. after    8 cycles
            NFock=  8  Conv=0.44D-08     -V/T= 2.0089
 KE= 2.819184530344D+02 PE=-1.025083009917D+03 EE= 2.793220076663D+02
 Leave Link  502 at Fri Mar 14 15:42:24 2025, MaxMem=  8589934592 cpu:               6.7 elap:               0.6
 (Enter /home/enzo/gaussian_versions/gdv.j21/gdv/l701.exe)
 ... and contract with generalized density number  0.
 Compute integral first derivatives.
 Leave Link  701 at Fri Mar 14 15:42:24 2025, MaxMem=  8589934592 cpu:               0.7 elap:               0.1
 (Enter /home/enzo/gaussian_versions/gdv.j21/gdv/l702.exe)
 L702 exits ... SP integral derivatives will be done elsewhere.
 Leave Link  702 at Fri Mar 14 15:42:24 2025, MaxMem=  8589934592 cpu:               0.1 elap:               0.0
 (Enter /home/enzo/gaussian_versions/gdv.j21/gdv/l703.exe)
 Integral derivatives from FoFJK, PRISM(SPDF).
 Compute integral first derivatives, UseDBF=F ICtDFT=           0.
 Calling FoFJK, ICntrl=      2127 FMM=F ISym2X=0 I1Cent= 0 IOpClX= 0 NMat=1 NMatS=1 NMatT=0.
 FoFJK:  IHMeth= 1 ICntrl=    2127 DoSepK=F KAlg= 0 I1Cent=           0 FoldK=F
 IRaf=         0 NMat=       1 IRICut=       1 DoRegI=T DoRafI=F ISym2E= 0 IDoP0=0 IntGTp=1.
 FoFCou: FMM=F IPFlag=           0 FMFlag=      100000 FMFlg1=         800
         NFxFlg=           0 DoJE=F BraDBF=F KetDBF=F FulRan=T
         wScrn=  0.000000 ICntrl=      2127 IOpCl=  0 I1Cent=           0 NGrid=           0
         NMat0=    1 NMatS0=      1 NMatT0=    0 NMatD0=    1 NMtDS0=    0 NMtDT0=    0
 Symmetry not used in FoFCou.
 Leave Link  703 at Fri Mar 14 15:42:25 2025, MaxMem=  8589934592 cpu:               3.1 elap:               0.3
 (Enter /home/enzo/gaussian_versions/gdv.j21/gdv/l716.exe)
 Dipole        =-8.41909360D-02-5.46071089D-01 5.74926388D-01
 ***** Axes restored to original set *****
 -------------------------------------------------------------------
 Center     Atomic                   Forces (Hartrees/Bohr)
 Number     Number              X              Y              Z
 -------------------------------------------------------------------
      1        7           0.000018455    0.000000152   -0.000009262
      2        6          -0.000050815    0.000005564    0.000003390
      3        6           0.000032726    0.000011371   -0.000001721
      4        8          -0.000041526   -0.000006132    0.000032419
      5        8           0.000033810   -0.000005051   -0.000002541
      6        1          -0.000021668   -0.000010905    0.000015422
      7        1           0.000004251    0.000001525   -0.000029345
      8        1           0.000010560    0.000004666   -0.000011347
      9        1          -0.000001724   -0.000018228    0.000005250
     10        1           0.000015932    0.000017038   -0.000002265
 -------------------------------------------------------------------
 Cartesian Forces:  Max     0.000050815 RMS     0.000019256
 Leave Link  716 at Fri Mar 14 15:42:25 2025, MaxMem=  8589934592 cpu:               0.1 elap:               0.0
 (Enter /home/enzo/gaussian_versions/gdv.j21/gdv/l103.exe)

 GradGradGradGradGradGradGradGradGradGradGradGradGradGradGradGradGradGrad
 Berny optimization.
 Using GEDIIS/GDIIS optimizer.
 FormGI is forming the generalized inverse of G from B-inverse, IUseBI=4.
 Internal  Forces:  Max     0.000082127 RMS     0.000023560
 Search for a local minimum.
 Step number  22 out of a maximum of   46
 All quantities printed in internal units (Hartrees-Bohrs-Radians)
 RMS Force = .23560D-04 SwitMx=.10000D-02 MixMth= 2
 Mixed Optimization -- En-DIIS/RFO-DIIS
 Swapping is turned off.
 Update second derivatives using D2CorX and points   17   18   16   19   20
                                                     21   22
 DE= -8.99D-07 DEPred=-7.30D-07 R= 1.23D+00
 Trust test= 1.23D+00 RLast= 2.09D-02 DXMaxT set to 8.60D-01
 ITU=  0  1  1  0 -1 -1  1  1  1  0  1  0  1  1  1  1  1  1  0  1
 ITU=  1  0
     Eigenvalues ---    0.00132   0.00273   0.02153   0.04013   0.04672
     Eigenvalues ---    0.05964   0.06583   0.09271   0.13273   0.15806
     Eigenvalues ---    0.16530   0.17221   0.21000   0.24296   0.27479
     Eigenvalues ---    0.30325   0.31650   0.32897   0.36205   0.40657
     Eigenvalues ---    0.42082   0.44912   0.50406   0.84929
 En-DIIS/RFO-DIIS/Sim-DIIS IScMMF=       -3 using points:    22   21   20   19
 RFO step:  Lambda=-2.41361052D-07.
 NNeg= 0 NGDIIS= 4 SimSw=  2.50D-01 Rises=F DC= -8.99D-07 SmlDif=  1.00D-05
 NRisDI= 0 DoIntr=F SqrtH=F CThrHd= 10.0 CDAdj=  3.0
 RMS Error=  0.1497196983D-02 NUsed= 4 OKEnD=F EnDIS=F
 InvSVX:  RCond= 1.43D-06 Info=           0 Equed=N FErr=  8.56D-14 BErr=  5.95D-17
 DidBck=FF Rises=F RFO-DIIS coefs:    1.04677    0.12444   -0.14775   -0.02346
 Iteration  1 RMS(Cart)=  0.00118297 RMS(Int)=  0.00000124
 Iteration  2 RMS(Cart)=  0.00000118 RMS(Int)=  0.00000019
 Iteration  3 RMS(Cart)=  0.00000000 RMS(Int)=  0.00000019
 Variable       Old X    -DE/DX   Delta X   Delta X   Delta X     New X
                                 (Linear)    (Quad)   (Total)
    R1        2.75047   0.00002   0.00024  -0.00012   0.00012   2.75060
    R2        1.92086   0.00003  -0.00010   0.00014   0.00003   1.92089
    R3        1.92409   0.00002  -0.00005   0.00010   0.00005   1.92413
    R4        2.86321   0.00002  -0.00001   0.00007   0.00007   2.86328
    R5        2.07133  -0.00000   0.00008  -0.00006   0.00001   2.07134
    R6        2.09283   0.00002  -0.00031   0.00027  -0.00004   2.09279
    R7        2.28845  -0.00003   0.00005  -0.00006  -0.00001   2.28844
    R8        2.55680   0.00004  -0.00006   0.00009   0.00003   2.55682
    R9        1.84416   0.00001  -0.00000   0.00001   0.00001   1.84417
    A1        1.92526  -0.00001   0.00026  -0.00024   0.00003   1.92529
    A2        1.89911   0.00002  -0.00038   0.00039   0.00001   1.89912
    A3        1.88187   0.00000   0.00005   0.00000   0.00005   1.88193
    A4        1.91661  -0.00002  -0.00007  -0.00014  -0.00020   1.91641
    A5        1.93254   0.00001  -0.00000   0.00008   0.00008   1.93261
    A6        2.01630   0.00000  -0.00017   0.00005  -0.00011   2.01619
    A7        1.89767  -0.00000  -0.00026   0.00016  -0.00010   1.89757
    A8        1.84312   0.00001   0.00036  -0.00014   0.00021   1.84333
    A9        1.85229   0.00000   0.00015  -0.00001   0.00014   1.85243
   A10        2.18215  -0.00008   0.00022  -0.00053  -0.00032   2.18183
   A11        1.95157   0.00007  -0.00015   0.00047   0.00032   1.95189
   A12        2.14863   0.00001  -0.00004   0.00005   0.00001   2.14864
   A13        1.85336   0.00003   0.00008   0.00004   0.00012   1.85348
    D1        2.77366   0.00000  -0.00260  -0.00012  -0.00272   2.77094
    D2       -1.41370  -0.00001  -0.00297   0.00004  -0.00293  -1.41663
    D3        0.69208   0.00001  -0.00289   0.00013  -0.00277   0.68932
    D4        0.71260  -0.00001  -0.00259  -0.00022  -0.00281   0.70980
    D5        2.80843  -0.00002  -0.00296  -0.00006  -0.00302   2.80541
    D6       -1.36898  -0.00000  -0.00288   0.00003  -0.00285  -1.37183
    D7       -0.38548   0.00000  -0.00016  -0.00008  -0.00025  -0.38573
    D8        2.79913  -0.00000  -0.00081   0.00019  -0.00062   2.79851
    D9       -2.50238   0.00000   0.00005  -0.00019  -0.00015  -2.50253
   D10        0.68224  -0.00000  -0.00060   0.00008  -0.00053   0.68171
   D11        1.79934  -0.00001  -0.00018  -0.00019  -0.00037   1.79897
   D12       -1.29922  -0.00001  -0.00083   0.00008  -0.00075  -1.29997
   D13        3.08748   0.00001   0.00066   0.00006   0.00072   3.08820
   D14       -0.01206   0.00001   0.00001   0.00035   0.00036  -0.01170
         Item               Value     Threshold  Converged?
 Maximum Force            0.000082     0.000450     YES
 RMS     Force            0.000024     0.000300     YES
 Maximum Displacement     0.003912     0.001800     NO 
 RMS     Displacement     0.001183     0.001200     YES
 Predicted change in Energy=-1.140234D-07
 Lowest energy point so far.  Saving SCF results.
 GradGradGradGradGradGradGradGradGradGradGradGradGradGradGradGradGradGrad

 Leave Link  103 at Fri Mar 14 15:42:25 2025, MaxMem=  8589934592 cpu:               0.1 elap:               0.0
 (Enter /home/enzo/gaussian_versions/gdv.j21/gdv/l202.exe)
                          Input orientation:                          
 ---------------------------------------------------------------------
 Center     Atomic      Atomic             Coordinates (Angstroms)
 Number     Number       Type             X           Y           Z
 ---------------------------------------------------------------------
      1          7           0       -2.039847   -0.100571   -0.388357
      2          6           0       -0.953040    0.055412    0.567235
      3          6           0        0.370196    0.126535   -0.167453
      4          8           0        0.569451   -0.300996   -1.282804
      5          8           0        1.339216    0.684911    0.594033
      6          1           0       -2.858796   -0.491718    0.069448
      7          1           0       -1.747710   -0.751935   -1.114391
      8          1           0       -1.080076    0.973191    1.152895
      9          1           0       -0.842275   -0.765736    1.302020
     10          1           0        2.158260    0.644628    0.064968
 ---------------------------------------------------------------------
                    Distance matrix (angstroms):
                    1          2          3          4          5
     1  N    0.000000
     2  C    1.455554   0.000000
     3  C    2.430779   1.515183   0.000000
     4  O    2.765619   2.422324   1.210988   0.000000
     5  O    3.605571   2.377273   1.353013   2.255453   0.000000
     6  H    1.016493   2.044272   3.296172   3.690236   4.391236
     7  H    1.018207   2.027603   2.480710   2.366632   3.809508
     8  H    2.109404   1.096108   2.136220   3.205795   2.499681
     9  H    2.175776   1.107458   2.103707   2.981656   2.713765
    10  H    4.287766   3.206188   1.876064   2.288014   0.975892
                    6          7          8          9         10
     6  H    0.000000
     7  H    1.644293   0.000000
     8  H    2.546303   2.926154   0.000000
     9  H    2.379218   2.580512   1.761435   0.000000
    10  H    5.144138   4.312526   3.431962   3.538733   0.000000
 Stoichiometry    C2H5NO2
 Framework group  C1[X(C2H5NO2)]
 Deg. of freedom    24
 Full point group                 C1      NOp   1
 RotChk:  IX=0 Diff= 5.89D-04
 Largest Abelian subgroup         C1      NOp   1
 Largest concise Abelian subgroup C1      NOp   1
                         Standard orientation:                         
 ---------------------------------------------------------------------
 Center     Atomic      Atomic             Coordinates (Angstroms)
 Number     Number       Type             X           Y           Z
 ---------------------------------------------------------------------
      1          7           0        1.881162    0.103791   -0.221577
      2          6           0        0.732475   -0.716404    0.133998
      3          6           0       -0.537854    0.101161    0.017247
      4          8           0       -0.591880    1.310326    0.055884
      5          8           0       -1.634479   -0.684720   -0.084980
      6          1           0        2.731354   -0.289763    0.172817
      7          1           0        1.755575    1.033700    0.173698
      8          1           0        0.654686   -1.584290   -0.530965
      9          1           0        0.734425   -1.118475    1.165888
     10          1           0       -2.401031   -0.081099   -0.105094
 ---------------------------------------------------------------------
 Rotational constants (GHZ):          10.3014333           3.9531401           2.9490131
 Leave Link  202 at Fri Mar 14 15:42:25 2025, MaxMem=  8589934592 cpu:               0.0 elap:               0.0
 (Enter /home/enzo/gaussian_versions/gdv.j21/gdv/l301.exe)
 Standard basis: 6-31G(d) (6D, 7F)
 Ernie: Thresh=  0.10000D-02 Tol=  0.10000D-05 Strict=F.
 There are    85 symmetry adapted cartesian basis functions of A   symmetry.
 There are    85 symmetry adapted basis functions of A   symmetry.
    85 basis functions,   160 primitive gaussians,    85 cartesian basis functions
    20 alpha electrons       20 beta electrons
       nuclear repulsion energy       179.4245614910 Hartrees.
 IExCor=      4002 DFT=T Ex+Corr=B3LYP ScaHFX=  0.200000
 ScaDFX=  0.800000  0.720000  1.000000  0.810000  1.000000  0.000000
 ScaDFX=  0.000000  0.000000  0.000000  0.000000  0.000000  0.000000
 IRadAn=      5 IRanWt=     -1 IRanGd=            0 ICorTp=0 IEmpDi=  4
 NAtoms=   10 NActive=   10 NUniq=   10 SFac= 1.00D+00 NAtFMM=   60 NAOKFM=F Big=F
 Integral buffers will be    131072 words long.
 Raffenetti 2 integral format.
 Two-electron integral symmetry is turned on.
 Leave Link  301 at Fri Mar 14 15:42:25 2025, MaxMem=  8589934592 cpu:               0.3 elap:               0.0
 (Enter /home/enzo/gaussian_versions/gdv.j21/gdv/l302.exe)
 NPDir=0 NMtPBC=     1 NCelOv=     1 NCel=       1 NClECP=     1 NCelD=      1
         NCelK=      1 NCelE2=     1 NClLst=     1 CellRange=     0.0.
 One-electron integrals computed using PRISM.
 One-electron integral symmetry used in STVInt
 NBasis=    85 RedAO= T EigKep=  3.86D-03  NBF=    85
 NBsUse=    85 1.00D-06 EigRej= -1.00D+00 NBFU=    85
 Precomputing XC quadrature grid using
 IXCGrd= 4 IRadAn=           5 IRanWt=          -1 IRanGd=           0 AccXCQ= 0.00D+00.
 Generated NRdTot=       0 NPtTot=      219432 NUsed=           0 NTot=          64
 NSgBfM=    85    85    85    85    85 MxSgAt=    10 MxSgA2=    10 SizInc=   0.000
 NMBTot=     1950 MaxBatPerAtom=       84 MaxMicBPerAtom=      206 NBfPt=            15883243.
 Leave Link  302 at Fri Mar 14 15:42:25 2025, MaxMem=  8589934592 cpu:               0.6 elap:               0.1
 (Enter /home/enzo/gaussian_versions/gdv.j21/gdv/l303.exe)
 DipDrv:  MaxL=1.
 Leave Link  303 at Fri Mar 14 15:42:25 2025, MaxMem=  8589934592 cpu:               0.1 elap:               0.0
 (Enter /home/enzo/gaussian_versions/gdv.j21/gdv/l401.exe)
 Initial guess from the checkpoint file:  "/local/home/enzo/scratch/Gau-2409754.chk"
 B after Tr=     0.000000    0.000000    0.000000
         Rot=    1.000000    0.000007   -0.000013    0.000070 Ang=   0.01 deg.
 AO Guess basis will be translated and rotated to current coordinates.
 JPrj=2 DoOrth=T DoCkMO=T.
 Leave Link  401 at Fri Mar 14 15:42:25 2025, MaxMem=  8589934592 cpu:               0.4 elap:               0.0
 (Enter /home/enzo/gaussian_versions/gdv.j21/gdv/l502.exe)
 Keep R1 ints in memory in canonical form, NReq=17617987.
 FoFCou: FMM=F IPFlag=           0 FMFlag=           0 FMFlg1=           0
         NFxFlg=           0 DoJE=F BraDBF=F KetDBF=F FulRan=T
         wScrn=  0.000000 ICntrl=       600 IOpCl=  0 I1Cent=           0 NGrid=           0
         NMat0=    1 NMatS0=   3655 NMatT0=    0 NMatD0=    1 NMtDS0=    0 NMtDT0=    0
 Symmetry not used in FoFCou.
 Two-electron integral symmetry not used.
 Closed shell SCF:
 Using DIIS extrapolation, IDIIS=  1040.
 NGot=  8589934592 LenX=  8583230350 LenY=  8583222684
 Requested convergence on RMS density matrix=1.00D-08 within 128 cycles.
 Requested convergence on MAX density matrix=1.00D-06.
 Requested convergence on             energy=1.00D-06.
 No special actions if energy rises.

 Cycle   1  Pass 1  IDiag  1:
 E= -284.420044194306    
 DIIS: error= 1.18D-04 at cycle   1 NSaved=   1.
 NSaved= 1 IEnMin= 1 EnMin= -284.420044194306     IErMin= 1 ErrMin= 1.18D-04
 ErrMax= 1.18D-04  0.00D+00 EMaxC= 1.00D-01 BMatC= 9.24D-07 BMatP= 9.24D-07
 IDIUse=3 WtCom= 9.99D-01 WtEn= 1.18D-03
 Coeff-Com:  0.100D+01
 Coeff-En:   0.100D+01
 Coeff:      0.100D+01
 Gap=     1.554 Goal=   None    Shift=    0.000
 RMSDP=2.07D-05 MaxDP=3.99D-04              OVMax= 6.37D-04

 Cycle   2  Pass 1  IDiag  1:
 E= -284.420045932896     Delta-E=       -0.000001738590 Rises=F Damp=F
 DIIS: error= 1.17D-05 at cycle   2 NSaved=   2.
 NSaved= 2 IEnMin= 2 EnMin= -284.420045932896     IErMin= 2 ErrMin= 1.17D-05
 ErrMax= 1.17D-05  0.00D+00 EMaxC= 1.00D-01 BMatC= 1.32D-08 BMatP= 9.24D-07
 IDIUse=1 WtCom= 1.00D+00 WtEn= 0.00D+00
 Coeff-Com: -0.648D-01 0.106D+01
 Coeff:     -0.648D-01 0.106D+01
 Gap=     0.246 Goal=   None    Shift=    0.000
 RMSDP=3.90D-06 MaxDP=6.54D-05 DE=-1.74D-06 OVMax= 1.12D-04

 Cycle   3  Pass 1  IDiag  1:
 E= -284.420045941218     Delta-E=       -0.000000008322 Rises=F Damp=F
 DIIS: error= 1.29D-05 at cycle   3 NSaved=   3.
 NSaved= 3 IEnMin= 3 EnMin= -284.420045941218     IErMin= 2 ErrMin= 1.17D-05
 ErrMax= 1.29D-05  0.00D+00 EMaxC= 1.00D-01 BMatC= 2.22D-08 BMatP= 1.32D-08
 IDIUse=1 WtCom= 1.00D+00 WtEn= 0.00D+00
 Coeff-Com: -0.508D-01 0.659D+00 0.392D+00
 Coeff:     -0.508D-01 0.659D+00 0.392D+00
 Gap=     0.246 Goal=   None    Shift=    0.000
 RMSDP=1.64D-06 MaxDP=4.13D-05 DE=-8.32D-09 OVMax= 6.28D-05

 Cycle   4  Pass 1  IDiag  1:
 E= -284.420045957029     Delta-E=       -0.000000015811 Rises=F Damp=F
 DIIS: error= 3.49D-06 at cycle   4 NSaved=   4.
 NSaved= 4 IEnMin= 4 EnMin= -284.420045957029     IErMin= 4 ErrMin= 3.49D-06
 ErrMax= 3.49D-06  0.00D+00 EMaxC= 1.00D-01 BMatC= 1.59D-09 BMatP= 1.32D-08
 IDIUse=1 WtCom= 1.00D+00 WtEn= 0.00D+00
 Coeff-Com: -0.212D-01 0.228D+00 0.231D+00 0.562D+00
 Coeff:     -0.212D-01 0.228D+00 0.231D+00 0.562D+00
 Gap=     0.245 Goal=   None    Shift=    0.000
 RMSDP=4.15D-07 MaxDP=7.97D-06 DE=-1.58D-08 OVMax= 1.41D-05

 Cycle   5  Pass 1  IDiag  1:
 E= -284.420045958184     Delta-E=       -0.000000001154 Rises=F Damp=F
 DIIS: error= 5.96D-07 at cycle   5 NSaved=   5.
 NSaved= 5 IEnMin= 5 EnMin= -284.420045958184     IErMin= 5 ErrMin= 5.96D-07
 ErrMax= 5.96D-07  0.00D+00 EMaxC= 1.00D-01 BMatC= 8.25D-11 BMatP= 1.59D-09
 IDIUse=1 WtCom= 1.00D+00 WtEn= 0.00D+00
 Coeff-Com: -0.395D-02 0.328D-01 0.570D-01 0.239D+00 0.675D+00
 Coeff:     -0.395D-02 0.328D-01 0.570D-01 0.239D+00 0.675D+00
 Gap=     0.246 Goal=   None    Shift=    0.000
 RMSDP=1.25D-07 MaxDP=2.10D-06 DE=-1.15D-09 OVMax= 2.77D-06

 Cycle   6  Pass 1  IDiag  1:
 E= -284.420045958247     Delta-E=       -0.000000000063 Rises=F Damp=F
 DIIS: error= 2.94D-07 at cycle   6 NSaved=   6.
 NSaved= 6 IEnMin= 6 EnMin= -284.420045958247     IErMin= 6 ErrMin= 2.94D-07
 ErrMax= 2.94D-07  0.00D+00 EMaxC= 1.00D-01 BMatC= 1.28D-11 BMatP= 8.25D-11
 IDIUse=1 WtCom= 1.00D+00 WtEn= 0.00D+00
 Coeff-Com:  0.513D-03-0.973D-02 0.375D-03 0.469D-01 0.334D+00 0.628D+00
 Coeff:      0.513D-03-0.973D-02 0.375D-03 0.469D-01 0.334D+00 0.628D+00
 Gap=     0.245 Goal=   None    Shift=    0.000
 RMSDP=4.50D-08 MaxDP=8.06D-07 DE=-6.31D-11 OVMax= 1.04D-06

 Cycle   7  Pass 1  IDiag  1:
 E= -284.420045958259     Delta-E=       -0.000000000012 Rises=F Damp=F
 DIIS: error= 6.69D-08 at cycle   7 NSaved=   7.
 NSaved= 7 IEnMin= 7 EnMin= -284.420045958259     IErMin= 7 ErrMin= 6.69D-08
 ErrMax= 6.69D-08  0.00D+00 EMaxC= 1.00D-01 BMatC= 7.37D-13 BMatP= 1.28D-11
 IDIUse=1 WtCom= 1.00D+00 WtEn= 0.00D+00
 Coeff-Com:  0.440D-03-0.628D-02-0.314D-02 0.727D-02 0.116D+00 0.297D+00
 Coeff-Com:  0.588D+00
 Coeff:      0.440D-03-0.628D-02-0.314D-02 0.727D-02 0.116D+00 0.297D+00
 Coeff:      0.588D+00
 Gap=     0.245 Goal=   None    Shift=    0.000
 RMSDP=1.07D-08 MaxDP=1.54D-07 DE=-1.24D-11 OVMax= 2.08D-07

 Cycle   8  Pass 1  IDiag  1:
 E= -284.420045958258     Delta-E=        0.000000000001 Rises=F Damp=F
 DIIS: error= 2.14D-08 at cycle   8 NSaved=   8.
 NSaved= 8 IEnMin= 7 EnMin= -284.420045958259     IErMin= 8 ErrMin= 2.14D-08
 ErrMax= 2.14D-08  0.00D+00 EMaxC= 1.00D-01 BMatC= 3.94D-14 BMatP= 7.37D-13
 IDIUse=1 WtCom= 1.00D+00 WtEn= 0.00D+00
 Coeff-Com:  0.150D-03-0.198D-02-0.148D-02-0.782D-03 0.254D-01 0.830D-01
 Coeff-Com:  0.249D+00 0.647D+00
 Coeff:      0.150D-03-0.198D-02-0.148D-02-0.782D-03 0.254D-01 0.830D-01
 Coeff:      0.249D+00 0.647D+00
 Gap=     0.245 Goal=   None    Shift=    0.000
 RMSDP=2.54D-09 MaxDP=4.16D-08 DE= 1.02D-12 OVMax= 5.22D-08

 SCF Done:  E(RB3LYP) =  -284.420045958     A.U. after    8 cycles
            NFock=  8  Conv=0.25D-08     -V/T= 2.0089
 KE= 2.819182193528D+02 PE=-1.025086634615D+03 EE= 2.793238078132D+02
 Leave Link  502 at Fri Mar 14 15:42:25 2025, MaxMem=  8589934592 cpu:               6.1 elap:               0.5
 (Enter /home/enzo/gaussian_versions/gdv.j21/gdv/l701.exe)
 ... and contract with generalized density number  0.
 Compute integral first derivatives.
 Leave Link  701 at Fri Mar 14 15:42:26 2025, MaxMem=  8589934592 cpu:               0.5 elap:               0.1
 (Enter /home/enzo/gaussian_versions/gdv.j21/gdv/l702.exe)
 L702 exits ... SP integral derivatives will be done elsewhere.
 Leave Link  702 at Fri Mar 14 15:42:26 2025, MaxMem=  8589934592 cpu:               0.1 elap:               0.0
 (Enter /home/enzo/gaussian_versions/gdv.j21/gdv/l703.exe)
 Integral derivatives from FoFJK, PRISM(SPDF).
 Compute integral first derivatives, UseDBF=F ICtDFT=           0.
 Calling FoFJK, ICntrl=      2127 FMM=F ISym2X=0 I1Cent= 0 IOpClX= 0 NMat=1 NMatS=1 NMatT=0.
 FoFJK:  IHMeth= 1 ICntrl=    2127 DoSepK=F KAlg= 0 I1Cent=           0 FoldK=F
 IRaf=         0 NMat=       1 IRICut=       1 DoRegI=T DoRafI=F ISym2E= 0 IDoP0=0 IntGTp=1.
 FoFCou: FMM=F IPFlag=           0 FMFlag=      100000 FMFlg1=         800
         NFxFlg=           0 DoJE=F BraDBF=F KetDBF=F FulRan=T
         wScrn=  0.000000 ICntrl=      2127 IOpCl=  0 I1Cent=           0 NGrid=           0
         NMat0=    1 NMatS0=      1 NMatT0=    0 NMatD0=    1 NMtDS0=    0 NMtDT0=    0
 Symmetry not used in FoFCou.
 Leave Link  703 at Fri Mar 14 15:42:26 2025, MaxMem=  8589934592 cpu:               2.4 elap:               0.2
 (Enter /home/enzo/gaussian_versions/gdv.j21/gdv/l716.exe)
 Dipole        =-8.56335199D-02-5.44541049D-01 5.74664412D-01
 ***** Axes restored to original set *****
 -------------------------------------------------------------------
 Center     Atomic                   Forces (Hartrees/Bohr)
 Number     Number              X              Y              Z
 -------------------------------------------------------------------
      1        7           0.000003708   -0.000008691    0.000014027
      2        6          -0.000037940    0.000021727   -0.000026731
      3        6           0.000034813    0.000024984    0.000012807
      4        8          -0.000006702   -0.000011094   -0.000002251
      5        8          -0.000011299   -0.000010675    0.000000350
      6        1          -0.000007905   -0.000000719    0.000001023
      7        1           0.000006422    0.000001619   -0.000000363
      8        1           0.000006433   -0.000003781    0.000002306
      9        1           0.000006796   -0.000013134    0.000002621
     10        1           0.000005672   -0.000000235   -0.000003790
 -------------------------------------------------------------------
 Cartesian Forces:  Max     0.000037940 RMS     0.000013866
 Leave Link  716 at Fri Mar 14 15:42:26 2025, MaxMem=  8589934592 cpu:               0.1 elap:               0.0
 (Enter /home/enzo/gaussian_versions/gdv.j21/gdv/l103.exe)

 GradGradGradGradGradGradGradGradGradGradGradGradGradGradGradGradGradGrad
 Berny optimization.
 Using GEDIIS/GDIIS optimizer.
 FormGI is forming the generalized inverse of G from B-inverse, IUseBI=4.
 Internal  Forces:  Max     0.000016587 RMS     0.000007677
 Search for a local minimum.
 Step number  23 out of a maximum of   46
 All quantities printed in internal units (Hartrees-Bohrs-Radians)
 RMS Force = .76768D-05 SwitMx=.10000D-02 MixMth= 2
 Mixed Optimization -- En-DIIS/RFO-DIIS
 Swapping is turned off.
 Update second derivatives using D2CorX and points   17   18   16   19   20
                                                     21   22   23
 DE= -9.49D-08 DEPred=-1.14D-07 R= 8.32D-01
 Trust test= 8.32D-01 RLast= 7.16D-03 DXMaxT set to 8.60D-01
 ITU=  0  0  1  1  0 -1 -1  1  1  1  0  1  0  1  1  1  1  1  1  0
 ITU=  1  1  0
     Eigenvalues ---    0.00120   0.00311   0.02259   0.03994   0.04952
     Eigenvalues ---    0.05947   0.06613   0.09532   0.13245   0.15724
     Eigenvalues ---    0.16624   0.17234   0.21825   0.23470   0.27502
     Eigenvalues ---    0.29973   0.31239   0.32780   0.36080   0.40669
     Eigenvalues ---    0.42035   0.45402   0.50685   0.85319
 En-DIIS/RFO-DIIS/Sim-DIIS IScMMF=       -3 using points:    23   22   21   20   19
 RFO step:  Lambda=-9.30649362D-09.
 NNeg= 0 NGDIIS= 5 SimSw=  2.50D-01 Rises=F DC= -9.49D-08 SmlDif=  1.00D-05
 NRisDI= 0 DoIntr=F SqrtH=F CThrHd= 10.0 CDAdj=  3.0
 RMS Error=  0.2338181167D-03 NUsed= 5 OKEnD=F EnDIS=F
 InvSVX:  RCond= 8.79D-08 Info=           0 Equed=N FErr=  1.24D-13 BErr=  7.27D-17
 DIIS inversion failure, remove point   5.
 InvSVX:  RCond= 1.68D-07 Info=           0 Equed=N FErr=  2.70D-14 BErr=  5.28D-17
 RFO-DIIS uses    4 points instead of    5
 DidBck=FF Rises=F RFO-DIIS coefs:    1.04269   -0.00026   -0.05180    0.00937    0.00000
 Iteration  1 RMS(Cart)=  0.00023304 RMS(Int)=  0.00000004
 Iteration  2 RMS(Cart)=  0.00000005 RMS(Int)=  0.00000000
 Variable       Old X    -DE/DX   Delta X   Delta X   Delta X     New X
                                 (Linear)    (Quad)   (Total)
    R1        2.75060  -0.00001   0.00001  -0.00005  -0.00003   2.75056
    R2        1.92089   0.00001  -0.00001   0.00002   0.00001   1.92090
    R3        1.92413   0.00000  -0.00000  -0.00000  -0.00000   1.92413
    R4        2.86328   0.00002   0.00002   0.00003   0.00006   2.86334
    R5        2.07134  -0.00000  -0.00000   0.00000  -0.00000   2.07134
    R6        2.09279   0.00001  -0.00001   0.00004   0.00003   2.09282
    R7        2.28844   0.00000   0.00001   0.00001   0.00002   2.28845
    R8        2.55682  -0.00001  -0.00000  -0.00003  -0.00003   2.55679
    R9        1.84417   0.00001   0.00000   0.00001   0.00002   1.84419
    A1        1.92529   0.00001   0.00002   0.00004   0.00006   1.92534
    A2        1.89912  -0.00001  -0.00001  -0.00006  -0.00007   1.89905
    A3        1.88193   0.00000   0.00003   0.00002   0.00005   1.88198
    A4        1.91641   0.00002  -0.00002   0.00009   0.00008   1.91648
    A5        1.93261   0.00000   0.00002   0.00007   0.00009   1.93270
    A6        2.01619  -0.00001  -0.00002  -0.00003  -0.00005   2.01614
    A7        1.89757  -0.00001  -0.00003   0.00002  -0.00001   1.89756
    A8        1.84333  -0.00001   0.00004  -0.00016  -0.00013   1.84320
    A9        1.85243   0.00000   0.00001   0.00000   0.00001   1.85244
   A10        2.18183  -0.00002  -0.00001  -0.00005  -0.00006   2.18177
   A11        1.95189   0.00001   0.00001   0.00002   0.00004   1.95193
   A12        2.14864   0.00001  -0.00001   0.00003   0.00002   2.14865
   A13        1.85348  -0.00000   0.00000   0.00000   0.00000   1.85348
    D1        2.77094  -0.00000  -0.00040  -0.00009  -0.00050   2.77044
    D2       -1.41663   0.00000  -0.00044   0.00004  -0.00040  -1.41703
    D3        0.68932   0.00000  -0.00043   0.00007  -0.00036   0.68896
    D4        0.70980  -0.00001  -0.00044  -0.00011  -0.00055   0.70924
    D5        2.80541  -0.00000  -0.00048   0.00002  -0.00046   2.80495
    D6       -1.37183   0.00000  -0.00046   0.00005  -0.00041  -1.37224
    D7       -0.38573   0.00000   0.00022   0.00001   0.00024  -0.38550
    D8        2.79851   0.00001   0.00025   0.00013   0.00038   2.79889
    D9       -2.50253  -0.00001   0.00022  -0.00014   0.00009  -2.50244
   D10        0.68171  -0.00000   0.00025  -0.00002   0.00023   0.68194
   D11        1.79897  -0.00000   0.00021  -0.00007   0.00014   1.79911
   D12       -1.29997   0.00000   0.00024   0.00005   0.00028  -1.29969
   D13        3.08820  -0.00000  -0.00004  -0.00001  -0.00004   3.08815
   D14       -0.01170   0.00000  -0.00001   0.00011   0.00010  -0.01160
         Item               Value     Threshold  Converged?
 Maximum Force            0.000017     0.000450     YES
 RMS     Force            0.000008     0.000300     YES
 Maximum Displacement     0.000863     0.001800     YES
 RMS     Displacement     0.000233     0.001200     YES
 Predicted change in Energy=-7.923324D-09
 Optimization completed.
    -- Stationary point found.
                           ----------------------------
                           !   Optimized Parameters   !
                           ! (Angstroms and Degrees)  !
 --------------------------                            --------------------------
 ! Name  Definition              Value          Derivative Info.                !
 --------------------------------------------------------------------------------
 ! R1    R(1,2)                  1.4556         -DE/DX =    0.0                 !
 ! R2    R(1,6)                  1.0165         -DE/DX =    0.0                 !
 ! R3    R(1,7)                  1.0182         -DE/DX =    0.0                 !
 ! R4    R(2,3)                  1.5152         -DE/DX =    0.0                 !
 ! R5    R(2,8)                  1.0961         -DE/DX =    0.0                 !
 ! R6    R(2,9)                  1.1075         -DE/DX =    0.0                 !
 ! R7    R(3,4)                  1.211          -DE/DX =    0.0                 !
 ! R8    R(3,5)                  1.353          -DE/DX =    0.0                 !
 ! R9    R(5,10)                 0.9759         -DE/DX =    0.0                 !
 ! A1    A(2,1,6)              110.3109         -DE/DX =    0.0                 !
 ! A2    A(2,1,7)              108.8115         -DE/DX =    0.0                 !
 ! A3    A(6,1,7)              107.8264         -DE/DX =    0.0                 !
 ! A4    A(1,2,3)              109.802          -DE/DX =    0.0                 !
 ! A5    A(1,2,8)              110.7306         -DE/DX =    0.0                 !
 ! A6    A(1,2,9)              115.519          -DE/DX =    0.0                 !
 ! A7    A(3,2,8)              108.7228         -DE/DX =    0.0                 !
 ! A8    A(3,2,9)              105.615          -DE/DX =    0.0                 !
 ! A9    A(8,2,9)              106.1363         -DE/DX =    0.0                 !
 ! A10   A(2,3,4)              125.0096         -DE/DX =    0.0                 !
 ! A11   A(2,3,5)              111.8353         -DE/DX =    0.0                 !
 ! A12   A(4,3,5)              123.1078         -DE/DX =    0.0                 !
 ! A13   A(3,5,10)             106.1965         -DE/DX =    0.0                 !
 ! D1    D(6,1,2,3)            158.7633         -DE/DX =    0.0                 !
 ! D2    D(6,1,2,8)            -81.1668         -DE/DX =    0.0                 !
 ! D3    D(6,1,2,9)             39.4949         -DE/DX =    0.0                 !
 ! D4    D(7,1,2,3)             40.6683         -DE/DX =    0.0                 !
 ! D5    D(7,1,2,8)            160.7382         -DE/DX =    0.0                 !
 ! D6    D(7,1,2,9)            -78.6001         -DE/DX =    0.0                 !
 ! D7    D(1,2,3,4)            -22.1007         -DE/DX =    0.0                 !
 ! D8    D(1,2,3,5)            160.3428         -DE/DX =    0.0                 !
 ! D9    D(8,2,3,4)           -143.3844         -DE/DX =    0.0                 !
 ! D10   D(8,2,3,5)             39.0591         -DE/DX =    0.0                 !
 ! D11   D(9,2,3,4)            103.0735         -DE/DX =    0.0                 !
 ! D12   D(9,2,3,5)            -74.483          -DE/DX =    0.0                 !
 ! D13   D(2,3,5,10)           176.9406         -DE/DX =    0.0                 !
 ! D14   D(4,3,5,10)            -0.6702         -DE/DX =    0.0                 !
 --------------------------------------------------------------------------------
 Lowest energy point so far.  Saving SCF results.
 Largest change from initial coordinates is atom    4       1.011 Angstoms.
 GradGradGradGradGradGradGradGradGradGradGradGradGradGradGradGradGradGrad

 Leave Link  103 at Fri Mar 14 15:42:26 2025, MaxMem=  8589934592 cpu:               0.1 elap:               0.0
 (Enter /home/enzo/gaussian_versions/gdv.j21/gdv/l202.exe)
                          Input orientation:                          
 ---------------------------------------------------------------------
 Center     Atomic      Atomic             Coordinates (Angstroms)
 Number     Number       Type             X           Y           Z
 ---------------------------------------------------------------------
      1          7           0       -2.039847   -0.100571   -0.388357
      2          6           0       -0.953040    0.055412    0.567235
      3          6           0        0.370196    0.126535   -0.167453
      4          8           0        0.569451   -0.300996   -1.282804
      5          8           0        1.339216    0.684911    0.594033
      6          1           0       -2.858796   -0.491718    0.069448
      7          1           0       -1.747710   -0.751935   -1.114391
      8          1           0       -1.080076    0.973191    1.152895
      9          1           0       -0.842275   -0.765736    1.302020
     10          1           0        2.158260    0.644628    0.064968
 ---------------------------------------------------------------------
                    Distance matrix (angstroms):
                    1          2          3          4          5
     1  N    0.000000
     2  C    1.455554   0.000000
     3  C    2.430779   1.515183   0.000000
     4  O    2.765619   2.422324   1.210988   0.000000
     5  O    3.605571   2.377273   1.353013   2.255453   0.000000
     6  H    1.016493   2.044272   3.296172   3.690236   4.391236
     7  H    1.018207   2.027603   2.480710   2.366632   3.809508
     8  H    2.109404   1.096108   2.136220   3.205795   2.499681
     9  H    2.175776   1.107458   2.103707   2.981656   2.713765
    10  H    4.287766   3.206188   1.876064   2.288014   0.975892
                    6          7          8          9         10
     6  H    0.000000
     7  H    1.644293   0.000000
     8  H    2.546303   2.926154   0.000000
     9  H    2.379218   2.580512   1.761435   0.000000
    10  H    5.144138   4.312526   3.431962   3.538733   0.000000
 Stoichiometry    C2H5NO2
 Framework group  C1[X(C2H5NO2)]
 Deg. of freedom    24
 Full point group                 C1      NOp   1
 RotChk:  IX=0 Diff= 8.01D-16
 Largest Abelian subgroup         C1      NOp   1
 Largest concise Abelian subgroup C1      NOp   1
                         Standard orientation:                         
 ---------------------------------------------------------------------
 Center     Atomic      Atomic             Coordinates (Angstroms)
 Number     Number       Type             X           Y           Z
 ---------------------------------------------------------------------
      1          7           0        1.881162    0.103791   -0.221577
      2          6           0        0.732475   -0.716404    0.133998
      3          6           0       -0.537854    0.101161    0.017247
      4          8           0       -0.591880    1.310326    0.055884
      5          8           0       -1.634479   -0.684720   -0.084980
      6          1           0        2.731354   -0.289763    0.172817
      7          1           0        1.755575    1.033700    0.173698
      8          1           0        0.654686   -1.584290   -0.530965
      9          1           0        0.734425   -1.118475    1.165888
     10          1           0       -2.401031   -0.081099   -0.105094
 ---------------------------------------------------------------------
 Rotational constants (GHZ):          10.3014333           3.9531401           2.9490131
 Leave Link  202 at Fri Mar 14 15:42:26 2025, MaxMem=  8589934592 cpu:               0.1 elap:               0.0
 (Enter /home/enzo/gaussian_versions/gdv.j21/gdv/l601.exe)
 Copying SCF densities to generalized density rwf, IOpCl= 0 IROHF=0.

 **********************************************************************

            Population analysis using the SCF Density.

 **********************************************************************

 Orbital symmetries:
       Occupied  (A) (A) (A) (A) (A) (A) (A) (A) (A) (A) (A) (A)
                 (A) (A) (A) (A) (A) (A) (A) (A)
       Virtual   (A) (A) (A) (A) (A) (A) (A) (A) (A) (A) (A) (A)
                 (A) (A) (A) (A) (A) (A) (A) (A) (A) (A) (A) (A)
                 (A) (A) (A) (A) (A) (A) (A) (A) (A) (A) (A) (A)
                 (A) (A) (A) (A) (A) (A) (A) (A) (A) (A) (A) (A)
                 (A) (A) (A) (A) (A) (A) (A) (A) (A) (A) (A) (A)
                 (A) (A) (A) (A) (A)
 The electronic state is 1-A.
 Alpha  occ. eigenvalues --      -19.20291     -19.14618     -14.31663     -10.32622     -10.22927
 Alpha  occ. eigenvalues --       -1.11151      -1.02185      -0.88741      -0.72347      -0.60127
 Alpha  occ. eigenvalues --       -0.52289      -0.48787      -0.48436      -0.44116      -0.42615
 Alpha  occ. eigenvalues --       -0.40183      -0.38690      -0.32445      -0.28419      -0.23929
 Alpha virt. eigenvalues --        0.00621       0.07131       0.08826       0.13136       0.16513
 Alpha virt. eigenvalues --        0.16631       0.22324       0.24262       0.30036       0.35548
 Alpha virt. eigenvalues --        0.53547       0.53837       0.56355       0.61037       0.66342
 Alpha virt. eigenvalues --        0.67324       0.70810       0.74598       0.77721       0.80180
 Alpha virt. eigenvalues --        0.83748       0.85812       0.90816       0.91400       0.92030
 Alpha virt. eigenvalues --        0.94859       0.95577       1.00110       1.02696       1.06964
 Alpha virt. eigenvalues --        1.12741       1.25400       1.35563       1.39578       1.44543
 Alpha virt. eigenvalues --        1.51976       1.55826       1.69674       1.72924       1.77360
 Alpha virt. eigenvalues --        1.78447       1.80092       1.85760       1.90342       1.95419
 Alpha virt. eigenvalues --        2.01405       2.05872       2.09719       2.16311       2.33187
 Alpha virt. eigenvalues --        2.34721       2.37915       2.45108       2.52720       2.60769
 Alpha virt. eigenvalues --        2.65143       2.72207       2.86517       2.96778       3.08740
 Alpha virt. eigenvalues --        3.75428       3.84234       4.09089       4.18827       4.47897
          Condensed to atoms (all electrons):
               1          2          3          4          5          6
     1  N    6.918035   0.313092  -0.035528  -0.006258   0.001608   0.307690
     2  C    0.313092   5.094784   0.325291  -0.082187  -0.095106  -0.031324
     3  C   -0.035528   0.325291   4.328712   0.581872   0.283724   0.004977
     4  O   -0.006258  -0.082187   0.581872   8.016648  -0.082891   0.000362
     5  O    0.001608  -0.095106   0.283724  -0.082891   8.232540  -0.000072
     6  H    0.307690  -0.031324   0.004977   0.000362  -0.000072   0.452732
     7  H    0.306674  -0.042734  -0.008206   0.019453   0.000524  -0.029063
     8  H   -0.047374   0.361867  -0.022700   0.002169   0.004103   0.000590
     9  H   -0.040936   0.348506  -0.027185  -0.001243   0.002274  -0.006734
    10  H   -0.000201   0.010896  -0.006305   0.010744   0.216136   0.000006
               7          8          9         10
     1  N    0.306674  -0.047374  -0.040936  -0.000201
     2  C   -0.042734   0.361867   0.348506   0.010896
     3  C   -0.008206  -0.022700  -0.027185  -0.006305
     4  O    0.019453   0.002169  -0.001243   0.010744
     5  O    0.000524   0.004103   0.002274   0.216136
     6  H   -0.029063   0.000590  -0.006734   0.000006
     7  H    0.429471   0.005985  -0.000608  -0.000051
     8  H    0.005985   0.563547  -0.046910  -0.000346
     9  H   -0.000608  -0.046910   0.617601  -0.000518
    10  H   -0.000051  -0.000346  -0.000518   0.357806
 Mulliken charges:
               1
     1  N   -0.716801
     2  C   -0.203086
     3  C    0.575348
     4  O   -0.458669
     5  O   -0.562840
     6  H    0.300836
     7  H    0.318555
     8  H    0.179070
     9  H    0.155754
    10  H    0.411832
 Sum of Mulliken charges =   0.00000
 Mulliken charges with hydrogens summed into heavy atoms:
               1
     1  N   -0.097409
     2  C    0.131738
     3  C    0.575348
     4  O   -0.458669
     5  O   -0.151008
 Electronic spatial extent (au):  <R**2>=            416.8287
 Charge=             -0.0000 electrons
 Dipole moment (field-independent basis, Debye):
    X=             -0.2177    Y=             -1.3841    Z=              1.4607  Tot=              2.0240
 Quadrupole moment (field-independent basis, Debye-Ang):
   XX=            -22.5650   YY=            -32.2826   ZZ=            -30.0576
   XY=             -1.1188   XZ=              3.5296   YZ=              0.1820
 Traceless Quadrupole moment (field-independent basis, Debye-Ang):
   XX=              5.7367   YY=             -3.9809   ZZ=             -1.7558
   XY=             -1.1188   XZ=              3.5296   YZ=              0.1820
 Octapole moment (field-independent basis, Debye-Ang**2):
  XXX=            -13.6689  YYY=             -1.3939  ZZZ=              1.7294  XYY=              5.2801
  XXY=              2.7023  XXZ=              6.4789  XZZ=             -4.5759  YZZ=              0.2686
  YYZ=             -0.0858  XYZ=              1.0262
 Hexadecapole moment (field-independent basis, Debye-Ang**3):
 XXXX=           -238.2056 YYYY=           -137.3464 ZZZZ=            -35.9638 XXXY=             -6.8840
 XXXZ=             19.4955 YYYX=              4.5583 YYYZ=              1.7490 ZZZX=              4.0933
 ZZZY=              0.4570 XXYY=            -76.9215 XXZZ=            -65.4702 YYZZ=            -27.4665
 XXYZ=              0.9666 YYXZ=              0.9186 ZZXY=             -0.6449
 N-N= 1.794245614910D+02 E-N=-1.025086634476D+03  KE= 2.819182193528D+02
 No NMR shielding tensors so no spin-rotation constants.
 Leave Link  601 at Fri Mar 14 15:42:26 2025, MaxMem=  8589934592 cpu:               0.5 elap:               0.1
 (Enter /home/enzo/gaussian_versions/gdv.j21/gdv/l9999.exe)
 Unable to Open any file for archive entry.
 1\1\GINC-ORACLE\FOpt\RB3LYP\6-31G(d)\C2H5N1O2\ENZO\14-Mar-2025\0\\#p B
 3LYP/6-31G* OPT OUTPUT=PICKETT\\individuo_2184\\0,1\N,-2.039847493,-0.
 1005706983,-0.3883570265\C,-0.9530403321,0.0554122379,0.5672349241\C,0
 .3701959238,0.126534853,-0.1674534118\O,0.5694514147,-0.3009957692,-1.
 2828043768\O,1.3392159434,0.6849109301,0.5940328369\H,-2.8587961217,-0
 .491718089,0.0694479405\H,-1.7477098631,-0.7519348488,-1.1143908272\H,
 -1.0800760822,0.9731909942,1.1528950229\H,-0.8422745764,-0.7657358645,
 1.3020198433\H,2.1582601867,0.6446282546,0.0649680746\\Version=ES64L-G
 DVRevJ.21\State=1-A\HF=-284.420046\RMSD=2.536e-09\RMSF=1.387e-05\Dipol
 e=0.1095755,-0.3347347,0.714173\Quadrupole=3.4341908,-0.4195151,-3.014
 6758,3.105716,-1.2042731,-0.5473344\PG=C01 [X(C2H5N1O2)]\\@
 The archive entry for this job was punched.
 DoSRE=F DoSRN=F DoDH=F DoFC=F DoNQ=T DoQCD=F DoSCD=F
 Inertia tensor (amu-bohr**2): 
                 1             2             3 
      1   0.188333D+03 -0.688669D+02 -0.113111D+02
      2  -0.688669D+02  0.580665D+03 -0.543363D+02
      3  -0.113111D+02 -0.543363D+02  0.474709D+03
 Principal inertia moments (amu-bohr**2):
 Iaa = 0.175193D+03 Ibb= 0.456534D+03 Icc= 0.611981D+03
 Rotation matrix to Principal Axis frame: 
                 1             2             3 
      1  -0.981963D+00  0.126175D+00  0.140817D+00
      2  -0.176029D+00 -0.338215D+00 -0.924459D+00
      3  -0.690173D-01 -0.932572D+00  0.354324D+00
                Principal axis orientation:                
 ---------------------------------------------------------------------
 Center     Atomic                     Coordinates (Angstroms)
 Number     Number                        X           Y           Z
 ---------------------------------------------------------------------
      1          7                    1.930037    0.057649   -0.185793
      2          6                    0.769423   -0.749137    0.161637
      3          6                   -0.491758    0.078918    0.021904
      4          8                   -0.535183    1.288801    0.050001
      5          8                   -1.594146   -0.697808   -0.088025
      6          1                    2.771471   -0.340326    0.222696
      7          1                    1.807937    0.991889    0.200253
      8          1                    0.692191   -1.621742   -0.497187
      9          1                    0.754489   -1.142677    1.196705
     10          1                   -2.354811   -0.087450   -0.122910
 ---------------------------------------------------------------------
 Rotational constants (MHZ):
  10301.4333134   3953.1401261   2949.0130697
 Nuclear quadrupole coupling constants [Chi] (MHz):
  1  N(14) 
   aa=     2.7923   ba=     0.4969   ca=     0.4459
   ab=     0.4969   bb=     2.2759   cb=     0.0882
   ac=     0.4459   bc=     0.0882   cc=    -5.0682
 Dipole moment (Debye):
     -0.2490058     -1.3699505      1.4689455  Tot=      2.0239983

 Atoms with significant hyperfine tensors:  N1-14

--------------------------------------------------------------------------------
 individuo_2184                                          
   99  1000  50  0.1760E-11  0.1000E+07  0.1000E+01 1.0000000000
a 3  1  0  0  0  1  1   1  0  1  0
     10000   0.10301433E+05    0.0000E+00   /  A  /
     20000   0.39531401E+04    0.0000E+00   /  B  /
     30000   0.29490131E+04    0.0000E+00   /  C  /
 110010000   0.41883957E+01    0.0000E+00   /  (1 N-14) 3/2*Chi_aa             /
 110040000   0.18360294E+01    0.0000E+00   /  (1 N-14) 1/4*(Chi_bb-Chi_cc)    /
 110610000   0.49690933E+00    0.0000E+00   /  (1 N-14) Chi_ab                 /
 110410000   0.44585150E+00    0.0000E+00   /  (1 N-14) Chi_ac                 /
 110210000   0.88213176E-01    0.0000E+00   /  (1 N-14) Chi_bc                 /
--------------------------------------------------------------------------------



 "A LITTLE BIT GOES A LONG WAY"
 R.S. MULLIKEN AS QUOTED BY K. RUEDENBERG
 Job cpu time:       0 days  0 hours  8 minutes  7.5 seconds.
 Elapsed time:       0 days  0 hours  1 minutes 12.6 seconds.
 File lengths (MBytes):  RWF=     10 Int=      0 D2E=      0 Chk=      2 Scr=      1
 Normal termination of Gaussian DV at Fri Mar 14 15:42:26 2025.
