24
	Energy:      46.7156150
C         -1.19686       -1.32053        0.56181
C         -0.79051        0.03814       -0.09176
C          0.58503        0.46855        0.43839
C          1.60110       -0.65842        0.19408
C          1.06032       -1.94654        0.82949
C         -2.52199       -1.82712       -0.04488
O         -0.20143       -2.30122        0.28027
O         -1.73103        1.04506        0.18715
O          0.99688        1.65060       -0.20087
O          1.78776       -0.87189       -1.18277
O         -2.85970       -3.08300        0.48277
O         -1.35446       -1.19275        1.96018
H         -3.38867       -2.91858        1.30660
H         -2.42385        1.00374       -0.52248
H          1.44433        2.21526        0.48214
H         -0.69685       -0.09915       -1.19692
H          0.48898        0.63644        1.53945
H          2.57749       -0.41182        0.67387
H          1.77594       -2.77161        0.62776
H          1.00092       -1.85539        1.93694
H          2.46727       -0.21524       -1.48743
H         -3.35122       -1.10254        0.12769
H         -2.41832       -1.93255       -1.14601
H         -2.04953       -0.50585        2.13318
