 Entering Gaussian System, Link 0=gdv
 Input=cumulative_population/temp_processing/individuo_4292.gjf
 Output=cumulative_population/temp_processing/individuo_4292.log
 Initial command:
 /home/enzo/gaussian_versions/gdv.j21/gdv/l1.exe "/local/home/enzo/scratch/Gau-2480368.inp" -scrdir="/local/home/enzo/scratch/"
 Entering Link 1 = /home/enzo/gaussian_versions/gdv.j21/gdv/l1.exe PID=   2480369.
  
 Copyright (c) 1988-2022, Gaussian, Inc.  All Rights Reserved.
  
 This is the private, development version of
 the Gaussian(R) DV system of programs. It is based on
 the Gaussian(R) 16 system (copyright 2016, Gaussian, Inc.),
 the Gaussian(R) 09 system (copyright 2009, Gaussian, Inc.),
 the Gaussian(R) 03 system (copyright 2003, Gaussian, Inc.),
 the Gaussian(R) 98 system (copyright 1998, Gaussian, Inc.),
 the Gaussian(R) 94 system (copyright 1995, Gaussian, Inc.),
 the Gaussian 92(TM) system (copyright 1992, Gaussian, Inc.),
 the Gaussian 90(TM) system (copyright 1990, Gaussian, Inc.),
 the Gaussian 88(TM) system (copyright 1988, Gaussian, Inc.),
 the Gaussian 86(TM) system (copyright 1986, Carnegie Mellon
 University), and the Gaussian 82(TM) system (copyright 1983,
 Carnegie Mellon University). Gaussian is a federally registered
 trademark of Gaussian, Inc.
  
 This software contains proprietary and confidential information,
 including trade secrets, belonging to Gaussian, Inc.
  
 This software is provided under written license and may be
 used, copied, transmitted, or stored only in accord with that
 written license.
  
 The following legend is applicable only to US Government
 contracts under FAR:
  
                    RESTRICTED RIGHTS LEGEND
  
 Use, reproduction and disclosure by the US Government is
 subject to restrictions as set forth in subparagraphs (a)
 and (c) of the Commercial Computer Software - Restricted
 Rights clause in FAR 52.227-19.
  
 Gaussian, Inc.
 340 Quinnipiac St., Bldg. 40, Wallingford CT 06492
  
  
 ---------------------------------------------------------------
 Warning -- This program may not be used in any manner that
 competes with the business of Gaussian, Inc. or will provide
 assistance to any competitor of Gaussian, Inc.  The licensee
 of this program is prohibited from giving any competitor of
 Gaussian, Inc. access to this program.  By using this program,
 the user acknowledges that Gaussian, Inc. is engaged in the
 business of creating and licensing software in the field of
 computational chemistry and represents and warrants to the
 licensee that it is not a competitor of Gaussian, Inc. and that
 it will not use this program in any manner prohibited above.
 ---------------------------------------------------------------
  

 Cite this work as:
 Gaussian Development Version, Revision J.21,
 M. J. Frisch, G. W. Trucks, H. B. Schlegel, G. E. Scuseria, 
 M. A. Robb, J. R. Cheeseman, G. Scalmani, V. Barone, 
 G. A. Petersson, H. Nakatsuji, X. Li, A. V. Marenich, M. Caricato, 
 J. Bloino, B. G. Janesko, J. Zheng, R. Gomperts, B. Mennucci, 
 H. P. Hratchian, J. V. Ortiz, A. F. Izmaylov, J. L. Sonnenberg, 
 D. Williams-Young, F. Ding, F. Lipparini, F. Egidi, J. Goings, 
 B. Peng, A. Petrone, T. Henderson, D. Ranasinghe, V. G. Zakrzewski, 
 J. Gao, N. Rega, G. Zheng, W. Liang, M. Hada, M. Ehara, K. Toyota, 
 R. Fukuda, J. Hasegawa, M. Ishida, T. Nakajima, Y. Honda, O. Kitao, 
 H. Nakai, T. Vreven, K. Throssell, J. A. Montgomery, Jr., 
 J. E. Peralta, F. Ogliaro, M. J. Bearpark, J. J. Heyd, 
 E. N. Brothers, K. N. Kudin, V. N. Staroverov, T. A. Keith, 
 R. Kobayashi, J. Normand, K. Raghavachari, A. P. Rendell, 
 J. C. Burant, S. S. Iyengar, J. Tomasi, M. Cossi, J. M. Millam, 
 M. Klene, C. Adamo, R. Cammi, J. W. Ochterski, R. L. Martin, 
 K. Morokuma, O. Farkas, J. B. Foresman, and D. J. Fox, 
 Gaussian, Inc., Wallingford CT, 2020.
 
 ******************************************
 Gaussian DV:  ES64L-GDVRevJ.21 25-Jul-2022
                16-Mar-2025 
 ******************************************
 -------------------------------------
 #p UFF GEOM=READALLGIC OUTPUT=PICKETT
 -------------------------------------
 1/18=20,37=210000000,38=1,56=1,64=2,145=602,172=1/1;
 2/12=2/2;
 3/5=30,11=9,25=1,30=1,41=10020000,43=2/1;
 4/20=10,24=3/2;
 99/5=1,9=1,10=1024/99;
 Leave Link    1 at Sun Mar 16 14:33:17 2025, MaxMem=           0 cpu:               0.0 elap:               0.0
 (Enter /home/enzo/gaussian_versions/gdv.j21/gdv/l101.exe)
 ------------------
 individuo_4292.xyz
 ------------------
 Symbolic Z-matrix:
 Charge =     0 Multiplicity =     1
 7                    -1.90477   0.06657  -0.36267 
 6                    -0.82903   0.59617   0.4663 
 6                     0.47203  -0.05034   0.11124 
 8                     0.57087  -1.3034    0.07877 
 8                     1.56216   0.74511  -0.21577 
 1                    -2.30135  -0.7846    0.09632 
 1                    -1.50799  -0.21739  -1.28701 
 1                    -0.74876   1.69428   0.32709 
 1                    -1.05812   0.40846   1.53633 
 1                     2.47976   0.33571  -0.33606 
 
 Initializing the GIC definitions file.

 CrInp1: Reading the GIC input below.
 Dihed1 = D( 6, 1, 2, 3)
 Dihed2 = D( 1, 2, 3, 4)
 Dihed3 = D( 4, 3, 5, 10)
 
 Warning:  Number of GICs=     3 3N-6=    24.
 ITRead=  0  0  0  0  0  0  0  0  0  0
 MicOpt= -1 -1 -1 -1 -1 -1 -1 -1 -1 -1
                           ----------------------------
                           !    Current Parameters    !
                           ! (Angstroms and Degrees)  !
 --------------------------                            --------------------------
 ! Name   Definition             Value                                          !
 --------------------------------------------------------------------------------
 ! Dihed1 D(6,1,2,3)            87.9402                                         !
 ! Dihed2 D(1,2,3,4)           -52.1903                                         !
 ! Dihed3 D(4,3,5,10)           -9.9479                                         !
 --------------------------------------------------------------------------------
 NAtoms=     10 NQM=       10 NQMF=       0 NMMI=      0 NMMIF=      0
                NMic=       0 NMicF=      0.
                    Isotopes and Nuclear Properties:
 (Nuclear quadrupole moments (NQMom) in fm**2, nuclear magnetic moments (NMagM)
  in nuclear magnetons)

  Atom         1           2           3           4           5           6           7           8           9          10
 IAtWgt=          14          12          12          16          16           1           1           1           1           1
 AtmWgt=  14.0030740  12.0000000  12.0000000  15.9949146  15.9949146   1.0078250   1.0078250   1.0078250   1.0078250   1.0078250
 NucSpn=           2           0           0           0           0           1           1           1           1           1
 AtZEff=  -0.0000000  -0.0000000  -0.0000000  -0.0000000  -0.0000000  -0.0000000  -0.0000000  -0.0000000  -0.0000000  -0.0000000
 NQMom=    2.0440000   0.0000000   0.0000000   0.0000000   0.0000000   0.0000000   0.0000000   0.0000000   0.0000000   0.0000000
 NMagM=    0.4037610   0.0000000   0.0000000   0.0000000   0.0000000   2.7928460   2.7928460   2.7928460   2.7928460   2.7928460
 AtZNuc=   7.0000000   6.0000000   6.0000000   8.0000000   8.0000000   1.0000000   1.0000000   1.0000000   1.0000000   1.0000000
 Generating MM parameters.
 Include all MM classes

 MM sanity checks:
 All charges sum to:                0.00000000
 Charges of atoms sum to:           0.00000000
 MMInit generated parameter data with length LenPar=        1463.
 Leave Link  101 at Sun Mar 16 14:33:17 2025, MaxMem=   104857600 cpu:               0.1 elap:               0.1
 (Enter /home/enzo/gaussian_versions/gdv.j21/gdv/l202.exe)
                          Input orientation:                          
 ---------------------------------------------------------------------
 Center     Atomic      Atomic             Coordinates (Angstroms)
 Number     Number       Type             X           Y           Z
 ---------------------------------------------------------------------
      1          7    10071003       -1.904774    0.066568   -0.362667
      2          6    10061003       -0.829026    0.596167    0.466295
      3          6    10061000        0.472032   -0.050343    0.111244
      4          8    10081002        0.570868   -1.303401    0.078768
      5          8    10081000        1.562162    0.745114   -0.215769
      6          1    10011000       -2.301353   -0.784595    0.096321
      7          1    10011000       -1.507989   -0.217388   -1.287013
      8          1    10011000       -0.748763    1.694283    0.327088
      9          1    10011000       -1.058124    0.408461    1.536333
     10          1    10011000        2.479757    0.335709   -0.336061
 ---------------------------------------------------------------------
                    Distance matrix (angstroms):
                    1          2          3          4          5
     1  N    0.000000
     2  C    1.457699   0.000000
     3  C    2.426410   1.495590   0.000000
     4  O    2.863649   2.391284   1.257369   0.000000
     5  O    3.535767   2.491019   1.388551   2.294740   0.000000
     6  H    1.045191   2.052104   2.868974   2.918753   4.167032
     7  H    1.045220   2.048646   2.429714   2.714117   3.391136
     8  H    2.112245   1.109811   2.140245   3.284691   2.556558
     9  H    2.107109   1.110271   2.140738   2.776433   3.170031
    10  H    4.392864   3.414624   2.092863   2.550024   1.011960
                    6          7          8          9         10
     6  H    0.000000
     7  H    1.692561   0.000000
     8  H    2.934046   2.614619   0.000000
     9  H    2.245581   2.926662   1.792014   0.000000
    10  H    4.929609   4.136707   3.564945   4.003468   0.000000
 Stoichiometry    C2H5NO2
 Framework group  C1[X(C2H5NO2)]
 Deg. of freedom    24
 Full point group                 C1      NOp   1
 Largest Abelian subgroup         C1      NOp   1
 Largest concise Abelian subgroup C1      NOp   1
                         Standard orientation:                         
 ---------------------------------------------------------------------
 Center     Atomic      Atomic             Coordinates (Angstroms)
 Number     Number       Type             X           Y           Z
 ---------------------------------------------------------------------
      1          7    10071003        1.862273   -0.061976   -0.383829
      2          6    10061003        0.785300   -0.606495    0.433799
      3          6    10061000       -0.508823    0.071438    0.113737
      4          8    10081002       -0.589482    1.326130    0.128559
      5          8    10081000       -1.613021   -0.695529   -0.233513
      6          1    10011000        2.274854    0.765729    0.103103
      7          1    10011000        1.462568    0.261844   -1.293698
      8          1    10011000        0.687835   -1.697405    0.254644
      9          1    10011000        1.025399   -0.462033    1.508129
     10          1    10011000       -2.525403   -0.268764   -0.330949
 ---------------------------------------------------------------------
 Rotational constants (GHZ):           9.3630147           3.8515295           3.0491133
 Leave Link  202 at Sun Mar 16 14:33:17 2025, MaxMem=   104857600 cpu:               0.0 elap:               0.0
 (Enter /home/enzo/gaussian_versions/gdv.j21/gdv/l301.exe)
 Standard basis: Dummy (5D, 7F)
 There are    10 symmetry adapted cartesian basis functions of A   symmetry.
 There are    10 symmetry adapted basis functions of A   symmetry.
    10 basis functions,    10 primitive gaussians,    10 cartesian basis functions
     7 alpha electrons        7 beta electrons
       nuclear repulsion energy        22.4483654413 Hartrees.
 IExCor=         0 DFT=F Ex=HF Corr=None N6=None ScaHFX=  1.000000
 ScaDFX=  1.000000  1.000000  1.000000  1.000000  1.000000  0.000000
 ScaDFX=  0.000000  0.000000  0.000000  0.000000  0.000000  0.000000
 IRadAn=      5 IRanWt=     -1 IRanGd=            0 ICorTp=0 IEmpDi=  4
 NAtoms=   10 NActive=   10 NUniq=   10 SFac= 1.00D+00 NAtFMM=   60 NAOKFM=F Big=F
 Integral buffers will be    131072 words long.
 Raffenetti 1 integral format.
 Two-electron integral symmetry is turned on.
 Leave Link  301 at Sun Mar 16 14:33:17 2025, MaxMem=   104857600 cpu:               0.0 elap:               0.0
 (Enter /home/enzo/gaussian_versions/gdv.j21/gdv/l402.exe)
 UFF calculation of energy.
 Energy per function type:
 Direct Coulomb + vdW (small)                           0.005435578
 Direct Coulomb (large)                                 0.000000000
 Direct vdW (large)                                   423.702909086
 Non-direct Coulomb + vdW (small)                       0.000000000
 Non-direct Coulomb (large)                             0.000000000
 Non-direct vdW (large)                              -423.702909086
 Harmonic stretch III                                   0.008269343
 UFF 3-term bend                                        0.004737048
 UFF 2-term bend                                        0.000033436
 UFF torsion fixed V                                    0.000199207
 UFF torsion w/ bond order V                            0.001090477
 UFF torsion w/ sp3 V                                   0.000744901
 Three term Wilson angle                                0.000024279
 Energy per function class:
        Coulomb               0.000000000
    Vanderwaals               0.005435578
     Stretching               0.008269343
        Bending               0.004770484
        Torsion               0.002034585
   Out-of-plane               0.000024279
 Energy=    2.053426934E-02 NIter=   0.
 Dipole moment=       0.000000       0.000000       0.000000
 Leave Link  402 at Sun Mar 16 14:33:17 2025, MaxMem=   104857600 cpu:               0.0 elap:               0.0
 (Enter /home/enzo/gaussian_versions/gdv.j21/gdv/l9999.exe)
 Unable to Open any file for archive entry.
 1\1\GINC-ORACLE\SP\UFF\ZDO\C2H5N1O2\ENZO\16-Mar-2025\0\\#p UFF GEOM=RE
 ADALLGIC OUTPUT=PICKETT\\individuo_4292.xyz\\0,1\N,0,-1.904774,0.06656
 8,-0.362667\C,0,-0.829026,0.596167,0.466295\C,0,0.472032,-0.050343,0.1
 11244\O,0,0.570868,-1.303401,0.078768\O,0,1.562162,0.745114,-0.215769\
 H,0,-2.301353,-0.784595,0.096321\H,0,-1.507989,-0.217388,-1.287013\H,0
 ,-0.748763,1.694283,0.327088\H,0,-1.058124,0.408461,1.536333\H,0,2.479
 757,0.335709,-0.336061\\Version=ES64L-GDVRevJ.21\HF=0.0205343\RMSD=0.0
 00e+00\Dipole=0.,0.,0.\PG=C01 [X(C2H5N1O2)]\\@
 The archive entry for this job was punched.
 DoSRE=F DoSRN=F DoDH=F DoFC=F DoNQ=F DoQCD=F DoSCD=F
 Inertia tensor (amu-bohr**2): 
                 1             2             3 
      1   0.192752D+03 -0.261558D-04 -0.219428D-04
      2  -0.261558D-04  0.468578D+03  0.289765D-04
      3  -0.219428D-04  0.289765D-04  0.591891D+03
 Principal inertia moments (amu-bohr**2):
 Iaa = 0.192752D+03 Ibb= 0.468578D+03 Icc= 0.591891D+03
 Rotation matrix to Principal Axis frame: 
                 1             2             3 
      1   0.100000D+01  0.000000D+00  0.000000D+00
      2   0.000000D+00  0.100000D+01  0.000000D+00
      3   0.000000D+00  0.000000D+00  0.100000D+01
                Principal axis orientation:                
 ---------------------------------------------------------------------
 Center     Atomic                     Coordinates (Angstroms)
 Number     Number                        X           Y           Z
 ---------------------------------------------------------------------
      1          7                   -1.904774    0.066568   -0.362667
      2          6                   -0.829026    0.596167    0.466295
      3          6                    0.472032   -0.050343    0.111244
      4          8                    0.570868   -1.303401    0.078768
      5          8                    1.562162    0.745114   -0.215769
      6          1                   -2.301353   -0.784595    0.096321
      7          1                   -1.507989   -0.217388   -1.287013
      8          1                   -0.748763    1.694283    0.327088
      9          1                   -1.058124    0.408461    1.536333
     10          1                    2.479757    0.335709   -0.336061
 ---------------------------------------------------------------------
 Rotational constants (MHZ):
   9363.0146825   3851.5295114   3049.1132970
 Dipole moment (Debye):
      0.0000000     -0.0000000      0.0000000  Tot=      0.0000000

 Atoms with significant hyperfine tensors: 

--------------------------------------------------------------------------------
 individuo_4292.xyz                                      
   99  1000  50  0.1760E-11  0.1000E+07  0.1000E+01 1.0000000000
a   1  0  0  0  1  1   1  0  1  0
     10000   0.93630147E+04    0.0000E+00   /  A  /
     20000   0.38515295E+04    0.0000E+00   /  B  /
     30000   0.30491133E+04    0.0000E+00   /  C  /
--------------------------------------------------------------------------------



 KEEP CLOSE TO NATURES HEART, YOURSELF;
 AND BREAK CLEAR AWAY, ONCE IN A WHILE, AND
 CLIMB A MOUNTAIN OR SPEND A WEEK IN THE
 WOODS.  WASH YOUR SPIRIT CLEAN...
                                         -- JOHN MUIR
 Job cpu time:       0 days  0 hours  0 minutes  0.2 seconds.
 Elapsed time:       0 days  0 hours  0 minutes  0.2 seconds.
 File lengths (MBytes):  RWF=     14 Int=      0 D2E=      0 Chk=      9 Scr=      1
 Normal termination of Gaussian DV at Sun Mar 16 14:33:17 2025.
