 Entering Gaussian System, Link 0=gdv
 Input=cumulative_population/temp_processing/individuo_8205.gjf
 Output=cumulative_population/temp_processing/individuo_8205.log
 Initial command:
 /home/enzo/gaussian_versions/gdv.j21/gdv/l1.exe "/local/home/enzo/scratch/Gau-2479958.inp" -scrdir="/local/home/enzo/scratch/"
 Entering Link 1 = /home/enzo/gaussian_versions/gdv.j21/gdv/l1.exe PID=   2479959.
  
 Copyright (c) 1988-2022, Gaussian, Inc.  All Rights Reserved.
  
 This is the private, development version of
 the Gaussian(R) DV system of programs. It is based on
 the Gaussian(R) 16 system (copyright 2016, Gaussian, Inc.),
 the Gaussian(R) 09 system (copyright 2009, Gaussian, Inc.),
 the Gaussian(R) 03 system (copyright 2003, Gaussian, Inc.),
 the Gaussian(R) 98 system (copyright 1998, Gaussian, Inc.),
 the Gaussian(R) 94 system (copyright 1995, Gaussian, Inc.),
 the Gaussian 92(TM) system (copyright 1992, Gaussian, Inc.),
 the Gaussian 90(TM) system (copyright 1990, Gaussian, Inc.),
 the Gaussian 88(TM) system (copyright 1988, Gaussian, Inc.),
 the Gaussian 86(TM) system (copyright 1986, Carnegie Mellon
 University), and the Gaussian 82(TM) system (copyright 1983,
 Carnegie Mellon University). Gaussian is a federally registered
 trademark of Gaussian, Inc.
  
 This software contains proprietary and confidential information,
 including trade secrets, belonging to Gaussian, Inc.
  
 This software is provided under written license and may be
 used, copied, transmitted, or stored only in accord with that
 written license.
  
 The following legend is applicable only to US Government
 contracts under FAR:
  
                    RESTRICTED RIGHTS LEGEND
  
 Use, reproduction and disclosure by the US Government is
 subject to restrictions as set forth in subparagraphs (a)
 and (c) of the Commercial Computer Software - Restricted
 Rights clause in FAR 52.227-19.
  
 Gaussian, Inc.
 340 Quinnipiac St., Bldg. 40, Wallingford CT 06492
  
  
 ---------------------------------------------------------------
 Warning -- This program may not be used in any manner that
 competes with the business of Gaussian, Inc. or will provide
 assistance to any competitor of Gaussian, Inc.  The licensee
 of this program is prohibited from giving any competitor of
 Gaussian, Inc. access to this program.  By using this program,
 the user acknowledges that Gaussian, Inc. is engaged in the
 business of creating and licensing software in the field of
 computational chemistry and represents and warrants to the
 licensee that it is not a competitor of Gaussian, Inc. and that
 it will not use this program in any manner prohibited above.
 ---------------------------------------------------------------
  

 Cite this work as:
 Gaussian Development Version, Revision J.21,
 M. J. Frisch, G. W. Trucks, H. B. Schlegel, G. E. Scuseria, 
 M. A. Robb, J. R. Cheeseman, G. Scalmani, V. Barone, 
 G. A. Petersson, H. Nakatsuji, X. Li, A. V. Marenich, M. Caricato, 
 J. Bloino, B. G. Janesko, J. Zheng, R. Gomperts, B. Mennucci, 
 H. P. Hratchian, J. V. Ortiz, A. F. Izmaylov, J. L. Sonnenberg, 
 D. Williams-Young, F. Ding, F. Lipparini, F. Egidi, J. Goings, 
 B. Peng, A. Petrone, T. Henderson, D. Ranasinghe, V. G. Zakrzewski, 
 J. Gao, N. Rega, G. Zheng, W. Liang, M. Hada, M. Ehara, K. Toyota, 
 R. Fukuda, J. Hasegawa, M. Ishida, T. Nakajima, Y. Honda, O. Kitao, 
 H. Nakai, T. Vreven, K. Throssell, J. A. Montgomery, Jr., 
 J. E. Peralta, F. Ogliaro, M. J. Bearpark, J. J. Heyd, 
 E. N. Brothers, K. N. Kudin, V. N. Staroverov, T. A. Keith, 
 R. Kobayashi, J. Normand, K. Raghavachari, A. P. Rendell, 
 J. C. Burant, S. S. Iyengar, J. Tomasi, M. Cossi, J. M. Millam, 
 M. Klene, C. Adamo, R. Cammi, J. W. Ochterski, R. L. Martin, 
 K. Morokuma, O. Farkas, J. B. Foresman, and D. J. Fox, 
 Gaussian, Inc., Wallingford CT, 2020.
 
 ******************************************
 Gaussian DV:  ES64L-GDVRevJ.21 25-Jul-2022
                16-Mar-2025 
 ******************************************
 -------------------------------------
 #p UFF GEOM=READALLGIC OUTPUT=PICKETT
 -------------------------------------
 1/18=20,37=210000000,38=1,56=1,64=2,145=602,172=1/1;
 2/12=2/2;
 3/5=30,11=9,25=1,30=1,41=10020000,43=2/1;
 4/20=10,24=3/2;
 99/5=1,9=1,10=1024/99;
 Leave Link    1 at Sun Mar 16 14:32:32 2025, MaxMem=           0 cpu:               0.0 elap:               0.0
 (Enter /home/enzo/gaussian_versions/gdv.j21/gdv/l101.exe)
 ------------------
 individuo_8205.xyz
 ------------------
 Symbolic Z-matrix:
 Charge =     0 Multiplicity =     1
 7                     1.93992  -0.01233  -0.17777 
 6                     0.77212  -0.77276   0.24986 
 6                    -0.47307   0.03644   0.07237 
 8                    -0.42047   1.2927    0.07703 
 8                    -1.68419  -0.61131  -0.13184 
 1                     1.85189   0.97034   0.16726 
 1                     1.96188   0.01054  -1.22251 
 1                     0.69359  -1.71002  -0.33926 
 1                     0.88354  -1.05493   1.31787 
 1                    -2.5031   -0.09145  -0.42026 
 
 Initializing the GIC definitions file.

 CrInp1: Reading the GIC input below.
 Dihed1 = D( 6, 1, 2, 3)
 Dihed2 = D( 1, 2, 3, 4)
 Dihed3 = D( 4, 3, 5, 10)
 
 Warning:  Number of GICs=     3 3N-6=    24.
 ITRead=  0  0  0  0  0  0  0  0  0  0
 MicOpt= -1 -1 -1 -1 -1 -1 -1 -1 -1 -1
                           ----------------------------
                           !    Current Parameters    !
                           ! (Angstroms and Degrees)  !
 --------------------------                            --------------------------
 ! Name   Definition             Value                                          !
 --------------------------------------------------------------------------------
 ! Dihed1 D(6,1,2,3)            42.4167                                         !
 ! Dihed2 D(1,2,3,4)           -25.3633                                         !
 ! Dihed3 D(4,3,5,10)            9.5743                                         !
 --------------------------------------------------------------------------------
 NAtoms=     10 NQM=       10 NQMF=       0 NMMI=      0 NMMIF=      0
                NMic=       0 NMicF=      0.
                    Isotopes and Nuclear Properties:
 (Nuclear quadrupole moments (NQMom) in fm**2, nuclear magnetic moments (NMagM)
  in nuclear magnetons)

  Atom         1           2           3           4           5           6           7           8           9          10
 IAtWgt=          14          12          12          16          16           1           1           1           1           1
 AtmWgt=  14.0030740  12.0000000  12.0000000  15.9949146  15.9949146   1.0078250   1.0078250   1.0078250   1.0078250   1.0078250
 NucSpn=           2           0           0           0           0           1           1           1           1           1
 AtZEff=  -0.0000000  -0.0000000  -0.0000000  -0.0000000  -0.0000000  -0.0000000  -0.0000000  -0.0000000  -0.0000000  -0.0000000
 NQMom=    2.0440000   0.0000000   0.0000000   0.0000000   0.0000000   0.0000000   0.0000000   0.0000000   0.0000000   0.0000000
 NMagM=    0.4037610   0.0000000   0.0000000   0.0000000   0.0000000   2.7928460   2.7928460   2.7928460   2.7928460   2.7928460
 AtZNuc=   7.0000000   6.0000000   6.0000000   8.0000000   8.0000000   1.0000000   1.0000000   1.0000000   1.0000000   1.0000000
 Generating MM parameters.
 Include all MM classes

 MM sanity checks:
 All charges sum to:                0.00000000
 Charges of atoms sum to:           0.00000000
 MMInit generated parameter data with length LenPar=        1463.
 Leave Link  101 at Sun Mar 16 14:32:32 2025, MaxMem=   104857600 cpu:               0.1 elap:               0.1
 (Enter /home/enzo/gaussian_versions/gdv.j21/gdv/l202.exe)
                          Input orientation:                          
 ---------------------------------------------------------------------
 Center     Atomic      Atomic             Coordinates (Angstroms)
 Number     Number       Type             X           Y           Z
 ---------------------------------------------------------------------
      1          7    10071003        1.939920   -0.012327   -0.177770
      2          6    10061003        0.772116   -0.772762    0.249855
      3          6    10061000       -0.473071    0.036435    0.072373
      4          8    10081002       -0.420469    1.292695    0.077029
      5          8    10081000       -1.684186   -0.611307   -0.131836
      6          1    10011000        1.851891    0.970338    0.167257
      7          1    10011000        1.961881    0.010537   -1.222509
      8          1    10011000        0.693590   -1.710021   -0.339261
      9          1    10011000        0.883543   -1.054933    1.317873
     10          1    10011000       -2.503102   -0.091452   -0.420262
 ---------------------------------------------------------------------
                    Distance matrix (angstroms):
                    1          2          3          4          5
     1  N    0.000000
     2  C    1.457700   0.000000
     3  C    2.426412   1.495590   0.000000
     4  O    2.709140   2.391284   1.257369   0.000000
     5  O    3.673558   2.491019   1.388550   2.294739   0.000000
     6  H    1.045191   2.052105   2.507315   2.296884   3.885215
     7  H    1.045220   2.048647   2.757967   3.001386   3.856172
     8  H    2.112246   1.109810   2.140245   3.229664   2.627549
     9  H    2.107109   1.110270   2.140737   2.958293   2.981894
    10  H    4.450338   3.411787   2.092862   2.549612   1.011960
                    6          7          8          9         10
     6  H    0.000000
     7  H    1.692562   0.000000
     8  H    2.963536   2.312792   0.000000
     9  H    2.522566   2.958307   1.792014   0.000000
    10  H    4.520900   4.537629   3.584015   3.926675   0.000000
 Stoichiometry    C2H5NO2
 Framework group  C1[X(C2H5NO2)]
 Deg. of freedom    24
 Full point group                 C1      NOp   1
 Largest Abelian subgroup         C1      NOp   1
 Largest concise Abelian subgroup C1      NOp   1
                         Standard orientation:                         
 ---------------------------------------------------------------------
 Center     Atomic      Atomic             Coordinates (Angstroms)
 Number     Number       Type             X           Y           Z
 ---------------------------------------------------------------------
      1          7    10071003        1.904426    0.013531   -0.170161
      2          6    10061003        0.736355   -0.753359    0.245027
      3          6    10061000       -0.508731    0.058440    0.079097
      4          8    10081002       -0.456159    1.314483    0.102972
      5          8    10081000       -1.719697   -0.586121   -0.135783
      6          1    10011000        1.816148    0.990811    0.189774
      7          1    10011000        1.927080    0.052347   -1.214414
      8          1    10011000        0.658240   -1.681513   -0.358386
      9          1    10011000        0.847080   -1.051806    1.308685
     10          1    10011000       -2.538432   -0.061932   -0.416780
 ---------------------------------------------------------------------
 Rotational constants (GHZ):          10.0829724           3.8619226           2.9628553
 Leave Link  202 at Sun Mar 16 14:32:32 2025, MaxMem=   104857600 cpu:               0.0 elap:               0.0
 (Enter /home/enzo/gaussian_versions/gdv.j21/gdv/l301.exe)
 Standard basis: Dummy (5D, 7F)
 There are    10 symmetry adapted cartesian basis functions of A   symmetry.
 There are    10 symmetry adapted basis functions of A   symmetry.
    10 basis functions,    10 primitive gaussians,    10 cartesian basis functions
     7 alpha electrons        7 beta electrons
       nuclear repulsion energy        22.4889308714 Hartrees.
 IExCor=         0 DFT=F Ex=HF Corr=None N6=None ScaHFX=  1.000000
 ScaDFX=  1.000000  1.000000  1.000000  1.000000  1.000000  0.000000
 ScaDFX=  0.000000  0.000000  0.000000  0.000000  0.000000  0.000000
 IRadAn=      5 IRanWt=     -1 IRanGd=            0 ICorTp=0 IEmpDi=  4
 NAtoms=   10 NActive=   10 NUniq=   10 SFac= 1.00D+00 NAtFMM=   60 NAOKFM=F Big=F
 Integral buffers will be    131072 words long.
 Raffenetti 1 integral format.
 Two-electron integral symmetry is turned on.
 Leave Link  301 at Sun Mar 16 14:32:32 2025, MaxMem=   104857600 cpu:               0.0 elap:               0.0
 (Enter /home/enzo/gaussian_versions/gdv.j21/gdv/l402.exe)
 UFF calculation of energy.
 Energy per function type:
 Direct Coulomb + vdW (small)                           0.007720120
 Direct Coulomb (large)                                 0.000000000
 Direct vdW (large)                                   423.704175028
 Non-direct Coulomb + vdW (small)                       0.000000000
 Non-direct Coulomb (large)                             0.000000000
 Non-direct vdW (large)                              -423.704175028
 Harmonic stretch III                                   0.008269249
 UFF 3-term bend                                        0.004736988
 UFF 2-term bend                                        0.000033437
 UFF torsion fixed V                                    0.001530573
 UFF torsion w/ bond order V                            0.001404375
 UFF torsion w/ sp3 V                                   0.000269173
 Three term Wilson angle                                0.000024284
 Energy per function class:
        Coulomb               0.000000000
    Vanderwaals               0.007720120
     Stretching               0.008269249
        Bending               0.004770425
        Torsion               0.003204121
   Out-of-plane               0.000024284
 Energy=    2.398819959E-02 NIter=   0.
 Dipole moment=       0.000000       0.000000       0.000000
 Leave Link  402 at Sun Mar 16 14:32:32 2025, MaxMem=   104857600 cpu:               0.0 elap:               0.0
 (Enter /home/enzo/gaussian_versions/gdv.j21/gdv/l9999.exe)
 Unable to Open any file for archive entry.
 1\1\GINC-ORACLE\SP\UFF\ZDO\C2H5N1O2\ENZO\16-Mar-2025\0\\#p UFF GEOM=RE
 ADALLGIC OUTPUT=PICKETT\\individuo_8205.xyz\\0,1\N,0,1.93992,-0.012327
 ,-0.17777\C,0,0.772116,-0.772762,0.249855\C,0,-0.473071,0.036435,0.072
 373\O,0,-0.420469,1.292695,0.077029\O,0,-1.684186,-0.611307,-0.131836\
 H,0,1.851891,0.970338,0.167257\H,0,1.961881,0.010537,-1.222509\H,0,0.6
 9359,-1.710021,-0.339261\H,0,0.883543,-1.054933,1.317873\H,0,-2.503102
 ,-0.091452,-0.420262\\Version=ES64L-GDVRevJ.21\HF=0.0239882\RMSD=0.000
 e+00\Dipole=0.,0.,0.\PG=C01 [X(C2H5N1O2)]\\@
 The archive entry for this job was punched.
 DoSRE=F DoSRN=F DoDH=F DoFC=F DoNQ=F DoQCD=F DoSCD=F
 Inertia tensor (amu-bohr**2): 
                 1             2             3 
      1   0.178989D+03 -0.237990D-04  0.208956D-04
      2  -0.237990D-04  0.467317D+03 -0.726394D-05
      3   0.208956D-04 -0.726394D-05  0.609122D+03
 Principal inertia moments (amu-bohr**2):
 Iaa = 0.178989D+03 Ibb= 0.467317D+03 Icc= 0.609122D+03
 Rotation matrix to Principal Axis frame: 
                 1             2             3 
      1   0.100000D+01  0.000000D+00  0.000000D+00
      2   0.000000D+00  0.100000D+01  0.000000D+00
      3   0.000000D+00  0.000000D+00  0.100000D+01
                Principal axis orientation:                
 ---------------------------------------------------------------------
 Center     Atomic                     Coordinates (Angstroms)
 Number     Number                        X           Y           Z
 ---------------------------------------------------------------------
      1          7                    1.939920   -0.012327   -0.177770
      2          6                    0.772116   -0.772762    0.249855
      3          6                   -0.473071    0.036435    0.072373
      4          8                   -0.420469    1.292695    0.077029
      5          8                   -1.684186   -0.611307   -0.131836
      6          1                    1.851891    0.970338    0.167257
      7          1                    1.961881    0.010537   -1.222509
      8          1                    0.693590   -1.710021   -0.339261
      9          1                    0.883543   -1.054933    1.317873
     10          1                   -2.503102   -0.091452   -0.420262
 ---------------------------------------------------------------------
 Rotational constants (MHZ):
  10082.9723624   3861.9226431   2962.8553010
 Dipole moment (Debye):
      0.0000000      0.0000000      0.0000000  Tot=      0.0000000

 Atoms with significant hyperfine tensors: 

--------------------------------------------------------------------------------
 individuo_8205.xyz                                      
   99  1000  50  0.1760E-11  0.1000E+07  0.1000E+01 1.0000000000
a   1  0  0  0  1  1   1  0  1  0
     10000   0.10082972E+05    0.0000E+00   /  A  /
     20000   0.38619226E+04    0.0000E+00   /  B  /
     30000   0.29628553E+04    0.0000E+00   /  C  /
--------------------------------------------------------------------------------



 When I told the people of Northern Ireland that I was
 an atheist, a woman in the audience stood up and said,
 "Yes, but is it the God of the Catholics or the God
 of the Protestants in whom you don't believe?"
                               -- Quentin Crisp
 Job cpu time:       0 days  0 hours  0 minutes  0.2 seconds.
 Elapsed time:       0 days  0 hours  0 minutes  0.2 seconds.
 File lengths (MBytes):  RWF=     14 Int=      0 D2E=      0 Chk=      9 Scr=      1
 Normal termination of Gaussian DV at Sun Mar 16 14:32:32 2025.
