 Entering Gaussian System, Link 0=gdv
 Input=cumulative_population/temp_processing/individuo_7276.gjf
 Output=cumulative_population/temp_processing/individuo_7276.log
 Initial command:
 /home/enzo/gaussian_versions/gdv.j21/gdv/l1.exe "/local/home/enzo/scratch/Gau-2479004.inp" -scrdir="/local/home/enzo/scratch/"
 Entering Link 1 = /home/enzo/gaussian_versions/gdv.j21/gdv/l1.exe PID=   2479005.
  
 Copyright (c) 1988-2022, Gaussian, Inc.  All Rights Reserved.
  
 This is the private, development version of
 the Gaussian(R) DV system of programs. It is based on
 the Gaussian(R) 16 system (copyright 2016, Gaussian, Inc.),
 the Gaussian(R) 09 system (copyright 2009, Gaussian, Inc.),
 the Gaussian(R) 03 system (copyright 2003, Gaussian, Inc.),
 the Gaussian(R) 98 system (copyright 1998, Gaussian, Inc.),
 the Gaussian(R) 94 system (copyright 1995, Gaussian, Inc.),
 the Gaussian 92(TM) system (copyright 1992, Gaussian, Inc.),
 the Gaussian 90(TM) system (copyright 1990, Gaussian, Inc.),
 the Gaussian 88(TM) system (copyright 1988, Gaussian, Inc.),
 the Gaussian 86(TM) system (copyright 1986, Carnegie Mellon
 University), and the Gaussian 82(TM) system (copyright 1983,
 Carnegie Mellon University). Gaussian is a federally registered
 trademark of Gaussian, Inc.
  
 This software contains proprietary and confidential information,
 including trade secrets, belonging to Gaussian, Inc.
  
 This software is provided under written license and may be
 used, copied, transmitted, or stored only in accord with that
 written license.
  
 The following legend is applicable only to US Government
 contracts under FAR:
  
                    RESTRICTED RIGHTS LEGEND
  
 Use, reproduction and disclosure by the US Government is
 subject to restrictions as set forth in subparagraphs (a)
 and (c) of the Commercial Computer Software - Restricted
 Rights clause in FAR 52.227-19.
  
 Gaussian, Inc.
 340 Quinnipiac St., Bldg. 40, Wallingford CT 06492
  
  
 ---------------------------------------------------------------
 Warning -- This program may not be used in any manner that
 competes with the business of Gaussian, Inc. or will provide
 assistance to any competitor of Gaussian, Inc.  The licensee
 of this program is prohibited from giving any competitor of
 Gaussian, Inc. access to this program.  By using this program,
 the user acknowledges that Gaussian, Inc. is engaged in the
 business of creating and licensing software in the field of
 computational chemistry and represents and warrants to the
 licensee that it is not a competitor of Gaussian, Inc. and that
 it will not use this program in any manner prohibited above.
 ---------------------------------------------------------------
  

 Cite this work as:
 Gaussian Development Version, Revision J.21,
 M. J. Frisch, G. W. Trucks, H. B. Schlegel, G. E. Scuseria, 
 M. A. Robb, J. R. Cheeseman, G. Scalmani, V. Barone, 
 G. A. Petersson, H. Nakatsuji, X. Li, A. V. Marenich, M. Caricato, 
 J. Bloino, B. G. Janesko, J. Zheng, R. Gomperts, B. Mennucci, 
 H. P. Hratchian, J. V. Ortiz, A. F. Izmaylov, J. L. Sonnenberg, 
 D. Williams-Young, F. Ding, F. Lipparini, F. Egidi, J. Goings, 
 B. Peng, A. Petrone, T. Henderson, D. Ranasinghe, V. G. Zakrzewski, 
 J. Gao, N. Rega, G. Zheng, W. Liang, M. Hada, M. Ehara, K. Toyota, 
 R. Fukuda, J. Hasegawa, M. Ishida, T. Nakajima, Y. Honda, O. Kitao, 
 H. Nakai, T. Vreven, K. Throssell, J. A. Montgomery, Jr., 
 J. E. Peralta, F. Ogliaro, M. J. Bearpark, J. J. Heyd, 
 E. N. Brothers, K. N. Kudin, V. N. Staroverov, T. A. Keith, 
 R. Kobayashi, J. Normand, K. Raghavachari, A. P. Rendell, 
 J. C. Burant, S. S. Iyengar, J. Tomasi, M. Cossi, J. M. Millam, 
 M. Klene, C. Adamo, R. Cammi, J. W. Ochterski, R. L. Martin, 
 K. Morokuma, O. Farkas, J. B. Foresman, and D. J. Fox, 
 Gaussian, Inc., Wallingford CT, 2020.
 
 ******************************************
 Gaussian DV:  ES64L-GDVRevJ.21 25-Jul-2022
                16-Mar-2025 
 ******************************************
 -------------------------------------
 #p UFF GEOM=READALLGIC OUTPUT=PICKETT
 -------------------------------------
 1/18=20,37=210000000,38=1,56=1,64=2,145=602,172=1/1;
 2/12=2/2;
 3/5=30,11=9,25=1,30=1,41=10020000,43=2/1;
 4/20=10,24=3/2;
 99/5=1,9=1,10=1024/99;
 Leave Link    1 at Sun Mar 16 14:30:48 2025, MaxMem=           0 cpu:               0.0 elap:               0.0
 (Enter /home/enzo/gaussian_versions/gdv.j21/gdv/l101.exe)
 ------------------
 individuo_7276.xyz
 ------------------
 Symbolic Z-matrix:
 Charge =     0 Multiplicity =     1
 7                    -1.86544   0.21038  -0.25517 
 6                    -0.85007  -0.62446   0.37487 
 6                     0.51783  -0.0949    0.08294 
 8                     1.45173  -0.88018  -0.22059 
 8                     0.74034   1.27529   0.11656 
 1                    -2.8073   -0.20726  -0.07936 
 1                    -1.70075   0.21843  -1.2873 
 1                    -1.01103  -0.65365   1.47256 
 1                    -0.93574  -1.664    -0.00557 
 1                     1.54003   1.67807  -0.35496 
 
 Initializing the GIC definitions file.

 CrInp1: Reading the GIC input below.
 Dihed1 = D( 6, 1, 2, 3)
 Dihed2 = D( 1, 2, 3, 4)
 Dihed3 = D( 4, 3, 5, 10)
 
 Warning:  Number of GICs=     3 3N-6=    24.
 ITRead=  0  0  0  0  0  0  0  0  0  0
 MicOpt= -1 -1 -1 -1 -1 -1 -1 -1 -1 -1
                           ----------------------------
                           !    Current Parameters    !
                           ! (Angstroms and Degrees)  !
 --------------------------                            --------------------------
 ! Name   Definition             Value                                          !
 --------------------------------------------------------------------------------
 ! Dihed1 D(6,1,2,3)           177.0535                                         !
 ! Dihed2 D(1,2,3,4)          -137.2789                                         !
 ! Dihed3 D(4,3,5,10)           18.3549                                         !
 --------------------------------------------------------------------------------
 NAtoms=     10 NQM=       10 NQMF=       0 NMMI=      0 NMMIF=      0
                NMic=       0 NMicF=      0.
                    Isotopes and Nuclear Properties:
 (Nuclear quadrupole moments (NQMom) in fm**2, nuclear magnetic moments (NMagM)
  in nuclear magnetons)

  Atom         1           2           3           4           5           6           7           8           9          10
 IAtWgt=          14          12          12          16          16           1           1           1           1           1
 AtmWgt=  14.0030740  12.0000000  12.0000000  15.9949146  15.9949146   1.0078250   1.0078250   1.0078250   1.0078250   1.0078250
 NucSpn=           2           0           0           0           0           1           1           1           1           1
 AtZEff=  -0.0000000  -0.0000000  -0.0000000  -0.0000000  -0.0000000  -0.0000000  -0.0000000  -0.0000000  -0.0000000  -0.0000000
 NQMom=    2.0440000   0.0000000   0.0000000   0.0000000   0.0000000   0.0000000   0.0000000   0.0000000   0.0000000   0.0000000
 NMagM=    0.4037610   0.0000000   0.0000000   0.0000000   0.0000000   2.7928460   2.7928460   2.7928460   2.7928460   2.7928460
 AtZNuc=   7.0000000   6.0000000   6.0000000   8.0000000   8.0000000   1.0000000   1.0000000   1.0000000   1.0000000   1.0000000
 Generating MM parameters.
 Include all MM classes

 MM sanity checks:
 All charges sum to:                0.00000000
 Charges of atoms sum to:           0.00000000
 MMInit generated parameter data with length LenPar=        1463.
 Leave Link  101 at Sun Mar 16 14:30:48 2025, MaxMem=   104857600 cpu:               0.1 elap:               0.1
 (Enter /home/enzo/gaussian_versions/gdv.j21/gdv/l202.exe)
                          Input orientation:                          
 ---------------------------------------------------------------------
 Center     Atomic      Atomic             Coordinates (Angstroms)
 Number     Number       Type             X           Y           Z
 ---------------------------------------------------------------------
      1          7    10071003       -1.865439    0.210377   -0.255170
      2          6    10061003       -0.850065   -0.624463    0.374869
      3          6    10061000        0.517828   -0.094901    0.082941
      4          8    10081002        1.451734   -0.880183   -0.220587
      5          8    10081000        0.740336    1.275293    0.116559
      6          1    10011000       -2.807295   -0.207260   -0.079363
      7          1    10011000       -1.700754    0.218430   -1.287303
      8          1    10011000       -1.011035   -0.653650    1.472555
      9          1    10011000       -0.935742   -1.663995   -0.005569
     10          1    10011000        1.540027    1.678070   -0.354959
 ---------------------------------------------------------------------
                    Distance matrix (angstroms):
                    1          2          3          4          5
     1  N    0.000000
     2  C    1.457701   0.000000
     3  C    2.426412   1.495590   0.000000
     4  O    3.492013   2.391284   1.257369   0.000000
     5  O    2.839418   2.491018   1.388550   2.294740   0.000000
     6  H    1.045190   2.052105   3.330977   4.314174   3.849940
     7  H    1.045220   2.048647   2.626376   3.504713   3.007775
     8  H    2.112246   1.109810   2.140245   2.997212   2.937149
     9  H    2.107109   1.110270   2.140737   2.522030   3.385789
    10  H    3.709620   3.398065   2.092862   2.563301   1.011961
                    6          7          8          9         10
     6  H    0.000000
     7  H    1.692561   0.000000
     8  H    2.415422   2.975408   0.000000
     9  H    2.372811   2.402417   1.792015   0.000000
    10  H    4.746539   3.674572   3.909558   4.173836   0.000000
 Stoichiometry    C2H5NO2
 Framework group  C1[X(C2H5NO2)]
 Deg. of freedom    24
 Full point group                 C1      NOp   1
 Largest Abelian subgroup         C1      NOp   1
 Largest concise Abelian subgroup C1      NOp   1
                         Standard orientation:                         
 ---------------------------------------------------------------------
 Center     Atomic      Atomic             Coordinates (Angstroms)
 Number     Number       Type             X           Y           Z
 ---------------------------------------------------------------------
      1          7    10071003       -1.787617    0.342721   -0.234512
      2          6    10061003       -0.826274   -0.580235    0.356134
      3          6    10061000        0.572011   -0.127228    0.079777
      4          8    10081002        1.453328   -0.957195   -0.259948
      5          8    10081000        0.881505    1.223488    0.168389
      6          1    10011000       -2.753831   -0.021016   -0.071574
      7          1    10011000       -1.624838    0.382715   -1.266204
      8          1    10011000       -0.986561   -0.644235    1.452441
      9          1    10011000       -0.978831   -1.595684   -0.066112
     10          1    10011000        1.704298    1.593613   -0.289958
 ---------------------------------------------------------------------
 Rotational constants (GHZ):           8.7696549           4.0134872           3.0043075
 Leave Link  202 at Sun Mar 16 14:30:48 2025, MaxMem=   104857600 cpu:               0.0 elap:               0.0
 (Enter /home/enzo/gaussian_versions/gdv.j21/gdv/l301.exe)
 Standard basis: Dummy (5D, 7F)
 There are    10 symmetry adapted cartesian basis functions of A   symmetry.
 There are    10 symmetry adapted basis functions of A   symmetry.
    10 basis functions,    10 primitive gaussians,    10 cartesian basis functions
     7 alpha electrons        7 beta electrons
       nuclear repulsion energy        22.2856758219 Hartrees.
 IExCor=         0 DFT=F Ex=HF Corr=None N6=None ScaHFX=  1.000000
 ScaDFX=  1.000000  1.000000  1.000000  1.000000  1.000000  0.000000
 ScaDFX=  0.000000  0.000000  0.000000  0.000000  0.000000  0.000000
 IRadAn=      5 IRanWt=     -1 IRanGd=            0 ICorTp=0 IEmpDi=  4
 NAtoms=   10 NActive=   10 NUniq=   10 SFac= 1.00D+00 NAtFMM=   60 NAOKFM=F Big=F
 Integral buffers will be    131072 words long.
 Raffenetti 1 integral format.
 Two-electron integral symmetry is turned on.
 Leave Link  301 at Sun Mar 16 14:30:48 2025, MaxMem=   104857600 cpu:               0.0 elap:               0.0
 (Enter /home/enzo/gaussian_versions/gdv.j21/gdv/l402.exe)
 UFF calculation of energy.
 Energy per function type:
 Direct Coulomb + vdW (small)                           0.002725879
 Direct Coulomb (large)                                 0.000000000
 Direct vdW (large)                                   423.703805206
 Non-direct Coulomb + vdW (small)                       0.000000000
 Non-direct Coulomb (large)                             0.000000000
 Non-direct vdW (large)                              -423.703805206
 Harmonic stretch III                                   0.008269289
 UFF 3-term bend                                        0.004736974
 UFF 2-term bend                                        0.000033442
 UFF torsion fixed V                                    0.001062418
 UFF torsion w/ bond order V                            0.004636831
 UFF torsion w/ sp3 V                                   0.000005144
 Three term Wilson angle                                0.000024281
 Energy per function class:
        Coulomb               0.000000000
    Vanderwaals               0.002725879
     Stretching               0.008269289
        Bending               0.004770416
        Torsion               0.005704393
   Out-of-plane               0.000024281
 Energy=    2.149425902E-02 NIter=   0.
 Dipole moment=       0.000000       0.000000       0.000000
 Leave Link  402 at Sun Mar 16 14:30:48 2025, MaxMem=   104857600 cpu:               0.0 elap:               0.0
 (Enter /home/enzo/gaussian_versions/gdv.j21/gdv/l9999.exe)
 Unable to Open any file for archive entry.
 1\1\GINC-ORACLE\SP\UFF\ZDO\C2H5N1O2\ENZO\16-Mar-2025\0\\#p UFF GEOM=RE
 ADALLGIC OUTPUT=PICKETT\\individuo_7276.xyz\\0,1\N,0,-1.865439,0.21037
 7,-0.25517\C,0,-0.850065,-0.624463,0.374869\C,0,0.517828,-0.094901,0.0
 82941\O,0,1.451734,-0.880183,-0.220587\O,0,0.740336,1.275293,0.116559\
 H,0,-2.807295,-0.20726,-0.079363\H,0,-1.700754,0.21843,-1.287303\H,0,-
 1.011035,-0.65365,1.472555\H,0,-0.935742,-1.663995,-0.005569\H,0,1.540
 027,1.67807,-0.354959\\Version=ES64L-GDVRevJ.21\HF=0.0214943\RMSD=0.00
 0e+00\Dipole=0.,0.,0.\PG=C01 [X(C2H5N1O2)]\\@
 The archive entry for this job was punched.
 DoSRE=F DoSRN=F DoDH=F DoFC=F DoNQ=F DoQCD=F DoSCD=F
 Inertia tensor (amu-bohr**2): 
                 1             2             3 
      1   0.205794D+03  0.416903D-04 -0.728991D-04
      2   0.416903D-04  0.449669D+03 -0.227960D-04
      3  -0.728991D-04 -0.227960D-04  0.600718D+03
 Principal inertia moments (amu-bohr**2):
 Iaa = 0.205794D+03 Ibb= 0.449669D+03 Icc= 0.600718D+03
 Rotation matrix to Principal Axis frame: 
                 1             2             3 
      1   0.100000D+01  0.000000D+00  0.000000D+00
      2   0.000000D+00  0.100000D+01  0.000000D+00
      3   0.000000D+00  0.000000D+00  0.100000D+01
                Principal axis orientation:                
 ---------------------------------------------------------------------
 Center     Atomic                     Coordinates (Angstroms)
 Number     Number                        X           Y           Z
 ---------------------------------------------------------------------
      1          7                   -1.865439    0.210377   -0.255170
      2          6                   -0.850065   -0.624463    0.374869
      3          6                    0.517828   -0.094901    0.082941
      4          8                    1.451734   -0.880183   -0.220587
      5          8                    0.740336    1.275293    0.116559
      6          1                   -2.807295   -0.207260   -0.079363
      7          1                   -1.700754    0.218430   -1.287303
      8          1                   -1.011034   -0.653650    1.472555
      9          1                   -0.935742   -1.663995   -0.005569
     10          1                    1.540027    1.678070   -0.354960
 ---------------------------------------------------------------------
 Rotational constants (MHZ):
   8769.6548599   4013.4871697   3004.3075341
 Dipole moment (Debye):
      0.0000000      0.0000000      0.0000000  Tot=      0.0000000

 Atoms with significant hyperfine tensors: 

--------------------------------------------------------------------------------
 individuo_7276.xyz                                      
   99  1000  50  0.1760E-11  0.1000E+07  0.1000E+01 1.0000000000
a   1  0  0  0  1  1   1  0  1  0
     10000   0.87696549E+04    0.0000E+00   /  A  /
     20000   0.40134872E+04    0.0000E+00   /  B  /
     30000   0.30043075E+04    0.0000E+00   /  C  /
--------------------------------------------------------------------------------



 ALL OUR THINKING ABOUT NATURE MUST NECESSARILY MOVE IN CIRCLES OR SPIRALS;
 FOR WE CAN ONLY UNDERSTAND NATURE IF WE THINK ABOUT HER, AND WE CAN ONLY
 THINK BECAUSE OUR BRAIN IS BUILT IN ACCORDANCE WITH NATURE'S LAWS.

                                             -- TIMOTHY FERRIS, "GALAXIES"
 Job cpu time:       0 days  0 hours  0 minutes  0.2 seconds.
 Elapsed time:       0 days  0 hours  0 minutes  0.2 seconds.
 File lengths (MBytes):  RWF=     14 Int=      0 D2E=      0 Chk=      9 Scr=      1
 Normal termination of Gaussian DV at Sun Mar 16 14:30:48 2025.
