 Entering Gaussian System, Link 0=gdv
 Input=cumulative_population/temp_processing/individuo_9271.gjf
 Output=cumulative_population/temp_processing/individuo_9271.log
 Initial command:
 /home/enzo/gaussian_versions/gdv.j21/gdv/l1.exe "/local/home/enzo/scratch/Gau-2479216.inp" -scrdir="/local/home/enzo/scratch/"
 Entering Link 1 = /home/enzo/gaussian_versions/gdv.j21/gdv/l1.exe PID=   2479217.
  
 Copyright (c) 1988-2022, Gaussian, Inc.  All Rights Reserved.
  
 This is the private, development version of
 the Gaussian(R) DV system of programs. It is based on
 the Gaussian(R) 16 system (copyright 2016, Gaussian, Inc.),
 the Gaussian(R) 09 system (copyright 2009, Gaussian, Inc.),
 the Gaussian(R) 03 system (copyright 2003, Gaussian, Inc.),
 the Gaussian(R) 98 system (copyright 1998, Gaussian, Inc.),
 the Gaussian(R) 94 system (copyright 1995, Gaussian, Inc.),
 the Gaussian 92(TM) system (copyright 1992, Gaussian, Inc.),
 the Gaussian 90(TM) system (copyright 1990, Gaussian, Inc.),
 the Gaussian 88(TM) system (copyright 1988, Gaussian, Inc.),
 the Gaussian 86(TM) system (copyright 1986, Carnegie Mellon
 University), and the Gaussian 82(TM) system (copyright 1983,
 Carnegie Mellon University). Gaussian is a federally registered
 trademark of Gaussian, Inc.
  
 This software contains proprietary and confidential information,
 including trade secrets, belonging to Gaussian, Inc.
  
 This software is provided under written license and may be
 used, copied, transmitted, or stored only in accord with that
 written license.
  
 The following legend is applicable only to US Government
 contracts under FAR:
  
                    RESTRICTED RIGHTS LEGEND
  
 Use, reproduction and disclosure by the US Government is
 subject to restrictions as set forth in subparagraphs (a)
 and (c) of the Commercial Computer Software - Restricted
 Rights clause in FAR 52.227-19.
  
 Gaussian, Inc.
 340 Quinnipiac St., Bldg. 40, Wallingford CT 06492
  
  
 ---------------------------------------------------------------
 Warning -- This program may not be used in any manner that
 competes with the business of Gaussian, Inc. or will provide
 assistance to any competitor of Gaussian, Inc.  The licensee
 of this program is prohibited from giving any competitor of
 Gaussian, Inc. access to this program.  By using this program,
 the user acknowledges that Gaussian, Inc. is engaged in the
 business of creating and licensing software in the field of
 computational chemistry and represents and warrants to the
 licensee that it is not a competitor of Gaussian, Inc. and that
 it will not use this program in any manner prohibited above.
 ---------------------------------------------------------------
  

 Cite this work as:
 Gaussian Development Version, Revision J.21,
 M. J. Frisch, G. W. Trucks, H. B. Schlegel, G. E. Scuseria, 
 M. A. Robb, J. R. Cheeseman, G. Scalmani, V. Barone, 
 G. A. Petersson, H. Nakatsuji, X. Li, A. V. Marenich, M. Caricato, 
 J. Bloino, B. G. Janesko, J. Zheng, R. Gomperts, B. Mennucci, 
 H. P. Hratchian, J. V. Ortiz, A. F. Izmaylov, J. L. Sonnenberg, 
 D. Williams-Young, F. Ding, F. Lipparini, F. Egidi, J. Goings, 
 B. Peng, A. Petrone, T. Henderson, D. Ranasinghe, V. G. Zakrzewski, 
 J. Gao, N. Rega, G. Zheng, W. Liang, M. Hada, M. Ehara, K. Toyota, 
 R. Fukuda, J. Hasegawa, M. Ishida, T. Nakajima, Y. Honda, O. Kitao, 
 H. Nakai, T. Vreven, K. Throssell, J. A. Montgomery, Jr., 
 J. E. Peralta, F. Ogliaro, M. J. Bearpark, J. J. Heyd, 
 E. N. Brothers, K. N. Kudin, V. N. Staroverov, T. A. Keith, 
 R. Kobayashi, J. Normand, K. Raghavachari, A. P. Rendell, 
 J. C. Burant, S. S. Iyengar, J. Tomasi, M. Cossi, J. M. Millam, 
 M. Klene, C. Adamo, R. Cammi, J. W. Ochterski, R. L. Martin, 
 K. Morokuma, O. Farkas, J. B. Foresman, and D. J. Fox, 
 Gaussian, Inc., Wallingford CT, 2020.
 
 ******************************************
 Gaussian DV:  ES64L-GDVRevJ.21 25-Jul-2022
                16-Mar-2025 
 ******************************************
 -------------------------------------
 #p UFF GEOM=READALLGIC OUTPUT=PICKETT
 -------------------------------------
 1/18=20,37=210000000,38=1,56=1,64=2,145=602,172=1/1;
 2/12=2/2;
 3/5=30,11=9,25=1,30=1,41=10020000,43=2/1;
 4/20=10,24=3/2;
 99/5=1,9=1,10=1024/99;
 Leave Link    1 at Sun Mar 16 14:31:11 2025, MaxMem=           0 cpu:               0.0 elap:               0.0
 (Enter /home/enzo/gaussian_versions/gdv.j21/gdv/l101.exe)
 ------------------
 individuo_9271.xyz
 ------------------
 Symbolic Z-matrix:
 Charge =     0 Multiplicity =     1
 7                     1.93257  -0.03088  -0.23849 
 6                     0.77678  -0.76143   0.26683 
 6                    -0.47267   0.03761   0.07394 
 8                    -0.43192   1.29423   0.08912 
 8                    -1.67396  -0.61967  -0.15624 
 1                     2.25225   0.64727   0.48976 
 1                     1.64375   0.5118   -1.08381 
 1                     0.68203  -1.733    -0.26114 
 1                     0.91733  -0.97758   1.34674 
 1                    -2.54622  -0.10682  -0.1702 
 
 Initializing the GIC definitions file.

 CrInp1: Reading the GIC input below.
 Dihed1 = D( 6, 1, 2, 3)
 Dihed2 = D( 1, 2, 3, 4)
 Dihed3 = D( 4, 3, 5, 10)
 
 Warning:  Number of GICs=     3 3N-6=    24.
 ITRead=  0  0  0  0  0  0  0  0  0  0
 MicOpt= -1 -1 -1 -1 -1 -1 -1 -1 -1 -1
                           ----------------------------
                           !    Current Parameters    !
                           ! (Angstroms and Degrees)  !
 --------------------------                            --------------------------
 ! Name   Definition             Value                                          !
 --------------------------------------------------------------------------------
 ! Dihed1 D(6,1,2,3)            82.5134                                         !
 ! Dihed2 D(1,2,3,4)           -30.1243                                         !
 ! Dihed3 D(4,3,5,10)           -9.5569                                         !
 --------------------------------------------------------------------------------
 NAtoms=     10 NQM=       10 NQMF=       0 NMMI=      0 NMMIF=      0
                NMic=       0 NMicF=      0.
                    Isotopes and Nuclear Properties:
 (Nuclear quadrupole moments (NQMom) in fm**2, nuclear magnetic moments (NMagM)
  in nuclear magnetons)

  Atom         1           2           3           4           5           6           7           8           9          10
 IAtWgt=          14          12          12          16          16           1           1           1           1           1
 AtmWgt=  14.0030740  12.0000000  12.0000000  15.9949146  15.9949146   1.0078250   1.0078250   1.0078250   1.0078250   1.0078250
 NucSpn=           2           0           0           0           0           1           1           1           1           1
 AtZEff=  -0.0000000  -0.0000000  -0.0000000  -0.0000000  -0.0000000  -0.0000000  -0.0000000  -0.0000000  -0.0000000  -0.0000000
 NQMom=    2.0440000   0.0000000   0.0000000   0.0000000   0.0000000   0.0000000   0.0000000   0.0000000   0.0000000   0.0000000
 NMagM=    0.4037610   0.0000000   0.0000000   0.0000000   0.0000000   2.7928460   2.7928460   2.7928460   2.7928460   2.7928460
 AtZNuc=   7.0000000   6.0000000   6.0000000   8.0000000   8.0000000   1.0000000   1.0000000   1.0000000   1.0000000   1.0000000
 Generating MM parameters.
 Include all MM classes

 MM sanity checks:
 All charges sum to:                0.00000000
 Charges of atoms sum to:           0.00000000
 MMInit generated parameter data with length LenPar=        1463.
 Leave Link  101 at Sun Mar 16 14:31:11 2025, MaxMem=   104857600 cpu:               0.1 elap:               0.1
 (Enter /home/enzo/gaussian_versions/gdv.j21/gdv/l202.exe)
                          Input orientation:                          
 ---------------------------------------------------------------------
 Center     Atomic      Atomic             Coordinates (Angstroms)
 Number     Number       Type             X           Y           Z
 ---------------------------------------------------------------------
      1          7    10071003        1.932566   -0.030876   -0.238487
      2          6    10061003        0.776779   -0.761426    0.266826
      3          6    10061000       -0.472672    0.037607    0.073936
      4          8    10081002       -0.431924    1.294225    0.089124
      5          8    10081000       -1.673955   -0.619668   -0.156238
      6          1    10011000        2.252250    0.647267    0.489762
      7          1    10011000        1.643747    0.511797   -1.083811
      8          1    10011000        0.682027   -1.732998   -0.261141
      9          1    10011000        0.917331   -0.977581    1.346744
     10          1    10011000       -2.546224   -0.106817   -0.170195
 ---------------------------------------------------------------------
                    Distance matrix (angstroms):
                    1          2          3          4          5
     1  N    0.000000
     2  C    1.457700   0.000000
     3  C    2.426410   1.495590   0.000000
     4  O    2.730208   2.391285   1.257370   0.000000
     5  O    3.655193   2.491019   1.388550   2.294740   0.000000
     6  H    1.045190   2.052104   2.823083   2.789956   4.175826
     7  H    1.045219   2.048646   2.458549   2.509259   3.625983
     8  H    2.112245   1.109810   2.140245   3.244634   2.607903
     9  H    2.107109   1.110271   2.140737   2.926295   3.016922
    10  H    4.479954   3.414945   2.092863   2.549594   1.011961
                    6          7          8          9         10
     6  H    0.000000
     7  H    1.692560   0.000000
     8  H    2.948748   2.576974   0.000000
     9  H    2.270806   2.941687   1.792015   0.000000
    10  H    4.901993   4.332809   3.615846   3.880148   0.000000
 Stoichiometry    C2H5NO2
 Framework group  C1[X(C2H5NO2)]
 Deg. of freedom    24
 Full point group                 C1      NOp   1
 Largest Abelian subgroup         C1      NOp   1
 Largest concise Abelian subgroup C1      NOp   1
                         Standard orientation:                         
 ---------------------------------------------------------------------
 Center     Atomic      Atomic             Coordinates (Angstroms)
 Number     Number       Type             X           Y           Z
 ---------------------------------------------------------------------
      1          7    10071003        1.894620   -0.014841   -0.254296
      2          6    10061003        0.737566   -0.751880    0.238541
      3          6    10061000       -0.508259    0.059186    0.074585
      4          8    10081002       -0.459974    1.314701    0.122853
      5          8    10081000       -1.714771   -0.584806   -0.165569
      6          1    10011000        2.222667    0.641864    0.489711
      7          1    10011000        1.603972    0.551751   -1.083139
      8          1    10011000        0.633902   -1.708522   -0.314422
      9          1    10011000        0.883290   -0.997451    1.311462
     10          1    10011000       -2.584053   -0.066745   -0.160565
 ---------------------------------------------------------------------
 Rotational constants (GHZ):          10.0684877           3.8491645           2.9672443
 Leave Link  202 at Sun Mar 16 14:31:11 2025, MaxMem=   104857600 cpu:               0.0 elap:               0.0
 (Enter /home/enzo/gaussian_versions/gdv.j21/gdv/l301.exe)
 Standard basis: Dummy (5D, 7F)
 There are    10 symmetry adapted cartesian basis functions of A   symmetry.
 There are    10 symmetry adapted basis functions of A   symmetry.
    10 basis functions,    10 primitive gaussians,    10 cartesian basis functions
     7 alpha electrons        7 beta electrons
       nuclear repulsion energy        22.4717536934 Hartrees.
 IExCor=         0 DFT=F Ex=HF Corr=None N6=None ScaHFX=  1.000000
 ScaDFX=  1.000000  1.000000  1.000000  1.000000  1.000000  0.000000
 ScaDFX=  0.000000  0.000000  0.000000  0.000000  0.000000  0.000000
 IRadAn=      5 IRanWt=     -1 IRanGd=            0 ICorTp=0 IEmpDi=  4
 NAtoms=   10 NActive=   10 NUniq=   10 SFac= 1.00D+00 NAtFMM=   60 NAOKFM=F Big=F
 Integral buffers will be    131072 words long.
 Raffenetti 1 integral format.
 Two-electron integral symmetry is turned on.
 Leave Link  301 at Sun Mar 16 14:31:11 2025, MaxMem=   104857600 cpu:               0.0 elap:               0.0
 (Enter /home/enzo/gaussian_versions/gdv.j21/gdv/l402.exe)
 UFF calculation of energy.
 Energy per function type:
 Direct Coulomb + vdW (small)                           0.006206195
 Direct Coulomb (large)                                 0.000000000
 Direct vdW (large)                                   423.703262279
 Non-direct Coulomb + vdW (small)                       0.000000000
 Non-direct Coulomb (large)                             0.000000000
 Non-direct vdW (large)                              -423.703262279
 Harmonic stretch III                                   0.008269359
 UFF 3-term bend                                        0.004737026
 UFF 2-term bend                                        0.000033433
 UFF torsion fixed V                                    0.001582039
 UFF torsion w/ bond order V                            0.001000547
 UFF torsion w/ sp3 V                                   0.000528884
 Three term Wilson angle                                0.000024281
 Energy per function class:
        Coulomb               0.000000000
    Vanderwaals               0.006206195
     Stretching               0.008269359
        Bending               0.004770459
        Torsion               0.003111470
   Out-of-plane               0.000024281
 Energy=    2.238176345E-02 NIter=   0.
 Dipole moment=       0.000000       0.000000       0.000000
 Leave Link  402 at Sun Mar 16 14:31:11 2025, MaxMem=   104857600 cpu:               0.0 elap:               0.0
 (Enter /home/enzo/gaussian_versions/gdv.j21/gdv/l9999.exe)
 Unable to Open any file for archive entry.
 1\1\GINC-ORACLE\SP\UFF\ZDO\C2H5N1O2\ENZO\16-Mar-2025\0\\#p UFF GEOM=RE
 ADALLGIC OUTPUT=PICKETT\\individuo_9271.xyz\\0,1\N,0,1.932566,-0.03087
 6,-0.238487\C,0,0.776779,-0.761426,0.266826\C,0,-0.472672,0.037607,0.0
 73936\O,0,-0.431924,1.294225,0.089124\O,0,-1.673955,-0.619668,-0.15623
 8\H,0,2.25225,0.647267,0.489762\H,0,1.643747,0.511797,-1.083811\H,0,0.
 682027,-1.732998,-0.261141\H,0,0.917331,-0.977581,1.346744\H,0,-2.5462
 24,-0.106817,-0.170195\\Version=ES64L-GDVRevJ.21\HF=0.0223818\RMSD=0.0
 00e+00\Dipole=0.,0.,0.\PG=C01 [X(C2H5N1O2)]\\@
 The archive entry for this job was punched.
 DoSRE=F DoSRN=F DoDH=F DoFC=F DoNQ=F DoQCD=F DoSCD=F
 Inertia tensor (amu-bohr**2): 
                 1             2             3 
      1   0.179247D+03  0.237003D-05  0.325410D-04
      2   0.237003D-05  0.468866D+03  0.836822D-05
      3   0.325410D-04  0.836822D-05  0.608221D+03
 Principal inertia moments (amu-bohr**2):
 Iaa = 0.179247D+03 Ibb= 0.468866D+03 Icc= 0.608221D+03
 Rotation matrix to Principal Axis frame: 
                 1             2             3 
      1   0.100000D+01  0.000000D+00  0.000000D+00
      2   0.000000D+00  0.100000D+01  0.000000D+00
      3   0.000000D+00  0.000000D+00  0.100000D+01
                Principal axis orientation:                
 ---------------------------------------------------------------------
 Center     Atomic                     Coordinates (Angstroms)
 Number     Number                        X           Y           Z
 ---------------------------------------------------------------------
      1          7                    1.932566   -0.030876   -0.238487
      2          6                    0.776779   -0.761426    0.266826
      3          6                   -0.472672    0.037607    0.073936
      4          8                   -0.431924    1.294225    0.089124
      5          8                   -1.673955   -0.619668   -0.156238
      6          1                    2.252250    0.647267    0.489762
      7          1                    1.643747    0.511797   -1.083811
      8          1                    0.682027   -1.732998   -0.261141
      9          1                    0.917331   -0.977581    1.346744
     10          1                   -2.546224   -0.106817   -0.170195
 ---------------------------------------------------------------------
 Rotational constants (MHZ):
  10068.4877282   3849.1644557   2967.2443377
 Dipole moment (Debye):
      0.0000000      0.0000000      0.0000000  Tot=      0.0000000

 Atoms with significant hyperfine tensors: 

--------------------------------------------------------------------------------
 individuo_9271.xyz                                      
   99  1000  50  0.1760E-11  0.1000E+07  0.1000E+01 1.0000000000
a   1  0  0  0  1  1   1  0  1  0
     10000   0.10068488E+05    0.0000E+00   /  A  /
     20000   0.38491645E+04    0.0000E+00   /  B  /
     30000   0.29672443E+04    0.0000E+00   /  C  /
--------------------------------------------------------------------------------



 GOD DOES NOT PLAY WITH DICE.
               -- A. EINSTEIN
 Job cpu time:       0 days  0 hours  0 minutes  0.2 seconds.
 Elapsed time:       0 days  0 hours  0 minutes  0.2 seconds.
 File lengths (MBytes):  RWF=     14 Int=      0 D2E=      0 Chk=      9 Scr=      1
 Normal termination of Gaussian DV at Sun Mar 16 14:31:11 2025.
