 Entering Gaussian System, Link 0=gdv
 Input=cumulative_population/temp_processing/individuo_1711.gjf
 Output=cumulative_population/temp_processing/individuo_1711.log
 Initial command:
 /home/enzo/gaussian_versions/gdv.j21/gdv/l1.exe "/local/home/enzo/scratch/Gau-2479232.inp" -scrdir="/local/home/enzo/scratch/"
 Entering Link 1 = /home/enzo/gaussian_versions/gdv.j21/gdv/l1.exe PID=   2479233.
  
 Copyright (c) 1988-2022, Gaussian, Inc.  All Rights Reserved.
  
 This is the private, development version of
 the Gaussian(R) DV system of programs. It is based on
 the Gaussian(R) 16 system (copyright 2016, Gaussian, Inc.),
 the Gaussian(R) 09 system (copyright 2009, Gaussian, Inc.),
 the Gaussian(R) 03 system (copyright 2003, Gaussian, Inc.),
 the Gaussian(R) 98 system (copyright 1998, Gaussian, Inc.),
 the Gaussian(R) 94 system (copyright 1995, Gaussian, Inc.),
 the Gaussian 92(TM) system (copyright 1992, Gaussian, Inc.),
 the Gaussian 90(TM) system (copyright 1990, Gaussian, Inc.),
 the Gaussian 88(TM) system (copyright 1988, Gaussian, Inc.),
 the Gaussian 86(TM) system (copyright 1986, Carnegie Mellon
 University), and the Gaussian 82(TM) system (copyright 1983,
 Carnegie Mellon University). Gaussian is a federally registered
 trademark of Gaussian, Inc.
  
 This software contains proprietary and confidential information,
 including trade secrets, belonging to Gaussian, Inc.
  
 This software is provided under written license and may be
 used, copied, transmitted, or stored only in accord with that
 written license.
  
 The following legend is applicable only to US Government
 contracts under FAR:
  
                    RESTRICTED RIGHTS LEGEND
  
 Use, reproduction and disclosure by the US Government is
 subject to restrictions as set forth in subparagraphs (a)
 and (c) of the Commercial Computer Software - Restricted
 Rights clause in FAR 52.227-19.
  
 Gaussian, Inc.
 340 Quinnipiac St., Bldg. 40, Wallingford CT 06492
  
  
 ---------------------------------------------------------------
 Warning -- This program may not be used in any manner that
 competes with the business of Gaussian, Inc. or will provide
 assistance to any competitor of Gaussian, Inc.  The licensee
 of this program is prohibited from giving any competitor of
 Gaussian, Inc. access to this program.  By using this program,
 the user acknowledges that Gaussian, Inc. is engaged in the
 business of creating and licensing software in the field of
 computational chemistry and represents and warrants to the
 licensee that it is not a competitor of Gaussian, Inc. and that
 it will not use this program in any manner prohibited above.
 ---------------------------------------------------------------
  

 Cite this work as:
 Gaussian Development Version, Revision J.21,
 M. J. Frisch, G. W. Trucks, H. B. Schlegel, G. E. Scuseria, 
 M. A. Robb, J. R. Cheeseman, G. Scalmani, V. Barone, 
 G. A. Petersson, H. Nakatsuji, X. Li, A. V. Marenich, M. Caricato, 
 J. Bloino, B. G. Janesko, J. Zheng, R. Gomperts, B. Mennucci, 
 H. P. Hratchian, J. V. Ortiz, A. F. Izmaylov, J. L. Sonnenberg, 
 D. Williams-Young, F. Ding, F. Lipparini, F. Egidi, J. Goings, 
 B. Peng, A. Petrone, T. Henderson, D. Ranasinghe, V. G. Zakrzewski, 
 J. Gao, N. Rega, G. Zheng, W. Liang, M. Hada, M. Ehara, K. Toyota, 
 R. Fukuda, J. Hasegawa, M. Ishida, T. Nakajima, Y. Honda, O. Kitao, 
 H. Nakai, T. Vreven, K. Throssell, J. A. Montgomery, Jr., 
 J. E. Peralta, F. Ogliaro, M. J. Bearpark, J. J. Heyd, 
 E. N. Brothers, K. N. Kudin, V. N. Staroverov, T. A. Keith, 
 R. Kobayashi, J. Normand, K. Raghavachari, A. P. Rendell, 
 J. C. Burant, S. S. Iyengar, J. Tomasi, M. Cossi, J. M. Millam, 
 M. Klene, C. Adamo, R. Cammi, J. W. Ochterski, R. L. Martin, 
 K. Morokuma, O. Farkas, J. B. Foresman, and D. J. Fox, 
 Gaussian, Inc., Wallingford CT, 2020.
 
 ******************************************
 Gaussian DV:  ES64L-GDVRevJ.21 25-Jul-2022
                16-Mar-2025 
 ******************************************
 -------------------------------------
 #p UFF GEOM=READALLGIC OUTPUT=PICKETT
 -------------------------------------
 1/18=20,37=210000000,38=1,56=1,64=2,145=602,172=1/1;
 2/12=2/2;
 3/5=30,11=9,25=1,30=1,41=10020000,43=2/1;
 4/20=10,24=3/2;
 99/5=1,9=1,10=1024/99;
 Leave Link    1 at Sun Mar 16 14:31:13 2025, MaxMem=           0 cpu:               0.0 elap:               0.0
 (Enter /home/enzo/gaussian_versions/gdv.j21/gdv/l101.exe)
 ------------------
 individuo_1711.xyz
 ------------------
 Symbolic Z-matrix:
 Charge =     0 Multiplicity =     1
 7                     1.93854   0.06605   0.06479 
 6                     0.76119  -0.78948  -0.01764 
 6                    -0.48686   0.03441   0.00222 
 8                    -0.41933   1.28996   0.00684 
 8                    -1.72252  -0.59866  -0.01886 
 1                     2.01295   0.62902  -0.81268 
 1                     2.78848  -0.53804   0.13669 
 1                     0.79455  -1.39143  -0.94942 
 1                     0.75468  -1.49561   0.83912 
 1                    -2.5592   -0.10267   0.26046 
 
 Initializing the GIC definitions file.

 CrInp1: Reading the GIC input below.
 Dihed1 = D( 6, 1, 2, 3)
 Dihed2 = D( 1, 2, 3, 4)
 Dihed3 = D( 4, 3, 5, 10)
 
 Warning:  Number of GICs=     3 3N-6=    24.
 ITRead=  0  0  0  0  0  0  0  0  0  0
 MicOpt= -1 -1 -1 -1 -1 -1 -1 -1 -1 -1
                           ----------------------------
                           !    Current Parameters    !
                           ! (Angstroms and Degrees)  !
 --------------------------                            --------------------------
 ! Name   Definition             Value                                          !
 --------------------------------------------------------------------------------
 ! Dihed1 D(6,1,2,3)           -67.4021                                         !
 ! Dihed2 D(1,2,3,4)             3.9476                                         !
 ! Dihed3 D(4,3,5,10)          -19.499                                          !
 --------------------------------------------------------------------------------
 NAtoms=     10 NQM=       10 NQMF=       0 NMMI=      0 NMMIF=      0
                NMic=       0 NMicF=      0.
                    Isotopes and Nuclear Properties:
 (Nuclear quadrupole moments (NQMom) in fm**2, nuclear magnetic moments (NMagM)
  in nuclear magnetons)

  Atom         1           2           3           4           5           6           7           8           9          10
 IAtWgt=          14          12          12          16          16           1           1           1           1           1
 AtmWgt=  14.0030740  12.0000000  12.0000000  15.9949146  15.9949146   1.0078250   1.0078250   1.0078250   1.0078250   1.0078250
 NucSpn=           2           0           0           0           0           1           1           1           1           1
 AtZEff=  -0.0000000  -0.0000000  -0.0000000  -0.0000000  -0.0000000  -0.0000000  -0.0000000  -0.0000000  -0.0000000  -0.0000000
 NQMom=    2.0440000   0.0000000   0.0000000   0.0000000   0.0000000   0.0000000   0.0000000   0.0000000   0.0000000   0.0000000
 NMagM=    0.4037610   0.0000000   0.0000000   0.0000000   0.0000000   2.7928460   2.7928460   2.7928460   2.7928460   2.7928460
 AtZNuc=   7.0000000   6.0000000   6.0000000   8.0000000   8.0000000   1.0000000   1.0000000   1.0000000   1.0000000   1.0000000
 Generating MM parameters.
 Include all MM classes

 MM sanity checks:
 All charges sum to:                0.00000000
 Charges of atoms sum to:           0.00000000
 MMInit generated parameter data with length LenPar=        1463.
 Leave Link  101 at Sun Mar 16 14:31:13 2025, MaxMem=   104857600 cpu:               0.1 elap:               0.1
 (Enter /home/enzo/gaussian_versions/gdv.j21/gdv/l202.exe)
                          Input orientation:                          
 ---------------------------------------------------------------------
 Center     Atomic      Atomic             Coordinates (Angstroms)
 Number     Number       Type             X           Y           Z
 ---------------------------------------------------------------------
      1          7    10071003        1.938540    0.066054    0.064789
      2          6    10061003        0.761185   -0.789475   -0.017641
      3          6    10061000       -0.486857    0.034410    0.002222
      4          8    10081002       -0.419327    1.289957    0.006840
      5          8    10081000       -1.722515   -0.598660   -0.018860
      6          1    10011000        2.012952    0.629017   -0.812683
      7          1    10011000        2.788477   -0.538035    0.136693
      8          1    10011000        0.794553   -1.391426   -0.949424
      9          1    10011000        0.754676   -1.495610    0.839115
     10          1    10011000       -2.559198   -0.102670    0.260457
 ---------------------------------------------------------------------
                    Distance matrix (angstroms):
                    1          2          3          4          5
     1  N    0.000000
     2  C    1.457700   0.000000
     3  C    2.426410   1.495590   0.000000
     4  O    2.657223   2.391285   1.257370   0.000000
     5  O    3.721850   2.491019   1.388551   2.294740   0.000000
     6  H    1.045190   2.052104   2.695677   2.650366   4.011366
     7  H    1.045221   2.048647   3.327700   3.694377   4.514080
     8  H    2.112246   1.109810   2.140245   3.094796   2.798224
     9  H    2.107109   1.110270   2.140737   3.135339   2.770761
    10  H    4.505153   3.402056   2.092863   2.565693   1.011960
                    6          7          8          9         10
     6  H    0.000000
     7  H    1.692561   0.000000
     8  H    2.363342   2.425626   0.000000
     9  H    2.970814   2.355142   1.792015   0.000000
    10  H    4.753057   5.366795   3.791088   3.641001   0.000000
 Stoichiometry    C2H5NO2
 Framework group  C1[X(C2H5NO2)]
 Deg. of freedom    24
 Full point group                 C1      NOp   1
 Largest Abelian subgroup         C1      NOp   1
 Largest concise Abelian subgroup C1      NOp   1
                         Standard orientation:                         
 ---------------------------------------------------------------------
 Center     Atomic      Atomic             Coordinates (Angstroms)
 Number     Number       Type             X           Y           Z
 ---------------------------------------------------------------------
      1          7    10071003       -1.888172    0.138464   -0.098758
      2          6    10061003       -0.729384   -0.739046    0.011139
      3          6    10061000        0.535038    0.059607   -0.002300
      4          8    10081002        0.492697    1.316071   -0.024325
      5          8    10081000        1.757390   -0.597485    0.044147
      6          1    10011000       -1.963188    0.714494    0.770140
      7          1    10011000       -2.748967   -0.449573   -0.174457
      8          1    10011000       -0.787399   -1.327683    0.950191
      9          1    10011000       -0.725394   -1.456584   -0.836106
     10          1    10011000        2.607530   -0.121957   -0.230076
 ---------------------------------------------------------------------
 Rotational constants (GHZ):          10.6960762           3.7474009           2.8515370
 Leave Link  202 at Sun Mar 16 14:31:13 2025, MaxMem=   104857600 cpu:               0.0 elap:               0.0
 (Enter /home/enzo/gaussian_versions/gdv.j21/gdv/l301.exe)
 Standard basis: Dummy (5D, 7F)
 There are    10 symmetry adapted cartesian basis functions of A   symmetry.
 There are    10 symmetry adapted basis functions of A   symmetry.
    10 basis functions,    10 primitive gaussians,    10 cartesian basis functions
     7 alpha electrons        7 beta electrons
       nuclear repulsion energy        22.2424939744 Hartrees.
 IExCor=         0 DFT=F Ex=HF Corr=None N6=None ScaHFX=  1.000000
 ScaDFX=  1.000000  1.000000  1.000000  1.000000  1.000000  0.000000
 ScaDFX=  0.000000  0.000000  0.000000  0.000000  0.000000  0.000000
 IRadAn=      5 IRanWt=     -1 IRanGd=            0 ICorTp=0 IEmpDi=  4
 NAtoms=   10 NActive=   10 NUniq=   10 SFac= 1.00D+00 NAtFMM=   60 NAOKFM=F Big=F
 Integral buffers will be    131072 words long.
 Raffenetti 1 integral format.
 Two-electron integral symmetry is turned on.
 Leave Link  301 at Sun Mar 16 14:31:13 2025, MaxMem=   104857600 cpu:               0.0 elap:               0.0
 (Enter /home/enzo/gaussian_versions/gdv.j21/gdv/l402.exe)
 UFF calculation of energy.
 Energy per function type:
 Direct Coulomb + vdW (small)                           0.003898576
 Direct Coulomb (large)                                 0.000000000
 Direct vdW (large)                                   423.703337765
 Non-direct Coulomb + vdW (small)                       0.000000000
 Non-direct Coulomb (large)                             0.000000000
 Non-direct vdW (large)                              -423.703337765
 Harmonic stretch III                                   0.008269454
 UFF 3-term bend                                        0.004736972
 UFF 2-term bend                                        0.000033438
 UFF torsion fixed V                                    0.000043709
 UFF torsion w/ bond order V                            0.004414630
 UFF torsion w/ sp3 V                                   0.000042061
 Three term Wilson angle                                0.000024282
 Energy per function class:
        Coulomb               0.000000000
    Vanderwaals               0.003898576
     Stretching               0.008269454
        Bending               0.004770410
        Torsion               0.004500401
   Out-of-plane               0.000024282
 Energy=    2.146312378E-02 NIter=   0.
 Dipole moment=       0.000000       0.000000       0.000000
 Leave Link  402 at Sun Mar 16 14:31:13 2025, MaxMem=   104857600 cpu:               0.0 elap:               0.0
 (Enter /home/enzo/gaussian_versions/gdv.j21/gdv/l9999.exe)
 Unable to Open any file for archive entry.
 1\1\GINC-ORACLE\SP\UFF\ZDO\C2H5N1O2\ENZO\16-Mar-2025\0\\#p UFF GEOM=RE
 ADALLGIC OUTPUT=PICKETT\\individuo_1711.xyz\\0,1\N,0,1.93854,0.066054,
 0.064789\C,0,0.761185,-0.789475,-0.017641\C,0,-0.486857,0.03441,0.0022
 22\O,0,-0.419327,1.289957,0.00684\O,0,-1.722515,-0.59866,-0.01886\H,0,
 2.012952,0.629017,-0.812683\H,0,2.788477,-0.538035,0.136693\H,0,0.7945
 53,-1.391426,-0.949424\H,0,0.754676,-1.49561,0.839115\H,0,-2.559198,-0
 .10267,0.260457\\Version=ES64L-GDVRevJ.21\HF=0.0214631\RMSD=0.000e+00\
 Dipole=0.,0.,0.\PG=C01 [X(C2H5N1O2)]\\@
 The archive entry for this job was punched.
 DoSRE=F DoSRN=F DoDH=F DoFC=F DoNQ=F DoQCD=F DoSCD=F
 Inertia tensor (amu-bohr**2): 
                 1             2             3 
      1   0.168729D+03 -0.424115D-04  0.718030D-04
      2  -0.424115D-04  0.481598D+03 -0.388547D-04
      3   0.718030D-04 -0.388547D-04  0.632901D+03
 Principal inertia moments (amu-bohr**2):
 Iaa = 0.168729D+03 Ibb= 0.481598D+03 Icc= 0.632901D+03
 Rotation matrix to Principal Axis frame: 
                 1             2             3 
      1   0.100000D+01  0.000000D+00  0.000000D+00
      2   0.000000D+00  0.100000D+01  0.000000D+00
      3   0.000000D+00  0.000000D+00  0.100000D+01
                Principal axis orientation:                
 ---------------------------------------------------------------------
 Center     Atomic                     Coordinates (Angstroms)
 Number     Number                        X           Y           Z
 ---------------------------------------------------------------------
      1          7                    1.938540    0.066054    0.064789
      2          6                    0.761185   -0.789475   -0.017641
      3          6                   -0.486857    0.034410    0.002222
      4          8                   -0.419327    1.289957    0.006840
      5          8                   -1.722515   -0.598660   -0.018860
      6          1                    2.012952    0.629016   -0.812683
      7          1                    2.788477   -0.538035    0.136694
      8          1                    0.794553   -1.391426   -0.949424
      9          1                    0.754676   -1.495610    0.839115
     10          1                   -2.559198   -0.102670    0.260457
 ---------------------------------------------------------------------
 Rotational constants (MHZ):
  10696.0762126   3747.4009047   2851.5370440
 Dipole moment (Debye):
      0.0000000      0.0000000      0.0000000  Tot=      0.0000000

 Atoms with significant hyperfine tensors: 

--------------------------------------------------------------------------------
 individuo_1711.xyz                                      
   99  1000  50  0.1760E-11  0.1000E+07  0.1000E+01 1.0000000000
a   1  0  0  0  1  1   1  0  1  0
     10000   0.10696076E+05    0.0000E+00   /  A  /
     20000   0.37474009E+04    0.0000E+00   /  B  /
     30000   0.28515370E+04    0.0000E+00   /  C  /
--------------------------------------------------------------------------------



 ACTORS ARE SO FORTUNATE.  THEY CAN CHOOSE WHETHER
 THEY WILL APPEAR IN A TRAGEDY OR IN COMEDY,
 WHETHER THEY WILL SUFFER OF MAKE MERRY,
 LAUGH OR SHED TEARS.  BUT IN REAL LIFE IT IS DIFFERENT.
 MOST MEN AND WOMEN ARE FORCED TO PERFORM
 PARTS FOR WHICH THEY HAVE NO QUALIFICATIONS.
 THE WORLD IS A STAGE, BUT THE PLAY IS BADLY CAST.

                                   -- OSCAR WILDE
 Job cpu time:       0 days  0 hours  0 minutes  0.2 seconds.
 Elapsed time:       0 days  0 hours  0 minutes  0.2 seconds.
 File lengths (MBytes):  RWF=     14 Int=      0 D2E=      0 Chk=      9 Scr=      1
 Normal termination of Gaussian DV at Sun Mar 16 14:31:13 2025.
