 Entering Gaussian System, Link 0=gdv
 Input=cumulative_population/temp_processing/individuo_7005.gjf
 Output=cumulative_population/temp_processing/individuo_7005.log
 Initial command:
 /home/enzo/gaussian_versions/gdv.j21/gdv/l1.exe "/local/home/enzo/scratch/Gau-2480480.inp" -scrdir="/local/home/enzo/scratch/"
 Entering Link 1 = /home/enzo/gaussian_versions/gdv.j21/gdv/l1.exe PID=   2480481.
  
 Copyright (c) 1988-2022, Gaussian, Inc.  All Rights Reserved.
  
 This is the private, development version of
 the Gaussian(R) DV system of programs. It is based on
 the Gaussian(R) 16 system (copyright 2016, Gaussian, Inc.),
 the Gaussian(R) 09 system (copyright 2009, Gaussian, Inc.),
 the Gaussian(R) 03 system (copyright 2003, Gaussian, Inc.),
 the Gaussian(R) 98 system (copyright 1998, Gaussian, Inc.),
 the Gaussian(R) 94 system (copyright 1995, Gaussian, Inc.),
 the Gaussian 92(TM) system (copyright 1992, Gaussian, Inc.),
 the Gaussian 90(TM) system (copyright 1990, Gaussian, Inc.),
 the Gaussian 88(TM) system (copyright 1988, Gaussian, Inc.),
 the Gaussian 86(TM) system (copyright 1986, Carnegie Mellon
 University), and the Gaussian 82(TM) system (copyright 1983,
 Carnegie Mellon University). Gaussian is a federally registered
 trademark of Gaussian, Inc.
  
 This software contains proprietary and confidential information,
 including trade secrets, belonging to Gaussian, Inc.
  
 This software is provided under written license and may be
 used, copied, transmitted, or stored only in accord with that
 written license.
  
 The following legend is applicable only to US Government
 contracts under FAR:
  
                    RESTRICTED RIGHTS LEGEND
  
 Use, reproduction and disclosure by the US Government is
 subject to restrictions as set forth in subparagraphs (a)
 and (c) of the Commercial Computer Software - Restricted
 Rights clause in FAR 52.227-19.
  
 Gaussian, Inc.
 340 Quinnipiac St., Bldg. 40, Wallingford CT 06492
  
  
 ---------------------------------------------------------------
 Warning -- This program may not be used in any manner that
 competes with the business of Gaussian, Inc. or will provide
 assistance to any competitor of Gaussian, Inc.  The licensee
 of this program is prohibited from giving any competitor of
 Gaussian, Inc. access to this program.  By using this program,
 the user acknowledges that Gaussian, Inc. is engaged in the
 business of creating and licensing software in the field of
 computational chemistry and represents and warrants to the
 licensee that it is not a competitor of Gaussian, Inc. and that
 it will not use this program in any manner prohibited above.
 ---------------------------------------------------------------
  

 Cite this work as:
 Gaussian Development Version, Revision J.21,
 M. J. Frisch, G. W. Trucks, H. B. Schlegel, G. E. Scuseria, 
 M. A. Robb, J. R. Cheeseman, G. Scalmani, V. Barone, 
 G. A. Petersson, H. Nakatsuji, X. Li, A. V. Marenich, M. Caricato, 
 J. Bloino, B. G. Janesko, J. Zheng, R. Gomperts, B. Mennucci, 
 H. P. Hratchian, J. V. Ortiz, A. F. Izmaylov, J. L. Sonnenberg, 
 D. Williams-Young, F. Ding, F. Lipparini, F. Egidi, J. Goings, 
 B. Peng, A. Petrone, T. Henderson, D. Ranasinghe, V. G. Zakrzewski, 
 J. Gao, N. Rega, G. Zheng, W. Liang, M. Hada, M. Ehara, K. Toyota, 
 R. Fukuda, J. Hasegawa, M. Ishida, T. Nakajima, Y. Honda, O. Kitao, 
 H. Nakai, T. Vreven, K. Throssell, J. A. Montgomery, Jr., 
 J. E. Peralta, F. Ogliaro, M. J. Bearpark, J. J. Heyd, 
 E. N. Brothers, K. N. Kudin, V. N. Staroverov, T. A. Keith, 
 R. Kobayashi, J. Normand, K. Raghavachari, A. P. Rendell, 
 J. C. Burant, S. S. Iyengar, J. Tomasi, M. Cossi, J. M. Millam, 
 M. Klene, C. Adamo, R. Cammi, J. W. Ochterski, R. L. Martin, 
 K. Morokuma, O. Farkas, J. B. Foresman, and D. J. Fox, 
 Gaussian, Inc., Wallingford CT, 2020.
 
 ******************************************
 Gaussian DV:  ES64L-GDVRevJ.21 25-Jul-2022
                16-Mar-2025 
 ******************************************
 -------------------------------------
 #p UFF GEOM=READALLGIC OUTPUT=PICKETT
 -------------------------------------
 1/18=20,37=210000000,38=1,56=1,64=2,145=602,172=1/1;
 2/12=2/2;
 3/5=30,11=9,25=1,30=1,41=10020000,43=2/1;
 4/20=10,24=3/2;
 99/5=1,9=1,10=1024/99;
 Leave Link    1 at Sun Mar 16 14:33:29 2025, MaxMem=           0 cpu:               0.0 elap:               0.0
 (Enter /home/enzo/gaussian_versions/gdv.j21/gdv/l101.exe)
 ------------------
 individuo_7005.xyz
 ------------------
 Symbolic Z-matrix:
 Charge =     0 Multiplicity =     1
 7                     1.8878   -0.03694   0.41435 
 6                     0.84771  -0.49257  -0.49971 
 6                    -0.48351   0.05351  -0.09176 
 8                    -0.67525   1.2955   -0.05065 
 8                    -1.51742  -0.8233    0.20878 
 1                     2.01008   0.99523   0.30435 
 1                     2.78843  -0.50045   0.15644 
 1                     1.08245  -0.16595  -1.53407 
 1                     0.81139  -1.60224  -0.49729 
 1                    -2.45931  -0.47979   0.34631 
 
 Initializing the GIC definitions file.

 CrInp1: Reading the GIC input below.
 Dihed1 = D( 6, 1, 2, 3)
 Dihed2 = D( 1, 2, 3, 4)
 Dihed3 = D( 4, 3, 5, 10)
 
 Warning:  Number of GICs=     3 3N-6=    24.
 ITRead=  0  0  0  0  0  0  0  0  0  0
 MicOpt= -1 -1 -1 -1 -1 -1 -1 -1 -1 -1
                           ----------------------------
                           !    Current Parameters    !
                           ! (Angstroms and Degrees)  !
 --------------------------                            --------------------------
 ! Name   Definition             Value                                          !
 --------------------------------------------------------------------------------
 ! Dihed1 D(6,1,2,3)           -67.291                                          !
 ! Dihed2 D(1,2,3,4)            60.5658                                         !
 ! Dihed3 D(4,3,5,10)            7.8925                                         !
 --------------------------------------------------------------------------------
 NAtoms=     10 NQM=       10 NQMF=       0 NMMI=      0 NMMIF=      0
                NMic=       0 NMicF=      0.
                    Isotopes and Nuclear Properties:
 (Nuclear quadrupole moments (NQMom) in fm**2, nuclear magnetic moments (NMagM)
  in nuclear magnetons)

  Atom         1           2           3           4           5           6           7           8           9          10
 IAtWgt=          14          12          12          16          16           1           1           1           1           1
 AtmWgt=  14.0030740  12.0000000  12.0000000  15.9949146  15.9949146   1.0078250   1.0078250   1.0078250   1.0078250   1.0078250
 NucSpn=           2           0           0           0           0           1           1           1           1           1
 AtZEff=  -0.0000000  -0.0000000  -0.0000000  -0.0000000  -0.0000000  -0.0000000  -0.0000000  -0.0000000  -0.0000000  -0.0000000
 NQMom=    2.0440000   0.0000000   0.0000000   0.0000000   0.0000000   0.0000000   0.0000000   0.0000000   0.0000000   0.0000000
 NMagM=    0.4037610   0.0000000   0.0000000   0.0000000   0.0000000   2.7928460   2.7928460   2.7928460   2.7928460   2.7928460
 AtZNuc=   7.0000000   6.0000000   6.0000000   8.0000000   8.0000000   1.0000000   1.0000000   1.0000000   1.0000000   1.0000000
 Generating MM parameters.
 Include all MM classes

 MM sanity checks:
 All charges sum to:                0.00000000
 Charges of atoms sum to:           0.00000000
 MMInit generated parameter data with length LenPar=        1463.
 Leave Link  101 at Sun Mar 16 14:33:30 2025, MaxMem=   104857600 cpu:               0.1 elap:               0.1
 (Enter /home/enzo/gaussian_versions/gdv.j21/gdv/l202.exe)
                          Input orientation:                          
 ---------------------------------------------------------------------
 Center     Atomic      Atomic             Coordinates (Angstroms)
 Number     Number       Type             X           Y           Z
 ---------------------------------------------------------------------
      1          7    10071003        1.887803   -0.036941    0.414353
      2          6    10061003        0.847712   -0.492566   -0.499708
      3          6    10061000       -0.483514    0.053513   -0.091756
      4          8    10081002       -0.675252    1.295498   -0.050653
      5          8    10081000       -1.517418   -0.823295    0.208778
      6          1    10011000        2.010078    0.995227    0.304352
      7          1    10011000        2.788425   -0.500454    0.156436
      8          1    10011000        1.082445   -0.165945   -1.534066
      9          1    10011000        0.811393   -1.602239   -0.497290
     10          1    10011000       -2.459306   -0.479791    0.346314
 ---------------------------------------------------------------------
                    Distance matrix (angstroms):
                    1          2          3          4          5
     1  N    0.000000
     2  C    1.457701   0.000000
     3  C    2.426411   1.495590   0.000000
     4  O    2.925897   2.391285   1.257370   0.000000
     5  O    3.500878   2.491019   1.388550   2.294740   0.000000
     6  H    1.045190   2.052105   2.694759   2.725287   3.969809
     7  H    1.045220   2.048647   3.327772   3.907095   4.318246
     8  H    2.112245   1.109810   2.140245   2.725037   3.198265
     9  H    2.107109   1.110270   2.140737   3.287321   2.555122
    10  H    4.370138   3.413544   2.092862   2.547957   1.011961
                    6          7          8          9         10
     6  H    0.000000
     7  H    1.692562   0.000000
     8  H    2.364023   2.424884   0.000000
     9  H    2.970910   2.355832   1.792014   0.000000
    10  H    4.706680   5.251206   4.022229   3.559358   0.000000
 Stoichiometry    C2H5NO2
 Framework group  C1[X(C2H5NO2)]
 Deg. of freedom    24
 Full point group                 C1      NOp   1
 Largest Abelian subgroup         C1      NOp   1
 Largest concise Abelian subgroup C1      NOp   1
                         Standard orientation:                         
 ---------------------------------------------------------------------
 Center     Atomic      Atomic             Coordinates (Angstroms)
 Number     Number       Type             X           Y           Z
 ---------------------------------------------------------------------
      1          7    10071003       -1.829486   -0.009225   -0.454702
      2          6    10061003       -0.800003   -0.487676    0.459706
      3          6    10061000        0.534417    0.074870    0.086004
      4          8    10081002        0.721751    1.318205    0.083808
      5          8    10081000        1.575756   -0.789060   -0.225940
      6          1    10011000       -1.957336    1.018837   -0.316268
      7          1    10011000       -2.731651   -0.483309   -0.222695
      8          1    10011000       -1.049951   -0.192306    1.499879
      9          1    10011000       -0.759242   -1.596666    0.425367
     10          1    10011000        2.518038   -0.438307   -0.340574
 ---------------------------------------------------------------------
 Rotational constants (GHZ):           9.3852024           3.7601712           2.9719078
 Leave Link  202 at Sun Mar 16 14:33:30 2025, MaxMem=   104857600 cpu:               0.0 elap:               0.0
 (Enter /home/enzo/gaussian_versions/gdv.j21/gdv/l301.exe)
 Standard basis: Dummy (5D, 7F)
 There are    10 symmetry adapted cartesian basis functions of A   symmetry.
 There are    10 symmetry adapted basis functions of A   symmetry.
    10 basis functions,    10 primitive gaussians,    10 cartesian basis functions
     7 alpha electrons        7 beta electrons
       nuclear repulsion energy        22.2305051897 Hartrees.
 IExCor=         0 DFT=F Ex=HF Corr=None N6=None ScaHFX=  1.000000
 ScaDFX=  1.000000  1.000000  1.000000  1.000000  1.000000  0.000000
 ScaDFX=  0.000000  0.000000  0.000000  0.000000  0.000000  0.000000
 IRadAn=      5 IRanWt=     -1 IRanGd=            0 ICorTp=0 IEmpDi=  4
 NAtoms=   10 NActive=   10 NUniq=   10 SFac= 1.00D+00 NAtFMM=   60 NAOKFM=F Big=F
 Integral buffers will be    131072 words long.
 Raffenetti 1 integral format.
 Two-electron integral symmetry is turned on.
 Leave Link  301 at Sun Mar 16 14:33:30 2025, MaxMem=   104857600 cpu:               0.0 elap:               0.0
 (Enter /home/enzo/gaussian_versions/gdv.j21/gdv/l402.exe)
 UFF calculation of energy.
 Energy per function type:
 Direct Coulomb + vdW (small)                           0.002415812
 Direct Coulomb (large)                                 0.000000000
 Direct vdW (large)                                   423.703339823
 Non-direct Coulomb + vdW (small)                       0.000000000
 Non-direct Coulomb (large)                             0.000000000
 Non-direct vdW (large)                              -423.703339823
 Harmonic stretch III                                   0.008269316
 UFF 3-term bend                                        0.004736973
 UFF 2-term bend                                        0.000033438
 UFF torsion fixed V                                    0.000006950
 UFF torsion w/ bond order V                            0.000992239
 UFF torsion w/ sp3 V                                   0.000040644
 Three term Wilson angle                                0.000024282
 Energy per function class:
        Coulomb               0.000000000
    Vanderwaals               0.002415812
     Stretching               0.008269316
        Bending               0.004770411
        Torsion               0.001039833
   Out-of-plane               0.000024282
 Energy=    1.651965359E-02 NIter=   0.
 Dipole moment=       0.000000       0.000000       0.000000
 Leave Link  402 at Sun Mar 16 14:33:30 2025, MaxMem=   104857600 cpu:               0.0 elap:               0.0
 (Enter /home/enzo/gaussian_versions/gdv.j21/gdv/l9999.exe)
 Unable to Open any file for archive entry.
 1\1\GINC-ORACLE\SP\UFF\ZDO\C2H5N1O2\ENZO\16-Mar-2025\0\\#p UFF GEOM=RE
 ADALLGIC OUTPUT=PICKETT\\individuo_7005.xyz\\0,1\N,0,1.887803,-0.03694
 1,0.414353\C,0,0.847712,-0.492566,-0.499708\C,0,-0.483514,0.053513,-0.
 091756\O,0,-0.675252,1.295498,-0.050653\O,0,-1.517418,-0.823295,0.2087
 78\H,0,2.010078,0.995227,0.304352\H,0,2.788425,-0.500454,0.156436\H,0,
 1.082445,-0.165945,-1.534066\H,0,0.811393,-1.602239,-0.49729\H,0,-2.45
 9306,-0.479791,0.346314\\Version=ES64L-GDVRevJ.21\HF=0.0165197\RMSD=0.
 000e+00\Dipole=0.,0.,0.\PG=C01 [X(C2H5N1O2)]\\@
 The archive entry for this job was punched.
 DoSRE=F DoSRN=F DoDH=F DoFC=F DoNQ=F DoQCD=F DoSCD=F
 Inertia tensor (amu-bohr**2): 
                 1             2             3 
      1   0.192296D+03 -0.492538D-04  0.196589D-04
      2  -0.492538D-04  0.479963D+03  0.255477D-04
      3   0.196589D-04  0.255477D-04  0.607267D+03
 Principal inertia moments (amu-bohr**2):
 Iaa = 0.192296D+03 Ibb= 0.479963D+03 Icc= 0.607267D+03
 Rotation matrix to Principal Axis frame: 
                 1             2             3 
      1   0.100000D+01  0.000000D+00  0.000000D+00
      2   0.000000D+00  0.100000D+01  0.000000D+00
      3   0.000000D+00  0.000000D+00  0.100000D+01
                Principal axis orientation:                
 ---------------------------------------------------------------------
 Center     Atomic                     Coordinates (Angstroms)
 Number     Number                        X           Y           Z
 ---------------------------------------------------------------------
      1          7                    1.887803   -0.036941    0.414353
      2          6                    0.847712   -0.492566   -0.499708
      3          6                   -0.483514    0.053513   -0.091756
      4          8                   -0.675252    1.295498   -0.050653
      5          8                   -1.517418   -0.823295    0.208778
      6          1                    2.010078    0.995227    0.304352
      7          1                    2.788425   -0.500455    0.156436
      8          1                    1.082445   -0.165945   -1.534066
      9          1                    0.811393   -1.602239   -0.497290
     10          1                   -2.459306   -0.479791    0.346314
 ---------------------------------------------------------------------
 Rotational constants (MHZ):
   9385.2024352   3760.1711744   2971.9077858
 Dipole moment (Debye):
      0.0000000      0.0000000      0.0000000  Tot=      0.0000000

 Atoms with significant hyperfine tensors: 

--------------------------------------------------------------------------------
 individuo_7005.xyz                                      
   99  1000  50  0.1760E-11  0.1000E+07  0.1000E+01 1.0000000000
a   1  0  0  0  1  1   1  0  1  0
     10000   0.93852024E+04    0.0000E+00   /  A  /
     20000   0.37601712E+04    0.0000E+00   /  B  /
     30000   0.29719078E+04    0.0000E+00   /  C  /
--------------------------------------------------------------------------------



 DIATOMIC MOLECULES ARE PECULIAR BECAUSE THEY ONLY HAVE TWO ENDS,
 AND THESE ENDS ARE VERY CLOSE TOGETHER.
 KLAUS RUEDENBERG, REV.MOD.PHYS. PG 176, 32, (1960)
 Job cpu time:       0 days  0 hours  0 minutes  0.2 seconds.
 Elapsed time:       0 days  0 hours  0 minutes  0.2 seconds.
 File lengths (MBytes):  RWF=     14 Int=      0 D2E=      0 Chk=      9 Scr=      1
 Normal termination of Gaussian DV at Sun Mar 16 14:33:30 2025.
