 Entering Gaussian System, Link 0=gdv
 Input=cumulative_population/temp_processing/individuo_6216.gjf
 Output=cumulative_population/temp_processing/individuo_6216.log
 Initial command:
 /home/enzo/gaussian_versions/gdv.j21/gdv/l1.exe "/local/home/enzo/scratch/Gau-2479380.inp" -scrdir="/local/home/enzo/scratch/"
 Entering Link 1 = /home/enzo/gaussian_versions/gdv.j21/gdv/l1.exe PID=   2479381.
  
 Copyright (c) 1988-2022, Gaussian, Inc.  All Rights Reserved.
  
 This is the private, development version of
 the Gaussian(R) DV system of programs. It is based on
 the Gaussian(R) 16 system (copyright 2016, Gaussian, Inc.),
 the Gaussian(R) 09 system (copyright 2009, Gaussian, Inc.),
 the Gaussian(R) 03 system (copyright 2003, Gaussian, Inc.),
 the Gaussian(R) 98 system (copyright 1998, Gaussian, Inc.),
 the Gaussian(R) 94 system (copyright 1995, Gaussian, Inc.),
 the Gaussian 92(TM) system (copyright 1992, Gaussian, Inc.),
 the Gaussian 90(TM) system (copyright 1990, Gaussian, Inc.),
 the Gaussian 88(TM) system (copyright 1988, Gaussian, Inc.),
 the Gaussian 86(TM) system (copyright 1986, Carnegie Mellon
 University), and the Gaussian 82(TM) system (copyright 1983,
 Carnegie Mellon University). Gaussian is a federally registered
 trademark of Gaussian, Inc.
  
 This software contains proprietary and confidential information,
 including trade secrets, belonging to Gaussian, Inc.
  
 This software is provided under written license and may be
 used, copied, transmitted, or stored only in accord with that
 written license.
  
 The following legend is applicable only to US Government
 contracts under FAR:
  
                    RESTRICTED RIGHTS LEGEND
  
 Use, reproduction and disclosure by the US Government is
 subject to restrictions as set forth in subparagraphs (a)
 and (c) of the Commercial Computer Software - Restricted
 Rights clause in FAR 52.227-19.
  
 Gaussian, Inc.
 340 Quinnipiac St., Bldg. 40, Wallingford CT 06492
  
  
 ---------------------------------------------------------------
 Warning -- This program may not be used in any manner that
 competes with the business of Gaussian, Inc. or will provide
 assistance to any competitor of Gaussian, Inc.  The licensee
 of this program is prohibited from giving any competitor of
 Gaussian, Inc. access to this program.  By using this program,
 the user acknowledges that Gaussian, Inc. is engaged in the
 business of creating and licensing software in the field of
 computational chemistry and represents and warrants to the
 licensee that it is not a competitor of Gaussian, Inc. and that
 it will not use this program in any manner prohibited above.
 ---------------------------------------------------------------
  

 Cite this work as:
 Gaussian Development Version, Revision J.21,
 M. J. Frisch, G. W. Trucks, H. B. Schlegel, G. E. Scuseria, 
 M. A. Robb, J. R. Cheeseman, G. Scalmani, V. Barone, 
 G. A. Petersson, H. Nakatsuji, X. Li, A. V. Marenich, M. Caricato, 
 J. Bloino, B. G. Janesko, J. Zheng, R. Gomperts, B. Mennucci, 
 H. P. Hratchian, J. V. Ortiz, A. F. Izmaylov, J. L. Sonnenberg, 
 D. Williams-Young, F. Ding, F. Lipparini, F. Egidi, J. Goings, 
 B. Peng, A. Petrone, T. Henderson, D. Ranasinghe, V. G. Zakrzewski, 
 J. Gao, N. Rega, G. Zheng, W. Liang, M. Hada, M. Ehara, K. Toyota, 
 R. Fukuda, J. Hasegawa, M. Ishida, T. Nakajima, Y. Honda, O. Kitao, 
 H. Nakai, T. Vreven, K. Throssell, J. A. Montgomery, Jr., 
 J. E. Peralta, F. Ogliaro, M. J. Bearpark, J. J. Heyd, 
 E. N. Brothers, K. N. Kudin, V. N. Staroverov, T. A. Keith, 
 R. Kobayashi, J. Normand, K. Raghavachari, A. P. Rendell, 
 J. C. Burant, S. S. Iyengar, J. Tomasi, M. Cossi, J. M. Millam, 
 M. Klene, C. Adamo, R. Cammi, J. W. Ochterski, R. L. Martin, 
 K. Morokuma, O. Farkas, J. B. Foresman, and D. J. Fox, 
 Gaussian, Inc., Wallingford CT, 2020.
 
 ******************************************
 Gaussian DV:  ES64L-GDVRevJ.21 25-Jul-2022
                16-Mar-2025 
 ******************************************
 -------------------------------------
 #p UFF GEOM=READALLGIC OUTPUT=PICKETT
 -------------------------------------
 1/18=20,37=210000000,38=1,56=1,64=2,145=602,172=1/1;
 2/12=2/2;
 3/5=30,11=9,25=1,30=1,41=10020000,43=2/1;
 4/20=10,24=3/2;
 99/5=1,9=1,10=1024/99;
 Leave Link    1 at Sun Mar 16 14:31:29 2025, MaxMem=           0 cpu:               0.0 elap:               0.0
 (Enter /home/enzo/gaussian_versions/gdv.j21/gdv/l101.exe)
 ------------------
 individuo_6216.xyz
 ------------------
 Symbolic Z-matrix:
 Charge =     0 Multiplicity =     1
 7                     1.93916  -0.02746  -0.02897 
 6                     0.71594  -0.82001  -0.05063 
 6                    -0.4851    0.0696    0.00316 
 8                    -0.35124   1.31967  -0.01689 
 8                    -1.75232  -0.49677   0.04115 
 1                     2.50132  -0.2911    0.8118 
 1                     1.68364   0.98262   0.0543 
 1                     0.68049  -1.43723  -0.9723 
 1                     0.70615  -1.51145   0.818 
 1                    -1.87858  -1.48628  -0.12913 
 
 Initializing the GIC definitions file.

 CrInp1: Reading the GIC input below.
 Dihed1 = D( 6, 1, 2, 3)
 Dihed2 = D( 1, 2, 3, 4)
 Dihed3 = D( 4, 3, 5, 10)
 
 Warning:  Number of GICs=     3 3N-6=    24.
 ITRead=  0  0  0  0  0  0  0  0  0  0
 MicOpt= -1 -1 -1 -1 -1 -1 -1 -1 -1 -1
                           ----------------------------
                           !    Current Parameters    !
                           ! (Angstroms and Degrees)  !
 --------------------------                            --------------------------
 ! Name   Definition             Value                                          !
 --------------------------------------------------------------------------------
 ! Dihed1 D(6,1,2,3)           119.7108                                         !
 ! Dihed2 D(1,2,3,4)             3.9476                                         !
 ! Dihed3 D(4,3,5,10)          167.6405                                         !
 --------------------------------------------------------------------------------
 NAtoms=     10 NQM=       10 NQMF=       0 NMMI=      0 NMMIF=      0
                NMic=       0 NMicF=      0.
                    Isotopes and Nuclear Properties:
 (Nuclear quadrupole moments (NQMom) in fm**2, nuclear magnetic moments (NMagM)
  in nuclear magnetons)

  Atom         1           2           3           4           5           6           7           8           9          10
 IAtWgt=          14          12          12          16          16           1           1           1           1           1
 AtmWgt=  14.0030740  12.0000000  12.0000000  15.9949146  15.9949146   1.0078250   1.0078250   1.0078250   1.0078250   1.0078250
 NucSpn=           2           0           0           0           0           1           1           1           1           1
 AtZEff=  -0.0000000  -0.0000000  -0.0000000  -0.0000000  -0.0000000  -0.0000000  -0.0000000  -0.0000000  -0.0000000  -0.0000000
 NQMom=    2.0440000   0.0000000   0.0000000   0.0000000   0.0000000   0.0000000   0.0000000   0.0000000   0.0000000   0.0000000
 NMagM=    0.4037610   0.0000000   0.0000000   0.0000000   0.0000000   2.7928460   2.7928460   2.7928460   2.7928460   2.7928460
 AtZNuc=   7.0000000   6.0000000   6.0000000   8.0000000   8.0000000   1.0000000   1.0000000   1.0000000   1.0000000   1.0000000
 Generating MM parameters.
 Include all MM classes

 MM sanity checks:
 All charges sum to:                0.00000000
 Charges of atoms sum to:           0.00000000
 MMInit generated parameter data with length LenPar=        1463.
 Leave Link  101 at Sun Mar 16 14:31:29 2025, MaxMem=   104857600 cpu:               0.1 elap:               0.1
 (Enter /home/enzo/gaussian_versions/gdv.j21/gdv/l202.exe)
                          Input orientation:                          
 ---------------------------------------------------------------------
 Center     Atomic      Atomic             Coordinates (Angstroms)
 Number     Number       Type             X           Y           Z
 ---------------------------------------------------------------------
      1          7    10071003        1.939161   -0.027458   -0.028968
      2          6    10061003        0.715937   -0.820013   -0.050632
      3          6    10061000       -0.485095    0.069604    0.003162
      4          8    10081002       -0.351242    1.319668   -0.016885
      5          8    10081000       -1.752315   -0.496772    0.041147
      6          1    10011000        2.501319   -0.291099    0.811801
      7          1    10011000        1.683641    0.982621    0.054304
      8          1    10011000        0.680487   -1.437229   -0.972297
      9          1    10011000        0.706149   -1.511453    0.817995
     10          1    10011000       -1.878579   -1.486281   -0.129129
 ---------------------------------------------------------------------
                    Distance matrix (angstroms):
                    1          2          3          4          5
     1  N    0.000000
     2  C    1.457700   0.000000
     3  C    2.426411   1.495590   0.000000
     4  O    2.657224   2.391285   1.257370   0.000000
     5  O    3.721850   2.491019   1.388550   2.294739   0.000000
     6  H    1.045189   2.052104   3.114911   3.379112   4.327772
     7  H    1.045220   2.048646   2.353642   2.063836   3.740932
     8  H    2.112246   1.109810   2.140245   3.094795   2.798223
     9  H    2.107108   1.110269   2.140737   3.135338   2.770761
    10  H    4.088195   2.679849   2.092863   3.196671   1.011961
                    6          7          8          9         10
     6  H    0.000000
     7  H    1.692561   0.000000
     8  H    2.795004   2.813521   0.000000
     9  H    2.170700   2.785520   1.792014   0.000000
    10  H    4.636520   4.338034   2.694839   2.752907   0.000000
 Stoichiometry    C2H5NO2
 Framework group  C1[X(C2H5NO2)]
 Deg. of freedom    24
 Full point group                 C1      NOp   1
 Largest Abelian subgroup         C1      NOp   1
 Largest concise Abelian subgroup C1      NOp   1
                         Standard orientation:                         
 ---------------------------------------------------------------------
 Center     Atomic      Atomic             Coordinates (Angstroms)
 Number     Number       Type             X           Y           Z
 ---------------------------------------------------------------------
      1          7    10071003        1.892674   -0.022241   -0.067508
      2          6    10061003        0.652405   -0.788154   -0.066383
      3          6    10061000       -0.528051    0.127441    0.004312
      4          8    10081002       -0.367546    1.374246   -0.022036
      5          8    10081000       -1.806419   -0.411219    0.065063
      6          1    10011000        2.462855   -0.295552    0.764727
      7          1    10011000        1.660472    0.993378    0.016661
      8          1    10011000        0.588347   -1.407143   -0.985310
      9          1    10011000        0.642063   -1.476682    0.804548
     10          1    10011000       -1.956857   -1.398251   -0.099863
 ---------------------------------------------------------------------
 Rotational constants (GHZ):          10.1086213           3.9239926           2.9042065
 Leave Link  202 at Sun Mar 16 14:31:29 2025, MaxMem=   104857600 cpu:               0.0 elap:               0.0
 (Enter /home/enzo/gaussian_versions/gdv.j21/gdv/l301.exe)
 Standard basis: Dummy (5D, 7F)
 There are    10 symmetry adapted cartesian basis functions of A   symmetry.
 There are    10 symmetry adapted basis functions of A   symmetry.
    10 basis functions,    10 primitive gaussians,    10 cartesian basis functions
     7 alpha electrons        7 beta electrons
       nuclear repulsion energy        22.6011861573 Hartrees.
 IExCor=         0 DFT=F Ex=HF Corr=None N6=None ScaHFX=  1.000000
 ScaDFX=  1.000000  1.000000  1.000000  1.000000  1.000000  0.000000
 ScaDFX=  0.000000  0.000000  0.000000  0.000000  0.000000  0.000000
 IRadAn=      5 IRanWt=     -1 IRanGd=            0 ICorTp=0 IEmpDi=  4
 NAtoms=   10 NActive=   10 NUniq=   10 SFac= 1.00D+00 NAtFMM=   60 NAOKFM=F Big=F
 Integral buffers will be    131072 words long.
 Raffenetti 1 integral format.
 Two-electron integral symmetry is turned on.
 Leave Link  301 at Sun Mar 16 14:31:29 2025, MaxMem=   104857600 cpu:               0.0 elap:               0.0
 (Enter /home/enzo/gaussian_versions/gdv.j21/gdv/l402.exe)
 UFF calculation of energy.
 Energy per function type:
 Direct Coulomb + vdW (small)                           0.008929487
 Direct Coulomb (large)                                 0.000000000
 Direct vdW (large)                                   423.716728170
 Non-direct Coulomb + vdW (small)                       0.000000000
 Non-direct Coulomb (large)                             0.000000000
 Non-direct vdW (large)                              -423.704348645
 Harmonic stretch III                                   0.008269304
 UFF 3-term bend                                        0.004737018
 UFF 2-term bend                                        0.000033437
 UFF torsion fixed V                                    0.000043709
 UFF torsion w/ bond order V                            0.001728372
 UFF torsion w/ sp3 V                                   0.001553123
 Three term Wilson angle                                0.000024279
 Energy per function class:
        Coulomb               0.000000000
    Vanderwaals               0.021309011
     Stretching               0.008269304
        Bending               0.004770455
        Torsion               0.003325204
   Out-of-plane               0.000024279
 Energy=    3.769825342E-02 NIter=   0.
 Dipole moment=       0.000000       0.000000       0.000000
 Leave Link  402 at Sun Mar 16 14:31:29 2025, MaxMem=   104857600 cpu:               0.0 elap:               0.0
 (Enter /home/enzo/gaussian_versions/gdv.j21/gdv/l9999.exe)
 Unable to Open any file for archive entry.
 1\1\GINC-ORACLE\SP\UFF\ZDO\C2H5N1O2\ENZO\16-Mar-2025\0\\#p UFF GEOM=RE
 ADALLGIC OUTPUT=PICKETT\\individuo_6216.xyz\\0,1\N,0,1.939161,-0.02745
 8,-0.028968\C,0,0.715937,-0.820013,-0.050632\C,0,-0.485095,0.069604,0.
 003162\O,0,-0.351242,1.319668,-0.016885\O,0,-1.752315,-0.496772,0.0411
 47\H,0,2.501319,-0.291099,0.811801\H,0,1.683641,0.982621,0.054304\H,0,
 0.680487,-1.437229,-0.972297\H,0,0.706149,-1.511453,0.817995\H,0,-1.87
 8579,-1.486281,-0.129129\\Version=ES64L-GDVRevJ.21\HF=0.0376983\RMSD=0
 .000e+00\Dipole=0.,0.,0.\PG=C01 [X(C2H5N1O2)]\\@
 The archive entry for this job was punched.
 DoSRE=F DoSRN=F DoDH=F DoFC=F DoNQ=F DoQCD=F DoSCD=F
 Inertia tensor (amu-bohr**2): 
                 1             2             3 
      1   0.178535D+03  0.524537D-04 -0.125853D-04
      2   0.524537D-04  0.459925D+03 -0.526648D-05
      3  -0.125853D-04 -0.526648D-05  0.621423D+03
 Principal inertia moments (amu-bohr**2):
 Iaa = 0.178535D+03 Ibb= 0.459925D+03 Icc= 0.621423D+03
 Rotation matrix to Principal Axis frame: 
                 1             2             3 
      1   0.100000D+01  0.000000D+00  0.000000D+00
      2   0.000000D+00  0.100000D+01  0.000000D+00
      3   0.000000D+00  0.000000D+00  0.100000D+01
                Principal axis orientation:                
 ---------------------------------------------------------------------
 Center     Atomic                     Coordinates (Angstroms)
 Number     Number                        X           Y           Z
 ---------------------------------------------------------------------
      1          7                    1.939161   -0.027458   -0.028968
      2          6                    0.715937   -0.820013   -0.050632
      3          6                   -0.485095    0.069604    0.003162
      4          8                   -0.351243    1.319668   -0.016885
      5          8                   -1.752315   -0.496773    0.041147
      6          1                    2.501319   -0.291099    0.811801
      7          1                    1.683641    0.982621    0.054304
      8          1                    0.680487   -1.437229   -0.972297
      9          1                    0.706149   -1.511453    0.817995
     10          1                   -1.878579   -1.486282   -0.129129
 ---------------------------------------------------------------------
 Rotational constants (MHZ):
  10108.6212667   3923.9925913   2904.2064940
 Dipole moment (Debye):
      0.0000000      0.0000000      0.0000000  Tot=      0.0000000

 Atoms with significant hyperfine tensors: 

--------------------------------------------------------------------------------
 individuo_6216.xyz                                      
   99  1000  50  0.1760E-11  0.1000E+07  0.1000E+01 1.0000000000
a   1  0  0  0  1  1   1  0  1  0
     10000   0.10108621E+05    0.0000E+00   /  A  /
     20000   0.39239926E+04    0.0000E+00   /  B  /
     30000   0.29042065E+04    0.0000E+00   /  C  /
--------------------------------------------------------------------------------



 ERROR IS A HARDY PLANT... IT FLOURISHETH IN EVERY SOIL.
            MARTIN FARQUHAR TUPPER
 Job cpu time:       0 days  0 hours  0 minutes  0.2 seconds.
 Elapsed time:       0 days  0 hours  0 minutes  0.2 seconds.
 File lengths (MBytes):  RWF=     14 Int=      0 D2E=      0 Chk=      9 Scr=      1
 Normal termination of Gaussian DV at Sun Mar 16 14:31:29 2025.
