 Entering Gaussian System, Link 0=gdv
 Input=cumulative_population/temp_processing/individuo_1967.gjf
 Output=cumulative_population/temp_processing/individuo_1967.log
 Initial command:
 /home/enzo/gaussian_versions/gdv.j21/gdv/l1.exe "/local/home/enzo/scratch/Gau-2478652.inp" -scrdir="/local/home/enzo/scratch/"
 Entering Link 1 = /home/enzo/gaussian_versions/gdv.j21/gdv/l1.exe PID=   2478653.
  
 Copyright (c) 1988-2022, Gaussian, Inc.  All Rights Reserved.
  
 This is the private, development version of
 the Gaussian(R) DV system of programs. It is based on
 the Gaussian(R) 16 system (copyright 2016, Gaussian, Inc.),
 the Gaussian(R) 09 system (copyright 2009, Gaussian, Inc.),
 the Gaussian(R) 03 system (copyright 2003, Gaussian, Inc.),
 the Gaussian(R) 98 system (copyright 1998, Gaussian, Inc.),
 the Gaussian(R) 94 system (copyright 1995, Gaussian, Inc.),
 the Gaussian 92(TM) system (copyright 1992, Gaussian, Inc.),
 the Gaussian 90(TM) system (copyright 1990, Gaussian, Inc.),
 the Gaussian 88(TM) system (copyright 1988, Gaussian, Inc.),
 the Gaussian 86(TM) system (copyright 1986, Carnegie Mellon
 University), and the Gaussian 82(TM) system (copyright 1983,
 Carnegie Mellon University). Gaussian is a federally registered
 trademark of Gaussian, Inc.
  
 This software contains proprietary and confidential information,
 including trade secrets, belonging to Gaussian, Inc.
  
 This software is provided under written license and may be
 used, copied, transmitted, or stored only in accord with that
 written license.
  
 The following legend is applicable only to US Government
 contracts under FAR:
  
                    RESTRICTED RIGHTS LEGEND
  
 Use, reproduction and disclosure by the US Government is
 subject to restrictions as set forth in subparagraphs (a)
 and (c) of the Commercial Computer Software - Restricted
 Rights clause in FAR 52.227-19.
  
 Gaussian, Inc.
 340 Quinnipiac St., Bldg. 40, Wallingford CT 06492
  
  
 ---------------------------------------------------------------
 Warning -- This program may not be used in any manner that
 competes with the business of Gaussian, Inc. or will provide
 assistance to any competitor of Gaussian, Inc.  The licensee
 of this program is prohibited from giving any competitor of
 Gaussian, Inc. access to this program.  By using this program,
 the user acknowledges that Gaussian, Inc. is engaged in the
 business of creating and licensing software in the field of
 computational chemistry and represents and warrants to the
 licensee that it is not a competitor of Gaussian, Inc. and that
 it will not use this program in any manner prohibited above.
 ---------------------------------------------------------------
  

 Cite this work as:
 Gaussian Development Version, Revision J.21,
 M. J. Frisch, G. W. Trucks, H. B. Schlegel, G. E. Scuseria, 
 M. A. Robb, J. R. Cheeseman, G. Scalmani, V. Barone, 
 G. A. Petersson, H. Nakatsuji, X. Li, A. V. Marenich, M. Caricato, 
 J. Bloino, B. G. Janesko, J. Zheng, R. Gomperts, B. Mennucci, 
 H. P. Hratchian, J. V. Ortiz, A. F. Izmaylov, J. L. Sonnenberg, 
 D. Williams-Young, F. Ding, F. Lipparini, F. Egidi, J. Goings, 
 B. Peng, A. Petrone, T. Henderson, D. Ranasinghe, V. G. Zakrzewski, 
 J. Gao, N. Rega, G. Zheng, W. Liang, M. Hada, M. Ehara, K. Toyota, 
 R. Fukuda, J. Hasegawa, M. Ishida, T. Nakajima, Y. Honda, O. Kitao, 
 H. Nakai, T. Vreven, K. Throssell, J. A. Montgomery, Jr., 
 J. E. Peralta, F. Ogliaro, M. J. Bearpark, J. J. Heyd, 
 E. N. Brothers, K. N. Kudin, V. N. Staroverov, T. A. Keith, 
 R. Kobayashi, J. Normand, K. Raghavachari, A. P. Rendell, 
 J. C. Burant, S. S. Iyengar, J. Tomasi, M. Cossi, J. M. Millam, 
 M. Klene, C. Adamo, R. Cammi, J. W. Ochterski, R. L. Martin, 
 K. Morokuma, O. Farkas, J. B. Foresman, and D. J. Fox, 
 Gaussian, Inc., Wallingford CT, 2020.
 
 ******************************************
 Gaussian DV:  ES64L-GDVRevJ.21 25-Jul-2022
                16-Mar-2025 
 ******************************************
 -------------------------------------
 #p UFF GEOM=READALLGIC OUTPUT=PICKETT
 -------------------------------------
 1/18=20,37=210000000,38=1,56=1,64=2,145=602,172=1/1;
 2/12=2/2;
 3/5=30,11=9,25=1,30=1,41=10020000,43=2/1;
 4/20=10,24=3/2;
 99/5=1,9=1,10=1024/99;
 Leave Link    1 at Sun Mar 16 14:30:10 2025, MaxMem=           0 cpu:               0.0 elap:               0.0
 (Enter /home/enzo/gaussian_versions/gdv.j21/gdv/l101.exe)
 ------------------
 individuo_1967.xyz
 ------------------
 Symbolic Z-matrix:
 Charge =     0 Multiplicity =     1
 7                     1.85672   0.21687  -0.39627 
 6                     0.90446  -0.27919   0.58964 
 6                    -0.49736  -0.09595   0.10167 
 8                    -1.19232  -1.09214  -0.22329 
 8                    -1.03747   1.18188   0.04253 
 1                     1.55778  -0.09749  -1.34718 
 1                     2.79466  -0.19874  -0.19625 
 1                     1.09111  -1.35486   0.7891 
 1                     1.04042   0.26886   1.5456 
 1                    -1.74074   1.4114   -0.64798 
 
 Initializing the GIC definitions file.

 CrInp1: Reading the GIC input below.
 Dihed1 = D( 6, 1, 2, 3)
 Dihed2 = D( 1, 2, 3, 4)
 Dihed3 = D( 4, 3, 5, 10)
 
 Warning:  Number of GICs=     3 3N-6=    24.
 ITRead=  0  0  0  0  0  0  0  0  0  0
 MicOpt= -1 -1 -1 -1 -1 -1 -1 -1 -1 -1
                           ----------------------------
                           !    Current Parameters    !
                           ! (Angstroms and Degrees)  !
 --------------------------                            --------------------------
 ! Name   Definition             Value                                          !
 --------------------------------------------------------------------------------
 ! Dihed1 D(6,1,2,3)           -43.515                                          !
 ! Dihed2 D(1,2,3,4)           110.1944                                         !
 ! Dihed3 D(4,3,5,10)          -31.2436                                         !
 --------------------------------------------------------------------------------
 NAtoms=     10 NQM=       10 NQMF=       0 NMMI=      0 NMMIF=      0
                NMic=       0 NMicF=      0.
                    Isotopes and Nuclear Properties:
 (Nuclear quadrupole moments (NQMom) in fm**2, nuclear magnetic moments (NMagM)
  in nuclear magnetons)

  Atom         1           2           3           4           5           6           7           8           9          10
 IAtWgt=          14          12          12          16          16           1           1           1           1           1
 AtmWgt=  14.0030740  12.0000000  12.0000000  15.9949146  15.9949146   1.0078250   1.0078250   1.0078250   1.0078250   1.0078250
 NucSpn=           2           0           0           0           0           1           1           1           1           1
 AtZEff=  -0.0000000  -0.0000000  -0.0000000  -0.0000000  -0.0000000  -0.0000000  -0.0000000  -0.0000000  -0.0000000  -0.0000000
 NQMom=    2.0440000   0.0000000   0.0000000   0.0000000   0.0000000   0.0000000   0.0000000   0.0000000   0.0000000   0.0000000
 NMagM=    0.4037610   0.0000000   0.0000000   0.0000000   0.0000000   2.7928460   2.7928460   2.7928460   2.7928460   2.7928460
 AtZNuc=   7.0000000   6.0000000   6.0000000   8.0000000   8.0000000   1.0000000   1.0000000   1.0000000   1.0000000   1.0000000
 Generating MM parameters.
 Include all MM classes

 MM sanity checks:
 All charges sum to:                0.00000000
 Charges of atoms sum to:           0.00000000
 MMInit generated parameter data with length LenPar=        1463.
 Leave Link  101 at Sun Mar 16 14:30:10 2025, MaxMem=   104857600 cpu:               0.1 elap:               0.1
 (Enter /home/enzo/gaussian_versions/gdv.j21/gdv/l202.exe)
                          Input orientation:                          
 ---------------------------------------------------------------------
 Center     Atomic      Atomic             Coordinates (Angstroms)
 Number     Number       Type             X           Y           Z
 ---------------------------------------------------------------------
      1          7    10071003        1.856716    0.216874   -0.396268
      2          6    10061003        0.904462   -0.279193    0.589642
      3          6    10061000       -0.497358   -0.095948    0.101674
      4          8    10081002       -1.192320   -1.092142   -0.223293
      5          8    10081000       -1.037472    1.181883    0.042534
      6          1    10011000        1.557783   -0.097488   -1.347182
      7          1    10011000        2.794661   -0.198744   -0.196251
      8          1    10011000        1.091114   -1.354859    0.789097
      9          1    10011000        1.040416    0.268855    1.545602
     10          1    10011000       -1.740737    1.411404   -0.647975
 ---------------------------------------------------------------------
                    Distance matrix (angstroms):
                    1          2          3          4          5
     1  N    0.000000
     2  C    1.457700   0.000000
     3  C    2.426411   1.495590   0.000000
     4  O    3.322659   2.391285   1.257370   0.000000
     5  O    3.082225   2.491019   1.388551   2.294740   0.000000
     6  H    1.045190   2.052104   2.514516   3.132975   3.209899
     7  H    1.045221   2.048646   3.307071   4.085940   4.080244
     8  H    2.112246   1.109810   2.140245   2.511578   3.394598
     9  H    2.107109   1.110270   2.140738   3.156963   2.722215
    10  H    3.798938   3.374447   2.092863   2.597857   1.011961
                    6          7          8          9         10
     6  H    0.000000
     7  H    1.692561   0.000000
     8  H    2.522390   2.282452   0.000000
     9  H    2.961431   2.515964   1.792015   0.000000
    10  H    3.694033   4.833887   4.211504   3.721829   0.000000
 Stoichiometry    C2H5NO2
 Framework group  C1[X(C2H5NO2)]
 Deg. of freedom    24
 Full point group                 C1      NOp   1
 Largest Abelian subgroup         C1      NOp   1
 Largest concise Abelian subgroup C1      NOp   1
                         Standard orientation:                         
 ---------------------------------------------------------------------
 Center     Atomic      Atomic             Coordinates (Angstroms)
 Number     Number       Type             X           Y           Z
 ---------------------------------------------------------------------
      1          7    10071003       -1.780343   -0.328914   -0.400862
      2          6    10061003       -0.864768    0.257119    0.570312
      3          6    10061000        0.549114    0.130058    0.099585
      4          8    10081002        1.192605    1.148286   -0.261121
      5          8    10081000        1.157354   -1.118183    0.096239
      6          1    10011000       -1.490262   -0.037576   -1.361798
      7          1    10011000       -2.740923    0.043339   -0.224229
      8          1    10011000       -1.110488    1.328351    0.724459
      9          1    10011000       -0.979647   -0.258397    1.546911
     10          1    10011000        1.877979   -1.337207   -0.579625
 ---------------------------------------------------------------------
 Rotational constants (GHZ):           8.4578225           3.9078730           3.0857047
 Leave Link  202 at Sun Mar 16 14:30:10 2025, MaxMem=   104857600 cpu:               0.0 elap:               0.0
 (Enter /home/enzo/gaussian_versions/gdv.j21/gdv/l301.exe)
 Standard basis: Dummy (5D, 7F)
 There are    10 symmetry adapted cartesian basis functions of A   symmetry.
 There are    10 symmetry adapted basis functions of A   symmetry.
    10 basis functions,    10 primitive gaussians,    10 cartesian basis functions
     7 alpha electrons        7 beta electrons
       nuclear repulsion energy        22.3020508840 Hartrees.
 IExCor=         0 DFT=F Ex=HF Corr=None N6=None ScaHFX=  1.000000
 ScaDFX=  1.000000  1.000000  1.000000  1.000000  1.000000  0.000000
 ScaDFX=  0.000000  0.000000  0.000000  0.000000  0.000000  0.000000
 IRadAn=      5 IRanWt=     -1 IRanGd=            0 ICorTp=0 IEmpDi=  4
 NAtoms=   10 NActive=   10 NUniq=   10 SFac= 1.00D+00 NAtFMM=   60 NAOKFM=F Big=F
 Integral buffers will be    131072 words long.
 Raffenetti 1 integral format.
 Two-electron integral symmetry is turned on.
 Leave Link  301 at Sun Mar 16 14:30:10 2025, MaxMem=   104857600 cpu:               0.0 elap:               0.0
 (Enter /home/enzo/gaussian_versions/gdv.j21/gdv/l402.exe)
 UFF calculation of energy.
 Energy per function type:
 Direct Coulomb + vdW (small)                           0.003134511
 Direct Coulomb (large)                                 0.000000000
 Direct vdW (large)                                   423.702928105
 Non-direct Coulomb + vdW (small)                       0.000000000
 Non-direct Coulomb (large)                             0.000000000
 Non-direct vdW (large)                              -423.702928105
 Harmonic stretch III                                   0.008269383
 UFF 3-term bend                                        0.004736949
 UFF 2-term bend                                        0.000033440
 UFF torsion fixed V                                    0.000460039
 UFF torsion w/ bond order V                            0.011020673
 UFF torsion w/ sp3 V                                   0.000313053
 Three term Wilson angle                                0.000024283
 Energy per function class:
        Coulomb               0.000000000
    Vanderwaals               0.003134511
     Stretching               0.008269383
        Bending               0.004770389
        Torsion               0.011793765
   Out-of-plane               0.000024283
 Energy=    2.799233165E-02 NIter=   0.
 Dipole moment=       0.000000       0.000000       0.000000
 Leave Link  402 at Sun Mar 16 14:30:10 2025, MaxMem=   104857600 cpu:               0.0 elap:               0.0
 (Enter /home/enzo/gaussian_versions/gdv.j21/gdv/l9999.exe)
 Unable to Open any file for archive entry.
 1\1\GINC-ORACLE\SP\UFF\ZDO\C2H5N1O2\ENZO\16-Mar-2025\0\\#p UFF GEOM=RE
 ADALLGIC OUTPUT=PICKETT\\individuo_1967.xyz\\0,1\N,0,1.856716,0.216874
 ,-0.396268\C,0,0.904462,-0.279193,0.589642\C,0,-0.497358,-0.095948,0.1
 01674\O,0,-1.19232,-1.092142,-0.223293\O,0,-1.037472,1.181883,0.042534
 \H,0,1.557783,-0.097488,-1.347182\H,0,2.794661,-0.198744,-0.196251\H,0
 ,1.091114,-1.354859,0.789097\H,0,1.040416,0.268855,1.545602\H,0,-1.740
 737,1.411404,-0.647975\\Version=ES64L-GDVRevJ.21\HF=0.0279923\RMSD=0.0
 00e+00\Dipole=0.,0.,0.\PG=C01 [X(C2H5N1O2)]\\@
 The archive entry for this job was punched.
 DoSRE=F DoSRN=F DoDH=F DoFC=F DoNQ=F DoQCD=F DoSCD=F
 Inertia tensor (amu-bohr**2): 
                 1             2             3 
      1   0.213381D+03  0.223412D-04 -0.527245D-04
      2   0.223412D-04  0.461822D+03 -0.143181D-04
      3  -0.527245D-04 -0.143181D-04  0.584872D+03
 Principal inertia moments (amu-bohr**2):
 Iaa = 0.213381D+03 Ibb= 0.461822D+03 Icc= 0.584872D+03
 Rotation matrix to Principal Axis frame: 
                 1             2             3 
      1   0.100000D+01  0.000000D+00  0.000000D+00
      2   0.000000D+00  0.100000D+01  0.000000D+00
      3   0.000000D+00  0.000000D+00  0.100000D+01
                Principal axis orientation:                
 ---------------------------------------------------------------------
 Center     Atomic                     Coordinates (Angstroms)
 Number     Number                        X           Y           Z
 ---------------------------------------------------------------------
      1          7                    1.856716    0.216874   -0.396268
      2          6                    0.904462   -0.279193    0.589642
      3          6                   -0.497358   -0.095948    0.101674
      4          8                   -1.192320   -1.092142   -0.223293
      5          8                   -1.037472    1.181883    0.042534
      6          1                    1.557783   -0.097488   -1.347182
      7          1                    2.794661   -0.198744   -0.196251
      8          1                    1.091114   -1.354859    0.789097
      9          1                    1.040416    0.268855    1.545602
     10          1                   -1.740737    1.411404   -0.647975
 ---------------------------------------------------------------------
 Rotational constants (MHZ):
   8457.8225073   3907.8729566   3085.7046972
 Dipole moment (Debye):
      0.0000000      0.0000000      0.0000000  Tot=      0.0000000

 Atoms with significant hyperfine tensors: 

--------------------------------------------------------------------------------
 individuo_1967.xyz                                      
   99  1000  50  0.1760E-11  0.1000E+07  0.1000E+01 1.0000000000
a   1  0  0  0  1  1   1  0  1  0
     10000   0.84578225E+04    0.0000E+00   /  A  /
     20000   0.39078730E+04    0.0000E+00   /  B  /
     30000   0.30857047E+04    0.0000E+00   /  C  /
--------------------------------------------------------------------------------



 THE ... SCIENTISTS WERE WRONG ... THE MOST PERSISTENT PRINCIPLES 
 OF THE UNIVERSE WERE ACCIDENT AND ERROR.

                          -- FRANK HERBERT IN DUNE
 Job cpu time:       0 days  0 hours  0 minutes  0.2 seconds.
 Elapsed time:       0 days  0 hours  0 minutes  0.2 seconds.
 File lengths (MBytes):  RWF=     14 Int=      0 D2E=      0 Chk=      9 Scr=      1
 Normal termination of Gaussian DV at Sun Mar 16 14:30:10 2025.
