 Entering Gaussian System, Link 0=gdv
 Input=cumulative_population/temp_processing/individuo_6660.gjf
 Output=cumulative_population/temp_processing/individuo_6660.log
 Initial command:
 /home/enzo/gaussian_versions/gdv.j21/gdv/l1.exe "/local/home/enzo/scratch/Gau-2480478.inp" -scrdir="/local/home/enzo/scratch/"
 Entering Link 1 = /home/enzo/gaussian_versions/gdv.j21/gdv/l1.exe PID=   2480479.
  
 Copyright (c) 1988-2022, Gaussian, Inc.  All Rights Reserved.
  
 This is the private, development version of
 the Gaussian(R) DV system of programs. It is based on
 the Gaussian(R) 16 system (copyright 2016, Gaussian, Inc.),
 the Gaussian(R) 09 system (copyright 2009, Gaussian, Inc.),
 the Gaussian(R) 03 system (copyright 2003, Gaussian, Inc.),
 the Gaussian(R) 98 system (copyright 1998, Gaussian, Inc.),
 the Gaussian(R) 94 system (copyright 1995, Gaussian, Inc.),
 the Gaussian 92(TM) system (copyright 1992, Gaussian, Inc.),
 the Gaussian 90(TM) system (copyright 1990, Gaussian, Inc.),
 the Gaussian 88(TM) system (copyright 1988, Gaussian, Inc.),
 the Gaussian 86(TM) system (copyright 1986, Carnegie Mellon
 University), and the Gaussian 82(TM) system (copyright 1983,
 Carnegie Mellon University). Gaussian is a federally registered
 trademark of Gaussian, Inc.
  
 This software contains proprietary and confidential information,
 including trade secrets, belonging to Gaussian, Inc.
  
 This software is provided under written license and may be
 used, copied, transmitted, or stored only in accord with that
 written license.
  
 The following legend is applicable only to US Government
 contracts under FAR:
  
                    RESTRICTED RIGHTS LEGEND
  
 Use, reproduction and disclosure by the US Government is
 subject to restrictions as set forth in subparagraphs (a)
 and (c) of the Commercial Computer Software - Restricted
 Rights clause in FAR 52.227-19.
  
 Gaussian, Inc.
 340 Quinnipiac St., Bldg. 40, Wallingford CT 06492
  
  
 ---------------------------------------------------------------
 Warning -- This program may not be used in any manner that
 competes with the business of Gaussian, Inc. or will provide
 assistance to any competitor of Gaussian, Inc.  The licensee
 of this program is prohibited from giving any competitor of
 Gaussian, Inc. access to this program.  By using this program,
 the user acknowledges that Gaussian, Inc. is engaged in the
 business of creating and licensing software in the field of
 computational chemistry and represents and warrants to the
 licensee that it is not a competitor of Gaussian, Inc. and that
 it will not use this program in any manner prohibited above.
 ---------------------------------------------------------------
  

 Cite this work as:
 Gaussian Development Version, Revision J.21,
 M. J. Frisch, G. W. Trucks, H. B. Schlegel, G. E. Scuseria, 
 M. A. Robb, J. R. Cheeseman, G. Scalmani, V. Barone, 
 G. A. Petersson, H. Nakatsuji, X. Li, A. V. Marenich, M. Caricato, 
 J. Bloino, B. G. Janesko, J. Zheng, R. Gomperts, B. Mennucci, 
 H. P. Hratchian, J. V. Ortiz, A. F. Izmaylov, J. L. Sonnenberg, 
 D. Williams-Young, F. Ding, F. Lipparini, F. Egidi, J. Goings, 
 B. Peng, A. Petrone, T. Henderson, D. Ranasinghe, V. G. Zakrzewski, 
 J. Gao, N. Rega, G. Zheng, W. Liang, M. Hada, M. Ehara, K. Toyota, 
 R. Fukuda, J. Hasegawa, M. Ishida, T. Nakajima, Y. Honda, O. Kitao, 
 H. Nakai, T. Vreven, K. Throssell, J. A. Montgomery, Jr., 
 J. E. Peralta, F. Ogliaro, M. J. Bearpark, J. J. Heyd, 
 E. N. Brothers, K. N. Kudin, V. N. Staroverov, T. A. Keith, 
 R. Kobayashi, J. Normand, K. Raghavachari, A. P. Rendell, 
 J. C. Burant, S. S. Iyengar, J. Tomasi, M. Cossi, J. M. Millam, 
 M. Klene, C. Adamo, R. Cammi, J. W. Ochterski, R. L. Martin, 
 K. Morokuma, O. Farkas, J. B. Foresman, and D. J. Fox, 
 Gaussian, Inc., Wallingford CT, 2020.
 
 ******************************************
 Gaussian DV:  ES64L-GDVRevJ.21 25-Jul-2022
                16-Mar-2025 
 ******************************************
 -------------------------------------
 #p UFF GEOM=READALLGIC OUTPUT=PICKETT
 -------------------------------------
 1/18=20,37=210000000,38=1,56=1,64=2,145=602,172=1/1;
 2/12=2/2;
 3/5=30,11=9,25=1,30=1,41=10020000,43=2/1;
 4/20=10,24=3/2;
 99/5=1,9=1,10=1024/99;
 Leave Link    1 at Sun Mar 16 14:33:29 2025, MaxMem=           0 cpu:               0.0 elap:               0.0
 (Enter /home/enzo/gaussian_versions/gdv.j21/gdv/l101.exe)
 ------------------
 individuo_6660.xyz
 ------------------
 Symbolic Z-matrix:
 Charge =     0 Multiplicity =     1
 7                     1.88243   0.12345  -0.24685 
 6                     0.81257  -0.7403    0.23712 
 6                    -0.51837  -0.08932   0.03308 
 8                    -1.54802  -0.78952  -0.14162 
 8                    -0.61355   1.29541   0.07205 
 1                     2.75244  -0.07369   0.2978 
 1                     1.61229   1.11912  -0.07907 
 1                     0.83759  -1.71153  -0.29932 
 1                     0.9634   -0.94845   1.31722 
 1                    -1.51833   1.74859   0.08018 
 
 Initializing the GIC definitions file.

 CrInp1: Reading the GIC input below.
 Dihed1 = D( 6, 1, 2, 3)
 Dihed2 = D( 1, 2, 3, 4)
 Dihed3 = D( 4, 3, 5, 10)
 
 Warning:  Number of GICs=     3 3N-6=    24.
 ITRead=  0  0  0  0  0  0  0  0  0  0
 MicOpt= -1 -1 -1 -1 -1 -1 -1 -1 -1 -1
                           ----------------------------
                           !    Current Parameters    !
                           ! (Angstroms and Degrees)  !
 --------------------------                            --------------------------
 ! Name   Definition             Value                                          !
 --------------------------------------------------------------------------------
 ! Dihed1 D(6,1,2,3)           151.7143                                         !
 ! Dihed2 D(1,2,3,4)           151.148                                          !
 ! Dihed3 D(4,3,5,10)            7.8925                                         !
 --------------------------------------------------------------------------------
 NAtoms=     10 NQM=       10 NQMF=       0 NMMI=      0 NMMIF=      0
                NMic=       0 NMicF=      0.
                    Isotopes and Nuclear Properties:
 (Nuclear quadrupole moments (NQMom) in fm**2, nuclear magnetic moments (NMagM)
  in nuclear magnetons)

  Atom         1           2           3           4           5           6           7           8           9          10
 IAtWgt=          14          12          12          16          16           1           1           1           1           1
 AtmWgt=  14.0030740  12.0000000  12.0000000  15.9949146  15.9949146   1.0078250   1.0078250   1.0078250   1.0078250   1.0078250
 NucSpn=           2           0           0           0           0           1           1           1           1           1
 AtZEff=  -0.0000000  -0.0000000  -0.0000000  -0.0000000  -0.0000000  -0.0000000  -0.0000000  -0.0000000  -0.0000000  -0.0000000
 NQMom=    2.0440000   0.0000000   0.0000000   0.0000000   0.0000000   0.0000000   0.0000000   0.0000000   0.0000000   0.0000000
 NMagM=    0.4037610   0.0000000   0.0000000   0.0000000   0.0000000   2.7928460   2.7928460   2.7928460   2.7928460   2.7928460
 AtZNuc=   7.0000000   6.0000000   6.0000000   8.0000000   8.0000000   1.0000000   1.0000000   1.0000000   1.0000000   1.0000000
 Generating MM parameters.
 Include all MM classes

 MM sanity checks:
 All charges sum to:                0.00000000
 Charges of atoms sum to:           0.00000000
 MMInit generated parameter data with length LenPar=        1463.
 Leave Link  101 at Sun Mar 16 14:33:29 2025, MaxMem=   104857600 cpu:               0.1 elap:               0.1
 (Enter /home/enzo/gaussian_versions/gdv.j21/gdv/l202.exe)
                          Input orientation:                          
 ---------------------------------------------------------------------
 Center     Atomic      Atomic             Coordinates (Angstroms)
 Number     Number       Type             X           Y           Z
 ---------------------------------------------------------------------
      1          7    10071003        1.882434    0.123450   -0.246854
      2          6    10061003        0.812572   -0.740295    0.237117
      3          6    10061000       -0.518365   -0.089324    0.033077
      4          8    10081002       -1.548016   -0.789522   -0.141622
      5          8    10081000       -0.613552    1.295411    0.072054
      6          1    10011000        2.752440   -0.073692    0.297798
      7          1    10011000        1.612294    1.119120   -0.079069
      8          1    10011000        0.837593   -1.711525   -0.299319
      9          1    10011000        0.963404   -0.948448    1.317220
     10          1    10011000       -1.518332    1.748588    0.080178
 ---------------------------------------------------------------------
                    Distance matrix (angstroms):
                    1          2          3          4          5
     1  N    0.000000
     2  C    1.457700   0.000000
     3  C    2.426411   1.495590   0.000000
     4  O    3.551419   2.391285   1.257370   0.000000
     5  O    2.775814   2.491019   1.388550   2.294739   0.000000
     6  H    1.045190   2.052104   3.281537   4.381715   3.640784
     7  H    1.045221   2.048647   2.452065   3.692477   2.237925
     8  H    2.112245   1.109810   2.140244   2.562438   3.359376
     9  H    2.107109   1.110270   2.140737   2.908730   3.011998
    10  H    3.783283   3.413544   2.092862   2.547956   1.011960
                    6          7          8          9         10
     6  H    0.000000
     7  H    1.692561   0.000000
     8  H    2.589534   2.942996   0.000000
     9  H    2.237201   2.577890   1.792014   0.000000
    10  H    4.648393   3.197250   4.203187   3.868241   0.000000
 Stoichiometry    C2H5NO2
 Framework group  C1[X(C2H5NO2)]
 Deg. of freedom    24
 Full point group                 C1      NOp   1
 Largest Abelian subgroup         C1      NOp   1
 Largest concise Abelian subgroup C1      NOp   1
                         Standard orientation:                         
 ---------------------------------------------------------------------
 Center     Atomic      Atomic             Coordinates (Angstroms)
 Number     Number       Type             X           Y           Z
 ---------------------------------------------------------------------
      1          7    10071003        1.814130    0.209285   -0.282618
      2          6    10061003        0.791225   -0.708719    0.202998
      3          6    10061000       -0.570730   -0.117793    0.022236
      4          8    10081002       -1.568954   -0.862870   -0.149185
      5          8    10081000       -0.729324    1.260492    0.079247
      6          1    10011000        2.698808    0.046322    0.249555
      7          1    10011000        1.500310    1.189334   -0.099569
      8          1    10011000        0.854639   -1.671406   -0.345535
      9          1    10011000        0.964503   -0.922273    1.278670
     10          1    10011000       -1.653915    1.671121    0.103305
 ---------------------------------------------------------------------
 Rotational constants (GHZ):           9.0584433           4.1012353           2.9512073
 Leave Link  202 at Sun Mar 16 14:33:29 2025, MaxMem=   104857600 cpu:               0.0 elap:               0.0
 (Enter /home/enzo/gaussian_versions/gdv.j21/gdv/l301.exe)
 Standard basis: Dummy (5D, 7F)
 There are    10 symmetry adapted cartesian basis functions of A   symmetry.
 There are    10 symmetry adapted basis functions of A   symmetry.
    10 basis functions,    10 primitive gaussians,    10 cartesian basis functions
     7 alpha electrons        7 beta electrons
       nuclear repulsion energy        22.4463743616 Hartrees.
 IExCor=         0 DFT=F Ex=HF Corr=None N6=None ScaHFX=  1.000000
 ScaDFX=  1.000000  1.000000  1.000000  1.000000  1.000000  0.000000
 ScaDFX=  0.000000  0.000000  0.000000  0.000000  0.000000  0.000000
 IRadAn=      5 IRanWt=     -1 IRanGd=            0 ICorTp=0 IEmpDi=  4
 NAtoms=   10 NActive=   10 NUniq=   10 SFac= 1.00D+00 NAtFMM=   60 NAOKFM=F Big=F
 Integral buffers will be    131072 words long.
 Raffenetti 1 integral format.
 Two-electron integral symmetry is turned on.
 Leave Link  301 at Sun Mar 16 14:33:29 2025, MaxMem=   104857600 cpu:               0.0 elap:               0.0
 (Enter /home/enzo/gaussian_versions/gdv.j21/gdv/l402.exe)
 UFF calculation of energy.
 Energy per function type:
 Direct Coulomb + vdW (small)                           0.009344373
 Direct Coulomb (large)                                 0.000000000
 Direct vdW (large)                                   423.704282449
 Non-direct Coulomb + vdW (small)                       0.000000000
 Non-direct Coulomb (large)                             0.000000000
 Non-direct vdW (large)                              -423.704282449
 Harmonic stretch III                                   0.008269260
 UFF 3-term bend                                        0.004737041
 UFF 2-term bend                                        0.000033436
 UFF torsion fixed V                                    0.001587337
 UFF torsion w/ bond order V                            0.000992234
 UFF torsion w/ sp3 V                                   0.000658389
 Three term Wilson angle                                0.000024280
 Energy per function class:
        Coulomb               0.000000000
    Vanderwaals               0.009344373
     Stretching               0.008269260
        Bending               0.004770477
        Torsion               0.003237961
   Out-of-plane               0.000024280
 Energy=    2.564635095E-02 NIter=   0.
 Dipole moment=       0.000000       0.000000       0.000000
 Leave Link  402 at Sun Mar 16 14:33:29 2025, MaxMem=   104857600 cpu:               0.0 elap:               0.0
 (Enter /home/enzo/gaussian_versions/gdv.j21/gdv/l9999.exe)
 Unable to Open any file for archive entry.
 1\1\GINC-ORACLE\SP\UFF\ZDO\C2H5N1O2\ENZO\16-Mar-2025\0\\#p UFF GEOM=RE
 ADALLGIC OUTPUT=PICKETT\\individuo_6660.xyz\\0,1\N,0,1.882434,0.12345,
 -0.246854\C,0,0.812572,-0.740295,0.237117\C,0,-0.518365,-0.089324,0.03
 3077\O,0,-1.548016,-0.789522,-0.141622\O,0,-0.613552,1.295411,0.072054
 \H,0,2.75244,-0.073692,0.297798\H,0,1.612294,1.11912,-0.079069\H,0,0.8
 37593,-1.711525,-0.299319\H,0,0.963404,-0.948448,1.31722\H,0,-1.518332
 ,1.748588,0.080178\\Version=ES64L-GDVRevJ.21\HF=0.0256464\RMSD=0.000e+
 00\Dipole=0.,0.,0.\PG=C01 [X(C2H5N1O2)]\\@
 The archive entry for this job was punched.
 DoSRE=F DoSRN=F DoDH=F DoFC=F DoNQ=F DoQCD=F DoSCD=F
 Inertia tensor (amu-bohr**2): 
                 1             2             3 
      1   0.199233D+03  0.512643D-04  0.146111D-04
      2   0.512643D-04  0.440048D+03  0.286942D-04
      3   0.146111D-04  0.286942D-04  0.611526D+03
 Principal inertia moments (amu-bohr**2):
 Iaa = 0.199233D+03 Ibb= 0.440048D+03 Icc= 0.611526D+03
 Rotation matrix to Principal Axis frame: 
                 1             2             3 
      1   0.100000D+01  0.000000D+00  0.000000D+00
      2   0.000000D+00  0.100000D+01  0.000000D+00
      3   0.000000D+00  0.000000D+00  0.100000D+01
                Principal axis orientation:                
 ---------------------------------------------------------------------
 Center     Atomic                     Coordinates (Angstroms)
 Number     Number                        X           Y           Z
 ---------------------------------------------------------------------
      1          7                    1.882434    0.123451   -0.246854
      2          6                    0.812572   -0.740295    0.237117
      3          6                   -0.518365   -0.089324    0.033077
      4          8                   -1.548016   -0.789522   -0.141622
      5          8                   -0.613552    1.295411    0.072054
      6          1                    2.752440   -0.073691    0.297798
      7          1                    1.612294    1.119120   -0.079069
      8          1                    0.837593   -1.711525   -0.299319
      9          1                    0.963404   -0.948448    1.317220
     10          1                   -1.518333    1.748588    0.080178
 ---------------------------------------------------------------------
 Rotational constants (MHZ):
   9058.4432984   4101.2352997   2951.2072677
 Dipole moment (Debye):
      0.0000000      0.0000000      0.0000000  Tot=      0.0000000

 Atoms with significant hyperfine tensors: 

--------------------------------------------------------------------------------
 individuo_6660.xyz                                      
   99  1000  50  0.1760E-11  0.1000E+07  0.1000E+01 1.0000000000
a   1  0  0  0  1  1   1  0  1  0
     10000   0.90584433E+04    0.0000E+00   /  A  /
     20000   0.41012353E+04    0.0000E+00   /  B  /
     30000   0.29512073E+04    0.0000E+00   /  C  /
--------------------------------------------------------------------------------



 THE SCIENTIFIC THEORIST IS NOT TO BE ENVIED. FOR NATURE, OR MORE
 PRECISELY EXPERIMENT, IS AN INEXORABLE AND NOT VERY FRIENDLY JUDGE OF HIS
 WORK.  IT NEVER SAYS "YES" TO A THEORY. IN THE MOST FAVORABLE CASES
 IT SAYS "MAYBE", AND IN THE GREAT MAJORITY OF CASES SIMPLY "NO"...
 PROBABLY EVERY THEORY WILL SOME DAY EXPERIENCE ITS "NO" - MOST
 THEORIES, SOON AFTER CONCEPTION.  -- A.EINSTEIN, NOV 11, 1922.
 Job cpu time:       0 days  0 hours  0 minutes  0.2 seconds.
 Elapsed time:       0 days  0 hours  0 minutes  0.2 seconds.
 File lengths (MBytes):  RWF=     14 Int=      0 D2E=      0 Chk=      9 Scr=      1
 Normal termination of Gaussian DV at Sun Mar 16 14:33:29 2025.
