 Entering Gaussian System, Link 0=gdv
 Input=cumulative_population/temp_processing/individuo_4081.gjf
 Output=cumulative_population/temp_processing/individuo_4081.log
 Initial command:
 /home/enzo/gaussian_versions/gdv.j21/gdv/l1.exe "/local/home/enzo/scratch/Gau-2480536.inp" -scrdir="/local/home/enzo/scratch/"
 Entering Link 1 = /home/enzo/gaussian_versions/gdv.j21/gdv/l1.exe PID=   2480537.
  
 Copyright (c) 1988-2022, Gaussian, Inc.  All Rights Reserved.
  
 This is the private, development version of
 the Gaussian(R) DV system of programs. It is based on
 the Gaussian(R) 16 system (copyright 2016, Gaussian, Inc.),
 the Gaussian(R) 09 system (copyright 2009, Gaussian, Inc.),
 the Gaussian(R) 03 system (copyright 2003, Gaussian, Inc.),
 the Gaussian(R) 98 system (copyright 1998, Gaussian, Inc.),
 the Gaussian(R) 94 system (copyright 1995, Gaussian, Inc.),
 the Gaussian 92(TM) system (copyright 1992, Gaussian, Inc.),
 the Gaussian 90(TM) system (copyright 1990, Gaussian, Inc.),
 the Gaussian 88(TM) system (copyright 1988, Gaussian, Inc.),
 the Gaussian 86(TM) system (copyright 1986, Carnegie Mellon
 University), and the Gaussian 82(TM) system (copyright 1983,
 Carnegie Mellon University). Gaussian is a federally registered
 trademark of Gaussian, Inc.
  
 This software contains proprietary and confidential information,
 including trade secrets, belonging to Gaussian, Inc.
  
 This software is provided under written license and may be
 used, copied, transmitted, or stored only in accord with that
 written license.
  
 The following legend is applicable only to US Government
 contracts under FAR:
  
                    RESTRICTED RIGHTS LEGEND
  
 Use, reproduction and disclosure by the US Government is
 subject to restrictions as set forth in subparagraphs (a)
 and (c) of the Commercial Computer Software - Restricted
 Rights clause in FAR 52.227-19.
  
 Gaussian, Inc.
 340 Quinnipiac St., Bldg. 40, Wallingford CT 06492
  
  
 ---------------------------------------------------------------
 Warning -- This program may not be used in any manner that
 competes with the business of Gaussian, Inc. or will provide
 assistance to any competitor of Gaussian, Inc.  The licensee
 of this program is prohibited from giving any competitor of
 Gaussian, Inc. access to this program.  By using this program,
 the user acknowledges that Gaussian, Inc. is engaged in the
 business of creating and licensing software in the field of
 computational chemistry and represents and warrants to the
 licensee that it is not a competitor of Gaussian, Inc. and that
 it will not use this program in any manner prohibited above.
 ---------------------------------------------------------------
  

 Cite this work as:
 Gaussian Development Version, Revision J.21,
 M. J. Frisch, G. W. Trucks, H. B. Schlegel, G. E. Scuseria, 
 M. A. Robb, J. R. Cheeseman, G. Scalmani, V. Barone, 
 G. A. Petersson, H. Nakatsuji, X. Li, A. V. Marenich, M. Caricato, 
 J. Bloino, B. G. Janesko, J. Zheng, R. Gomperts, B. Mennucci, 
 H. P. Hratchian, J. V. Ortiz, A. F. Izmaylov, J. L. Sonnenberg, 
 D. Williams-Young, F. Ding, F. Lipparini, F. Egidi, J. Goings, 
 B. Peng, A. Petrone, T. Henderson, D. Ranasinghe, V. G. Zakrzewski, 
 J. Gao, N. Rega, G. Zheng, W. Liang, M. Hada, M. Ehara, K. Toyota, 
 R. Fukuda, J. Hasegawa, M. Ishida, T. Nakajima, Y. Honda, O. Kitao, 
 H. Nakai, T. Vreven, K. Throssell, J. A. Montgomery, Jr., 
 J. E. Peralta, F. Ogliaro, M. J. Bearpark, J. J. Heyd, 
 E. N. Brothers, K. N. Kudin, V. N. Staroverov, T. A. Keith, 
 R. Kobayashi, J. Normand, K. Raghavachari, A. P. Rendell, 
 J. C. Burant, S. S. Iyengar, J. Tomasi, M. Cossi, J. M. Millam, 
 M. Klene, C. Adamo, R. Cammi, J. W. Ochterski, R. L. Martin, 
 K. Morokuma, O. Farkas, J. B. Foresman, and D. J. Fox, 
 Gaussian, Inc., Wallingford CT, 2020.
 
 ******************************************
 Gaussian DV:  ES64L-GDVRevJ.21 25-Jul-2022
                16-Mar-2025 
 ******************************************
 -------------------------------------
 #p UFF GEOM=READALLGIC OUTPUT=PICKETT
 -------------------------------------
 1/18=20,37=210000000,38=1,56=1,64=2,145=602,172=1/1;
 2/12=2/2;
 3/5=30,11=9,25=1,30=1,41=10020000,43=2/1;
 4/20=10,24=3/2;
 99/5=1,9=1,10=1024/99;
 Leave Link    1 at Sun Mar 16 14:33:36 2025, MaxMem=           0 cpu:               0.0 elap:               0.0
 (Enter /home/enzo/gaussian_versions/gdv.j21/gdv/l101.exe)
 ------------------
 individuo_4081.xyz
 ------------------
 Symbolic Z-matrix:
 Charge =     0 Multiplicity =     1
 7                     1.87128   0.17247  -0.24001 
 6                     0.82134  -0.69585   0.27819 
 6                    -0.52453  -0.08761   0.04267 
 8                    -1.52791  -0.82034  -0.15051 
 8                    -0.66358   1.29363   0.07287 
 1                     2.58005  -0.41068  -0.74002 
 1                     2.3457    0.64267   0.56393 
 1                     0.87233  -1.68847  -0.21556 
 1                     0.97332  -0.85324   1.36669 
 1                    -1.52531   1.73037  -0.22837 
 
 Initializing the GIC definitions file.

 CrInp1: Reading the GIC input below.
 Dihed1 = D( 6, 1, 2, 3)
 Dihed2 = D( 1, 2, 3, 4)
 Dihed3 = D( 4, 3, 5, 10)
 
 Warning:  Number of GICs=     3 3N-6=    24.
 ITRead=  0  0  0  0  0  0  0  0  0  0
 MicOpt= -1 -1 -1 -1 -1 -1 -1 -1 -1 -1
                           ----------------------------
                           !    Current Parameters    !
                           ! (Angstroms and Degrees)  !
 --------------------------                            --------------------------
 ! Name   Definition             Value                                          !
 --------------------------------------------------------------------------------
 ! Dihed1 D(6,1,2,3)          -137.003                                          !
 ! Dihed2 D(1,2,3,4)           148.6643                                         !
 ! Dihed3 D(4,3,5,10)          -11.503                                          !
 --------------------------------------------------------------------------------
 NAtoms=     10 NQM=       10 NQMF=       0 NMMI=      0 NMMIF=      0
                NMic=       0 NMicF=      0.
                    Isotopes and Nuclear Properties:
 (Nuclear quadrupole moments (NQMom) in fm**2, nuclear magnetic moments (NMagM)
  in nuclear magnetons)

  Atom         1           2           3           4           5           6           7           8           9          10
 IAtWgt=          14          12          12          16          16           1           1           1           1           1
 AtmWgt=  14.0030740  12.0000000  12.0000000  15.9949146  15.9949146   1.0078250   1.0078250   1.0078250   1.0078250   1.0078250
 NucSpn=           2           0           0           0           0           1           1           1           1           1
 AtZEff=  -0.0000000  -0.0000000  -0.0000000  -0.0000000  -0.0000000  -0.0000000  -0.0000000  -0.0000000  -0.0000000  -0.0000000
 NQMom=    2.0440000   0.0000000   0.0000000   0.0000000   0.0000000   0.0000000   0.0000000   0.0000000   0.0000000   0.0000000
 NMagM=    0.4037610   0.0000000   0.0000000   0.0000000   0.0000000   2.7928460   2.7928460   2.7928460   2.7928460   2.7928460
 AtZNuc=   7.0000000   6.0000000   6.0000000   8.0000000   8.0000000   1.0000000   1.0000000   1.0000000   1.0000000   1.0000000
 Generating MM parameters.
 Include all MM classes

 MM sanity checks:
 All charges sum to:                0.00000000
 Charges of atoms sum to:           0.00000000
 MMInit generated parameter data with length LenPar=        1463.
 Leave Link  101 at Sun Mar 16 14:33:36 2025, MaxMem=   104857600 cpu:               0.1 elap:               0.1
 (Enter /home/enzo/gaussian_versions/gdv.j21/gdv/l202.exe)
                          Input orientation:                          
 ---------------------------------------------------------------------
 Center     Atomic      Atomic             Coordinates (Angstroms)
 Number     Number       Type             X           Y           Z
 ---------------------------------------------------------------------
      1          7    10071003        1.871284    0.172468   -0.240013
      2          6    10061003        0.821340   -0.695850    0.278188
      3          6    10061000       -0.524529   -0.087608    0.042672
      4          8    10081002       -1.527907   -0.820338   -0.150509
      5          8    10081000       -0.663577    1.293632    0.072865
      6          1    10011000        2.580053   -0.410683   -0.740018
      7          1    10011000        2.345696    0.642673    0.563931
      8          1    10011000        0.872331   -1.688466   -0.215564
      9          1    10011000        0.973318   -0.853242    1.366687
     10          1    10011000       -1.525309    1.730372   -0.228366
 ---------------------------------------------------------------------
                    Distance matrix (angstroms):
                    1          2          3          4          5
     1  N    0.000000
     2  C    1.457701   0.000000
     3  C    2.426411   1.495590   0.000000
     4  O    3.542340   2.391284   1.257370   0.000000
     5  O    2.789341   2.491019   1.388550   2.294740   0.000000
     6  H    1.045191   2.052105   3.217982   4.170213   3.753212
     7  H    1.045220   2.048647   3.007194   4.201860   3.117790
     8  H    2.112245   1.109810   2.140245   2.553237   3.366766
     9  H    2.107109   1.110270   2.140737   2.925593   2.993738
    10  H    3.736850   3.413197   2.092863   2.551899   1.011960
                    6          7          8          9         10
     6  H    0.000000
     7  H    1.692562   0.000000
     8  H    2.196382   2.865768   0.000000
     9  H    2.686198   2.183025   1.792014   0.000000
    10  H    4.658315   4.098232   4.175799   3.932225   0.000000
 Stoichiometry    C2H5NO2
 Framework group  C1[X(C2H5NO2)]
 Deg. of freedom    24
 Full point group                 C1      NOp   1
 Largest Abelian subgroup         C1      NOp   1
 Largest concise Abelian subgroup C1      NOp   1
                         Standard orientation:                         
 ---------------------------------------------------------------------
 Center     Atomic      Atomic             Coordinates (Angstroms)
 Number     Number       Type             X           Y           Z
 ---------------------------------------------------------------------
      1          7    10071003        1.791814    0.282881   -0.258813
      2          6    10061003        0.795650   -0.647734    0.257427
      3          6    10061000       -0.583715   -0.113647    0.036308
      4          8    10081002       -1.545812   -0.899581   -0.157750
      5          8    10081000       -0.799624    1.257289    0.080891
      6          1    10011000        2.528686   -0.254913   -0.768931
      7          1    10011000        2.244628    0.771327    0.546709
      8          1    10011000        0.898744   -1.631238   -0.246328
      9          1    10011000        0.963595   -0.806615    1.343360
     10          1    10011000       -1.686472    1.647890   -0.210649
 ---------------------------------------------------------------------
 Rotational constants (GHZ):           9.0053787           4.0047828           2.9349028
 Leave Link  202 at Sun Mar 16 14:33:36 2025, MaxMem=   104857600 cpu:               0.0 elap:               0.0
 (Enter /home/enzo/gaussian_versions/gdv.j21/gdv/l301.exe)
 Standard basis: Dummy (5D, 7F)
 There are    10 symmetry adapted cartesian basis functions of A   symmetry.
 There are    10 symmetry adapted basis functions of A   symmetry.
    10 basis functions,    10 primitive gaussians,    10 cartesian basis functions
     7 alpha electrons        7 beta electrons
       nuclear repulsion energy        22.2102715577 Hartrees.
 IExCor=         0 DFT=F Ex=HF Corr=None N6=None ScaHFX=  1.000000
 ScaDFX=  1.000000  1.000000  1.000000  1.000000  1.000000  0.000000
 ScaDFX=  0.000000  0.000000  0.000000  0.000000  0.000000  0.000000
 IRadAn=      5 IRanWt=     -1 IRanGd=            0 ICorTp=0 IEmpDi=  4
 NAtoms=   10 NActive=   10 NUniq=   10 SFac= 1.00D+00 NAtFMM=   60 NAOKFM=F Big=F
 Integral buffers will be    131072 words long.
 Raffenetti 1 integral format.
 Two-electron integral symmetry is turned on.
 Leave Link  301 at Sun Mar 16 14:33:36 2025, MaxMem=   104857600 cpu:               0.0 elap:               0.0
 (Enter /home/enzo/gaussian_versions/gdv.j21/gdv/l402.exe)
 UFF calculation of energy.
 Energy per function type:
 Direct Coulomb + vdW (small)                           0.003611951
 Direct Coulomb (large)                                 0.000000000
 Direct vdW (large)                                   423.702684385
 Non-direct Coulomb + vdW (small)                       0.000000000
 Non-direct Coulomb (large)                             0.000000000
 Non-direct vdW (large)                              -423.702684385
 Harmonic stretch III                                   0.008269282
 UFF 3-term bend                                        0.004736995
 UFF 2-term bend                                        0.000033434
 UFF torsion fixed V                                    0.001564055
 UFF torsion w/ bond order V                            0.001485552
 UFF torsion w/ sp3 V                                   0.001304539
 Three term Wilson angle                                0.000024279
 Energy per function class:
        Coulomb               0.000000000
    Vanderwaals               0.003611951
     Stretching               0.008269282
        Bending               0.004770429
        Torsion               0.004354146
   Out-of-plane               0.000024279
 Energy=    2.103008654E-02 NIter=   0.
 Dipole moment=       0.000000       0.000000       0.000000
 Leave Link  402 at Sun Mar 16 14:33:36 2025, MaxMem=   104857600 cpu:               0.0 elap:               0.0
 (Enter /home/enzo/gaussian_versions/gdv.j21/gdv/l9999.exe)
 Unable to Open any file for archive entry.
 1\1\GINC-ORACLE\SP\UFF\ZDO\C2H5N1O2\ENZO\16-Mar-2025\0\\#p UFF GEOM=RE
 ADALLGIC OUTPUT=PICKETT\\individuo_4081.xyz\\0,1\N,0,1.871284,0.172468
 ,-0.240013\C,0,0.82134,-0.69585,0.278188\C,0,-0.524529,-0.087608,0.042
 672\O,0,-1.527907,-0.820338,-0.150509\O,0,-0.663577,1.293632,0.072865\
 H,0,2.580053,-0.410683,-0.740018\H,0,2.345696,0.642673,0.563931\H,0,0.
 872331,-1.688466,-0.215564\H,0,0.973318,-0.853242,1.366687\H,0,-1.5253
 09,1.730372,-0.228366\\Version=ES64L-GDVRevJ.21\HF=0.0210301\RMSD=0.00
 0e+00\Dipole=0.,0.,0.\PG=C01 [X(C2H5N1O2)]\\@
 The archive entry for this job was punched.
 DoSRE=F DoSRN=F DoDH=F DoFC=F DoNQ=F DoQCD=F DoSCD=F
 Inertia tensor (amu-bohr**2): 
                 1             2             3 
      1   0.200407D+03 -0.724881D-04  0.252117D-04
      2  -0.724881D-04  0.450646D+03  0.139089D-04
      3   0.252117D-04  0.139089D-04  0.614924D+03
 Principal inertia moments (amu-bohr**2):
 Iaa = 0.200407D+03 Ibb= 0.450646D+03 Icc= 0.614924D+03
 Rotation matrix to Principal Axis frame: 
                 1             2             3 
      1   0.100000D+01  0.000000D+00  0.000000D+00
      2   0.000000D+00  0.100000D+01  0.000000D+00
      3   0.000000D+00  0.000000D+00  0.100000D+01
                Principal axis orientation:                
 ---------------------------------------------------------------------
 Center     Atomic                     Coordinates (Angstroms)
 Number     Number                        X           Y           Z
 ---------------------------------------------------------------------
      1          7                    1.871284    0.172467   -0.240013
      2          6                    0.821340   -0.695850    0.278188
      3          6                   -0.524529   -0.087608    0.042672
      4          8                   -1.527907   -0.820338   -0.150509
      5          8                   -0.663577    1.293632    0.072865
      6          1                    2.580053   -0.410684   -0.740018
      7          1                    2.345696    0.642672    0.563931
      8          1                    0.872331   -1.688466   -0.215564
      9          1                    0.973318   -0.853242    1.366687
     10          1                   -1.525308    1.730372   -0.228366
 ---------------------------------------------------------------------
 Rotational constants (MHZ):
   9005.3786956   4004.7827789   2934.9027886
 Dipole moment (Debye):
      0.0000000      0.0000000      0.0000000  Tot=      0.0000000

 Atoms with significant hyperfine tensors: 

--------------------------------------------------------------------------------
 individuo_4081.xyz                                      
   99  1000  50  0.1760E-11  0.1000E+07  0.1000E+01 1.0000000000
a   1  0  0  0  1  1   1  0  1  0
     10000   0.90053787E+04    0.0000E+00   /  A  /
     20000   0.40047828E+04    0.0000E+00   /  B  /
     30000   0.29349028E+04    0.0000E+00   /  C  /
--------------------------------------------------------------------------------



 SLITHERY-DITHERY
 FRIEDRICH A. KEKULE
 DREAMT ON A BUS OF THINGS
 FREUD WOULD THINK KEEN.
 MOST OF THE TIME THEY WERE
 HERPETOLOGICAL
 BITING THEIR TAILS IN THE
 SHAPE OF BENZENE.
 Job cpu time:       0 days  0 hours  0 minutes  0.2 seconds.
 Elapsed time:       0 days  0 hours  0 minutes  0.2 seconds.
 File lengths (MBytes):  RWF=     14 Int=      0 D2E=      0 Chk=      9 Scr=      1
 Normal termination of Gaussian DV at Sun Mar 16 14:33:36 2025.
