 Entering Gaussian System, Link 0=gdv
 Input=joint_population/temp_processing/individuo_5272_opt.gjf
 Output=joint_population/temp_processing/individuo_5272_opt.log
 Initial command:
 /home/enzo/gaussian_versions/gdv.j21/gdv/l1.exe "/local/home/enzo/scratch/Gau-2409191.inp" -scrdir="/local/home/enzo/scratch/"
 Entering Link 1 = /home/enzo/gaussian_versions/gdv.j21/gdv/l1.exe PID=   2409192.
  
 Copyright (c) 1988-2022, Gaussian, Inc.  All Rights Reserved.
  
 This is the private, development version of
 the Gaussian(R) DV system of programs. It is based on
 the Gaussian(R) 16 system (copyright 2016, Gaussian, Inc.),
 the Gaussian(R) 09 system (copyright 2009, Gaussian, Inc.),
 the Gaussian(R) 03 system (copyright 2003, Gaussian, Inc.),
 the Gaussian(R) 98 system (copyright 1998, Gaussian, Inc.),
 the Gaussian(R) 94 system (copyright 1995, Gaussian, Inc.),
 the Gaussian 92(TM) system (copyright 1992, Gaussian, Inc.),
 the Gaussian 90(TM) system (copyright 1990, Gaussian, Inc.),
 the Gaussian 88(TM) system (copyright 1988, Gaussian, Inc.),
 the Gaussian 86(TM) system (copyright 1986, Carnegie Mellon
 University), and the Gaussian 82(TM) system (copyright 1983,
 Carnegie Mellon University). Gaussian is a federally registered
 trademark of Gaussian, Inc.
  
 This software contains proprietary and confidential information,
 including trade secrets, belonging to Gaussian, Inc.
  
 This software is provided under written license and may be
 used, copied, transmitted, or stored only in accord with that
 written license.
  
 The following legend is applicable only to US Government
 contracts under FAR:
  
                    RESTRICTED RIGHTS LEGEND
  
 Use, reproduction and disclosure by the US Government is
 subject to restrictions as set forth in subparagraphs (a)
 and (c) of the Commercial Computer Software - Restricted
 Rights clause in FAR 52.227-19.
  
 Gaussian, Inc.
 340 Quinnipiac St., Bldg. 40, Wallingford CT 06492
  
  
 ---------------------------------------------------------------
 Warning -- This program may not be used in any manner that
 competes with the business of Gaussian, Inc. or will provide
 assistance to any competitor of Gaussian, Inc.  The licensee
 of this program is prohibited from giving any competitor of
 Gaussian, Inc. access to this program.  By using this program,
 the user acknowledges that Gaussian, Inc. is engaged in the
 business of creating and licensing software in the field of
 computational chemistry and represents and warrants to the
 licensee that it is not a competitor of Gaussian, Inc. and that
 it will not use this program in any manner prohibited above.
 ---------------------------------------------------------------
  

 Cite this work as:
 Gaussian Development Version, Revision J.21,
 M. J. Frisch, G. W. Trucks, H. B. Schlegel, G. E. Scuseria, 
 M. A. Robb, J. R. Cheeseman, G. Scalmani, V. Barone, 
 G. A. Petersson, H. Nakatsuji, X. Li, A. V. Marenich, M. Caricato, 
 J. Bloino, B. G. Janesko, J. Zheng, R. Gomperts, B. Mennucci, 
 H. P. Hratchian, J. V. Ortiz, A. F. Izmaylov, J. L. Sonnenberg, 
 D. Williams-Young, F. Ding, F. Lipparini, F. Egidi, J. Goings, 
 B. Peng, A. Petrone, T. Henderson, D. Ranasinghe, V. G. Zakrzewski, 
 J. Gao, N. Rega, G. Zheng, W. Liang, M. Hada, M. Ehara, K. Toyota, 
 R. Fukuda, J. Hasegawa, M. Ishida, T. Nakajima, Y. Honda, O. Kitao, 
 H. Nakai, T. Vreven, K. Throssell, J. A. Montgomery, Jr., 
 J. E. Peralta, F. Ogliaro, M. J. Bearpark, J. J. Heyd, 
 E. N. Brothers, K. N. Kudin, V. N. Staroverov, T. A. Keith, 
 R. Kobayashi, J. Normand, K. Raghavachari, A. P. Rendell, 
 J. C. Burant, S. S. Iyengar, J. Tomasi, M. Cossi, J. M. Millam, 
 M. Klene, C. Adamo, R. Cammi, J. W. Ochterski, R. L. Martin, 
 K. Morokuma, O. Farkas, J. B. Foresman, and D. J. Fox, 
 Gaussian, Inc., Wallingford CT, 2020.
 
 ******************************************
 Gaussian DV:  ES64L-GDVRevJ.21 25-Jul-2022
                14-Mar-2025 
 ******************************************
 -------------------------------------
 #p UFF GEOM=READALLGIC OUTPUT=PICKETT
 -------------------------------------
 1/18=20,37=210000000,38=1,56=1,64=2,145=602,172=1/1;
 2/12=2/2;
 3/5=30,11=9,25=1,30=1,41=10020000,43=2/1;
 4/20=10,24=3/2;
 99/5=1,9=1,10=1024/99;
 Leave Link    1 at Fri Mar 14 15:26:45 2025, MaxMem=           0 cpu:               0.0 elap:               0.0
 (Enter /home/enzo/gaussian_versions/gdv.j21/gdv/l101.exe)
 ----------------------
 individuo_5272_opt.xyz
 ----------------------
 Symbolic Z-matrix:
 Charge =     0 Multiplicity =     1
 6                     2.89247  -0.96      1.11394 
 6                     1.89438   0.07612   0.59779 
 16                    2.64869   1.25172  -0.62406 
 6                     0.69083  -0.60204  -0.06434 
 8                     0.82608  -1.52221  -0.86429 
 7                    -0.53022  -0.12312   0.29556 
 6                    -1.73319  -0.60574  -0.34158 
 6                    -2.90579   0.23547   0.11352 
 8                    -2.8294    1.17938   0.87048 
 8                    -4.06072  -0.19376  -0.43051 
 1                     3.77854  -0.46971   1.52539 
 1                     2.43173  -1.57279   1.89907 
 1                     3.19413  -1.62618   0.30144 
 1                     1.56582   0.7288    1.41399 
 1                     2.81888   0.32512  -1.59203 
 1                    -0.63242   0.70069   0.87544 
 1                    -1.65447  -0.55985  -1.43585 
 1                    -1.92618  -1.65771  -0.09562 
 1                    -4.76347   0.39588  -0.09733 
 
 Initializing the GIC definitions file.

 CrInp1: Reading the GIC input below.
 Dihed1 = D( 15, 3, 2, 14)
 Dihed2 = D( 3, 2, 4, 5)
 Dihed3 = D( 4, 6, 7, 8)
 Dihed4 = D( 6, 7, 8, 9)
 Dihed5 = D( 9, 8, 10, 19)
 
 Warning:  Number of GICs=     5 3N-6=    51.
 ITRead=  0  0  0  0  0  0  0  0  0  0  0  0  0  0  0  0  0  0  0
 MicOpt= -1 -1 -1 -1 -1 -1 -1 -1 -1 -1 -1 -1 -1 -1 -1 -1 -1 -1 -1
                           ----------------------------
                           !    Current Parameters    !
                           ! (Angstroms and Degrees)  !
 --------------------------                            --------------------------
 ! Name   Definition             Value                                          !
 --------------------------------------------------------------------------------
 ! Dihed1 D(15,3,2,14)        -172.3722                                         !
 ! Dihed2 D(3,2,4,5)            78.1801                                         !
 ! Dihed3 D(4,6,7,8)          -172.0331                                         !
 ! Dihed4 D(6,7,8,9)             1.4431                                         !
 ! Dihed5 D(9,8,10,19)           0.2777                                         !
 --------------------------------------------------------------------------------
 NAtoms=     19 NQM=       19 NQMF=       0 NMMI=      0 NMMIF=      0
                NMic=       0 NMicF=      0.
                    Isotopes and Nuclear Properties:
 (Nuclear quadrupole moments (NQMom) in fm**2, nuclear magnetic moments (NMagM)
  in nuclear magnetons)

  Atom         1           2           3           4           5           6           7           8           9          10
 IAtWgt=          12          12          32          12          16          14          12          12          16          16
 AtmWgt=  12.0000000  12.0000000  31.9720718  12.0000000  15.9949146  14.0030740  12.0000000  12.0000000  15.9949146  15.9949146
 NucSpn=           0           0           0           0           0           2           0           0           0           0
 AtZEff=  -0.0000000  -0.0000000  -0.0000000  -0.0000000  -0.0000000  -0.0000000  -0.0000000  -0.0000000  -0.0000000  -0.0000000
 NQMom=    0.0000000   0.0000000   0.0000000   0.0000000   0.0000000   2.0440000   0.0000000   0.0000000   0.0000000   0.0000000
 NMagM=    0.0000000   0.0000000   0.0000000   0.0000000   0.0000000   0.4037610   0.0000000   0.0000000   0.0000000   0.0000000
 AtZNuc=   6.0000000   6.0000000  16.0000000   6.0000000   8.0000000   7.0000000   6.0000000   6.0000000   8.0000000   8.0000000

  Atom        11          12          13          14          15          16          17          18          19
 IAtWgt=           1           1           1           1           1           1           1           1           1
 AtmWgt=   1.0078250   1.0078250   1.0078250   1.0078250   1.0078250   1.0078250   1.0078250   1.0078250   1.0078250
 NucSpn=           1           1           1           1           1           1           1           1           1
 AtZEff=  -0.0000000  -0.0000000  -0.0000000  -0.0000000  -0.0000000  -0.0000000  -0.0000000  -0.0000000  -0.0000000
 NQMom=    0.0000000   0.0000000   0.0000000   0.0000000   0.0000000   0.0000000   0.0000000   0.0000000   0.0000000
 NMagM=    2.7928460   2.7928460   2.7928460   2.7928460   2.7928460   2.7928460   2.7928460   2.7928460   2.7928460
 AtZNuc=   1.0000000   1.0000000   1.0000000   1.0000000   1.0000000   1.0000000   1.0000000   1.0000000   1.0000000
 Generating MM parameters.
 Include all MM classes

 MM sanity checks:
 All charges sum to:                0.00000000
 Charges of atoms sum to:           0.00000000
 MMInit generated parameter data with length LenPar=        2803.
 Leave Link  101 at Fri Mar 14 15:26:45 2025, MaxMem=   104857600 cpu:               0.1 elap:               0.1
 (Enter /home/enzo/gaussian_versions/gdv.j21/gdv/l202.exe)
                          Input orientation:                          
 ---------------------------------------------------------------------
 Center     Atomic      Atomic             Coordinates (Angstroms)
 Number     Number       Type             X           Y           Z
 ---------------------------------------------------------------------
      1          6    10061003        2.892474   -0.960003    1.113937
      2          6    10061003        1.894380    0.076119    0.597789
      3         16    10161003        2.648690    1.251718   -0.624055
      4          6    10061000        0.690826   -0.602041   -0.064335
      5          8    10081002        0.826084   -1.522211   -0.864288
      6          7    10071000       -0.530220   -0.123123    0.295555
      7          6    10061003       -1.733188   -0.605737   -0.341575
      8          6    10061000       -2.905786    0.235468    0.113518
      9          8    10081002       -2.829399    1.179382    0.870484
     10          8    10081000       -4.060725   -0.193761   -0.430508
     11          1    10011000        3.778542   -0.469710    1.525386
     12          1    10011000        2.431732   -1.572789    1.899070
     13          1    10011000        3.194132   -1.626177    0.301440
     14          1    10011000        1.565823    0.728799    1.413994
     15          1    10011000        2.818883    0.325124   -1.592033
     16          1    10011000       -0.632418    0.700691    0.875438
     17          1    10011000       -1.654473   -0.559849   -1.435853
     18          1    10011000       -1.926176   -1.657709   -0.095618
     19          1    10011000       -4.763466    0.395877   -0.097334
 ---------------------------------------------------------------------
                    Distance matrix (angstroms):
                    1          2          3          4          5
     1  C    0.000000
     2  C    1.528447   0.000000
     3  S    2.823430   1.855780   0.000000
     4  C    2.522641   1.531944   2.753714   0.000000
     5  O    2.915376   2.415281   3.327805   1.226757   0.000000
     6  N    3.617313   2.451475   3.583481   1.360087   2.267652
     7  C    4.862177   3.808751   4.767682   2.439820   2.768217
     8  C    6.004149   4.827163   5.694645   3.697117   4.239386
     9  O    6.113597   4.858564   5.678762   4.054545   4.865244
    10  O    7.163757   6.049257   6.866085   4.783097   5.082701
    11  H    1.093066   2.169892   2.976571   3.475444   3.941486
    12  H    1.097371   2.168174   3.793556   2.797868   3.196375
    13  H    1.093132   2.162172   3.071861   2.729320   2.641473
    14  H    2.168430   1.095505   2.366366   2.173065   3.287070
    15  H    2.996538   2.389985   1.350749   2.778871   2.813096
    16  H    3.903799   2.617611   3.649353   2.081168   3.177289
    17  H    5.228411   4.139386   4.738988   2.717217   2.721395
    18  H    5.016892   4.252484   5.447331   2.822076   2.860795
    19  H    7.868863   6.701668   7.479970   5.544928   5.959056
                    6          7          8          9         10
     6  N    0.000000
     7  C    1.444293   0.000000
     8  C    2.409365   1.513183   0.000000
     9  O    2.704309   2.420210   1.212356   0.000000
    10  O    3.605083   2.365388   1.346880   2.257048   0.000000
    11  H    4.494223   5.820929   6.868107   6.842023   8.084292
    12  H    3.666872   4.827239   5.911606   6.025938   7.034248
    13  H    4.016218   5.072795   6.380442   6.669175   7.431051
    14  H    2.523900   3.968184   4.682937   4.451562   5.992608
    15  H    3.870453   4.811600   5.974009   6.220678   6.996241
    16  H    1.012610   2.097515   2.442367   2.248532   3.776086
    17  H    2.110082   1.098065   2.144496   3.118424   2.633399
    18  H    2.111081   1.097444   2.141843   3.130216   2.609903
    19  H    4.283001   3.200854   1.876477   2.300254   0.975973
                   11         12         13         14         15
    11  H    0.000000
    12  H    1.780539   0.000000
    13  H    1.782413   1.771024   0.000000
    14  H    2.518920   2.506473   3.071657   0.000000
    15  H    3.357232   3.992463   2.744745   3.281663   0.000000
    16  H    4.609646   3.950386   4.515116   2.263426   4.259219
    17  H    6.188272   5.370738   5.259678   4.489159   4.562728
    18  H    6.048372   4.793470   5.135777   4.490925   5.355975
    19  H    8.737755   7.722186   8.220164   6.515739   7.728593
                   16         17         18         19
    16  H    0.000000
    17  H    2.824115   0.000000
    18  H    2.859862   1.753667   0.000000
    19  H    4.254968   3.517227   3.502490   0.000000
 Stoichiometry    C5H9NO3S
 Framework group  C1[X(C5H9NO3S)]
 Deg. of freedom    51
 Full point group                 C1      NOp   1
 Largest Abelian subgroup         C1      NOp   1
 Largest concise Abelian subgroup C1      NOp   1
                         Standard orientation:                         
 ---------------------------------------------------------------------
 Center     Atomic      Atomic             Coordinates (Angstroms)
 Number     Number       Type             X           Y           Z
 ---------------------------------------------------------------------
      1          6    10061003       -2.892474    0.960003    1.113937
      2          6    10061003       -1.894380   -0.076119    0.597789
      3         16    10161003       -2.648690   -1.251718   -0.624055
      4          6    10061000       -0.690826    0.602041   -0.064335
      5          8    10081002       -0.826084    1.522211   -0.864288
      6          7    10071000        0.530220    0.123123    0.295555
      7          6    10061003        1.733188    0.605737   -0.341575
      8          6    10061000        2.905786   -0.235468    0.113518
      9          8    10081002        2.829399   -1.179382    0.870484
     10          8    10081000        4.060725    0.193761   -0.430508
     11          1    10011000       -3.778542    0.469710    1.525386
     12          1    10011000       -2.431732    1.572789    1.899070
     13          1    10011000       -3.194132    1.626177    0.301440
     14          1    10011000       -1.565823   -0.728799    1.413994
     15          1    10011000       -2.818883   -0.325124   -1.592033
     16          1    10011000        0.632418   -0.700691    0.875438
     17          1    10011000        1.654473    0.559849   -1.435853
     18          1    10011000        1.926176    1.657709   -0.095618
     19          1    10011000        4.763466   -0.395877   -0.097334
 ---------------------------------------------------------------------
 Rotational constants (GHZ):           2.3484818           0.4753493           0.4476702
 Leave Link  202 at Fri Mar 14 15:26:45 2025, MaxMem=   104857600 cpu:               0.0 elap:               0.0
 (Enter /home/enzo/gaussian_versions/gdv.j21/gdv/l301.exe)
 Standard basis: Dummy (5D, 7F)
 There are    19 symmetry adapted cartesian basis functions of A   symmetry.
 There are    19 symmetry adapted basis functions of A   symmetry.
    19 basis functions,    19 primitive gaussians,    19 cartesian basis functions
    14 alpha electrons       14 beta electrons
       nuclear repulsion energy        68.3292466922 Hartrees.
 IExCor=         0 DFT=F Ex=HF Corr=None N6=None ScaHFX=  1.000000
 ScaDFX=  1.000000  1.000000  1.000000  1.000000  1.000000  0.000000
 ScaDFX=  0.000000  0.000000  0.000000  0.000000  0.000000  0.000000
 IRadAn=      5 IRanWt=     -1 IRanGd=            0 ICorTp=0 IEmpDi=  4
 NAtoms=   19 NActive=   19 NUniq=   19 SFac= 1.00D+00 NAtFMM=   60 NAOKFM=F Big=F
 Integral buffers will be    131072 words long.
 Raffenetti 1 integral format.
 Two-electron integral symmetry is turned on.
 Leave Link  301 at Fri Mar 14 15:26:45 2025, MaxMem=   104857600 cpu:               0.0 elap:               0.0
 (Enter /home/enzo/gaussian_versions/gdv.j21/gdv/l402.exe)
 UFF calculation of energy.
 Energy per function type:
 Direct Coulomb + vdW (small)                           0.021336430
 Direct Coulomb (large)                                 0.000000000
 Direct vdW (large)                                   877.647668253
 Non-direct Coulomb + vdW (small)                      -0.004281524
 Non-direct Coulomb (large)                             0.000000000
 Non-direct vdW (large)                              -877.647668253
 Harmonic stretch III                                   0.007948429
 UFF 3-term bend                                        0.003170141
 UFF 2-term bend                                        0.009967494
 UFF torsion fixed V                                    0.002468885
 UFF torsion w/ bond order V                            0.000503128
 UFF torsion w/ sp3 V                                   0.000093333
 Three term Wilson angle                                0.000000712
 Energy per function class:
        Coulomb               0.000000000
    Vanderwaals               0.017054905
     Stretching               0.007948429
        Bending               0.013137635
        Torsion               0.003065345
   Out-of-plane               0.000000712
 Energy=    4.120702632E-02 NIter=   0.
 Dipole moment=       0.000000       0.000000       0.000000
 Leave Link  402 at Fri Mar 14 15:26:45 2025, MaxMem=   104857600 cpu:               0.0 elap:               0.0
 (Enter /home/enzo/gaussian_versions/gdv.j21/gdv/l9999.exe)
 Unable to Open any file for archive entry.
 1\1\GINC-ORACLE\SP\UFF\ZDO\C5H9N1O3S1\ENZO\14-Mar-2025\0\\#p UFF GEOM=
 READALLGIC OUTPUT=PICKETT\\individuo_5272_opt.xyz\\0,1\C,0,2.892474,-0
 .960003,1.113937\C,0,1.89438,0.076119,0.597789\S,0,2.64869,1.251718,-0
 .624055\C,0,0.690826,-0.602041,-0.064335\O,0,0.826084,-1.522211,-0.864
 288\N,0,-0.53022,-0.123123,0.295555\C,0,-1.733188,-0.605737,-0.341575\
 C,0,-2.905786,0.235468,0.113518\O,0,-2.829399,1.179382,0.870484\O,0,-4
 .060725,-0.193761,-0.430508\H,0,3.778542,-0.46971,1.525386\H,0,2.43173
 2,-1.572789,1.89907\H,0,3.194132,-1.626177,0.30144\H,0,1.565823,0.7287
 99,1.413994\H,0,2.818883,0.325124,-1.592033\H,0,-0.632418,0.700691,0.8
 75438\H,0,-1.654473,-0.559849,-1.435853\H,0,-1.926176,-1.657709,-0.095
 618\H,0,-4.763466,0.395877,-0.097334\\Version=ES64L-GDVRevJ.21\HF=0.04
 1207\RMSD=0.000e+00\Dipole=0.,0.,0.\PG=C01 [X(C5H9N1O3S1)]\\@
 The archive entry for this job was punched.
 DoSRE=F DoSRN=F DoDH=F DoFC=F DoNQ=F DoQCD=F DoSCD=F
 Inertia tensor (amu-bohr**2): 
                 1             2             3 
      1   0.769187D+03 -0.247363D+02  0.409916D+02
      2  -0.247363D+02  0.379675D+04 -0.784911D+01
      3   0.409916D+02 -0.784911D+01  0.403061D+04
 Principal inertia moments (amu-bohr**2):
 Iaa = 0.768471D+03 Ibb= 0.379666D+04 Icc= 0.403141D+04
 Rotation matrix to Principal Axis frame: 
                 1             2             3 
      1   0.999888D+00 -0.769316D-02  0.128206D-01
      2   0.813502D-02  0.999362D+00 -0.347773D-01
      3  -0.125449D-01  0.348777D-01  0.999313D+00
                Principal axis orientation:                
 ---------------------------------------------------------------------
 Center     Atomic                     Coordinates (Angstroms)
 Number     Number                        X           Y           Z
 ---------------------------------------------------------------------
      1          6                    2.899532   -0.964951    1.201673
      2          6                    1.916453    0.060187    0.637050
      3         16                    2.695570    1.186618   -0.615168
      4          6                    0.715823   -0.631375   -0.016464
      5          8                    0.853616   -1.579899   -0.782133
      6          7                   -0.505705   -0.130816    0.310868
      7          6                   -1.704472   -0.626090   -0.324463
      8          6                   -2.875805    0.239472    0.086029
      9          8                   -2.801244    1.208598    0.810628
     10          8                   -4.027282   -0.199572   -0.457502
     11          1                    3.784328   -0.467437    1.607148
     12          1                    2.424007   -1.546417    2.001671
     13          1                    3.205929   -1.661358    0.416770
     14          1                    1.583003    0.743445    1.425784
     15          1                    2.870349    0.225545   -1.548074
     16          1                   -0.608465    0.713483    0.860393
     17          1                   -1.611665   -0.619002   -1.418576
     18          1                   -1.909082   -1.667327   -0.044564
     19          1                   -4.729327    0.406716   -0.154073
 ---------------------------------------------------------------------
 Rotational constants (MHZ):
   2348.4817954    475.3492658    447.6702497
 Dipole moment (Debye):
      0.0000000      0.0000000      0.0000000  Tot=      0.0000000

 Atoms with significant hyperfine tensors: 

--------------------------------------------------------------------------------
 individuo_5272_opt.xyz                                  
   99  1000  50  0.1760E-11  0.1000E+07  0.1000E+01 1.0000000000
a   1  0  0  0  1  1   1  0  1  0
     10000   0.23484818E+04    0.0000E+00   /  A  /
     20000   0.47534927E+03    0.0000E+00   /  B  /
     30000   0.44767025E+03    0.0000E+00   /  C  /
--------------------------------------------------------------------------------



 WE HAVE LEFT UNDONE THOSE THINGS WHICH WE OUGHT TO HAVE DONE,
 AND WE HAVE DONE THOSE THINGS WHICH WE OUGHT NOT TO HAVE DONE.
                   BOOK OF COMMON PRAYER                      
 Job cpu time:       0 days  0 hours  0 minutes  0.2 seconds.
 Elapsed time:       0 days  0 hours  0 minutes  0.2 seconds.
 File lengths (MBytes):  RWF=     14 Int=      0 D2E=      0 Chk=      9 Scr=      1
 Normal termination of Gaussian DV at Fri Mar 14 15:26:45 2025.
