 Entering Gaussian System, Link 0=gdv
 Input=joint_population/temp_processing/individuo_3340_opt.gjf
 Output=joint_population/temp_processing/individuo_3340_opt.log
 Initial command:
 /home/enzo/gaussian_versions/gdv.j21/gdv/l1.exe "/local/home/enzo/scratch/Gau-2409137.inp" -scrdir="/local/home/enzo/scratch/"
 Entering Link 1 = /home/enzo/gaussian_versions/gdv.j21/gdv/l1.exe PID=   2409138.
  
 Copyright (c) 1988-2022, Gaussian, Inc.  All Rights Reserved.
  
 This is the private, development version of
 the Gaussian(R) DV system of programs. It is based on
 the Gaussian(R) 16 system (copyright 2016, Gaussian, Inc.),
 the Gaussian(R) 09 system (copyright 2009, Gaussian, Inc.),
 the Gaussian(R) 03 system (copyright 2003, Gaussian, Inc.),
 the Gaussian(R) 98 system (copyright 1998, Gaussian, Inc.),
 the Gaussian(R) 94 system (copyright 1995, Gaussian, Inc.),
 the Gaussian 92(TM) system (copyright 1992, Gaussian, Inc.),
 the Gaussian 90(TM) system (copyright 1990, Gaussian, Inc.),
 the Gaussian 88(TM) system (copyright 1988, Gaussian, Inc.),
 the Gaussian 86(TM) system (copyright 1986, Carnegie Mellon
 University), and the Gaussian 82(TM) system (copyright 1983,
 Carnegie Mellon University). Gaussian is a federally registered
 trademark of Gaussian, Inc.
  
 This software contains proprietary and confidential information,
 including trade secrets, belonging to Gaussian, Inc.
  
 This software is provided under written license and may be
 used, copied, transmitted, or stored only in accord with that
 written license.
  
 The following legend is applicable only to US Government
 contracts under FAR:
  
                    RESTRICTED RIGHTS LEGEND
  
 Use, reproduction and disclosure by the US Government is
 subject to restrictions as set forth in subparagraphs (a)
 and (c) of the Commercial Computer Software - Restricted
 Rights clause in FAR 52.227-19.
  
 Gaussian, Inc.
 340 Quinnipiac St., Bldg. 40, Wallingford CT 06492
  
  
 ---------------------------------------------------------------
 Warning -- This program may not be used in any manner that
 competes with the business of Gaussian, Inc. or will provide
 assistance to any competitor of Gaussian, Inc.  The licensee
 of this program is prohibited from giving any competitor of
 Gaussian, Inc. access to this program.  By using this program,
 the user acknowledges that Gaussian, Inc. is engaged in the
 business of creating and licensing software in the field of
 computational chemistry and represents and warrants to the
 licensee that it is not a competitor of Gaussian, Inc. and that
 it will not use this program in any manner prohibited above.
 ---------------------------------------------------------------
  

 Cite this work as:
 Gaussian Development Version, Revision J.21,
 M. J. Frisch, G. W. Trucks, H. B. Schlegel, G. E. Scuseria, 
 M. A. Robb, J. R. Cheeseman, G. Scalmani, V. Barone, 
 G. A. Petersson, H. Nakatsuji, X. Li, A. V. Marenich, M. Caricato, 
 J. Bloino, B. G. Janesko, J. Zheng, R. Gomperts, B. Mennucci, 
 H. P. Hratchian, J. V. Ortiz, A. F. Izmaylov, J. L. Sonnenberg, 
 D. Williams-Young, F. Ding, F. Lipparini, F. Egidi, J. Goings, 
 B. Peng, A. Petrone, T. Henderson, D. Ranasinghe, V. G. Zakrzewski, 
 J. Gao, N. Rega, G. Zheng, W. Liang, M. Hada, M. Ehara, K. Toyota, 
 R. Fukuda, J. Hasegawa, M. Ishida, T. Nakajima, Y. Honda, O. Kitao, 
 H. Nakai, T. Vreven, K. Throssell, J. A. Montgomery, Jr., 
 J. E. Peralta, F. Ogliaro, M. J. Bearpark, J. J. Heyd, 
 E. N. Brothers, K. N. Kudin, V. N. Staroverov, T. A. Keith, 
 R. Kobayashi, J. Normand, K. Raghavachari, A. P. Rendell, 
 J. C. Burant, S. S. Iyengar, J. Tomasi, M. Cossi, J. M. Millam, 
 M. Klene, C. Adamo, R. Cammi, J. W. Ochterski, R. L. Martin, 
 K. Morokuma, O. Farkas, J. B. Foresman, and D. J. Fox, 
 Gaussian, Inc., Wallingford CT, 2020.
 
 ******************************************
 Gaussian DV:  ES64L-GDVRevJ.21 25-Jul-2022
                14-Mar-2025 
 ******************************************
 -------------------------------------
 #p UFF GEOM=READALLGIC OUTPUT=PICKETT
 -------------------------------------
 1/18=20,37=210000000,38=1,56=1,64=2,145=602,172=1/1;
 2/12=2/2;
 3/5=30,11=9,25=1,30=1,41=10020000,43=2/1;
 4/20=10,24=3/2;
 99/5=1,9=1,10=1024/99;
 Leave Link    1 at Fri Mar 14 15:26:39 2025, MaxMem=           0 cpu:               0.0 elap:               0.0
 (Enter /home/enzo/gaussian_versions/gdv.j21/gdv/l101.exe)
 ----------------------
 individuo_3340_opt.xyz
 ----------------------
 Symbolic Z-matrix:
 Charge =     0 Multiplicity =     1
 6                     3.11839  -1.00022   0.4407 
 6                     1.90742  -0.07301   0.53044 
 16                    2.16577   1.53682  -0.35724 
 6                     0.65285  -0.74263  -0.03962 
 8                     0.69152  -1.40013  -1.07198 
 7                    -0.4908   -0.56492   0.69304 
 6                    -1.77882  -0.98575   0.18403 
 6                    -2.79624   0.128    -0.01386 
 8                    -3.86567  -0.02731  -0.55377 
 8                    -2.3959    1.30609   0.52216 
 1                     4.01904  -0.49089   0.79295 
 1                     2.95628  -1.89581   1.05339 
 1                     3.26776  -1.324    -0.59242 
 1                     1.73906   0.2325    1.56915 
 1                     2.19889   0.9925   -1.59297 
 1                    -0.48523   0.12413   1.43223 
 1                    -1.60896  -1.4744   -0.77873 
 1                    -2.24769  -1.72838   0.84385 
 1                    -3.1172    1.94214   0.3557 
 
 Initializing the GIC definitions file.

 CrInp1: Reading the GIC input below.
 Dihed1 = D( 15, 3, 2, 14)
 Dihed2 = D( 3, 2, 4, 5)
 Dihed3 = D( 4, 6, 7, 8)
 Dihed4 = D( 6, 7, 8, 9)
 Dihed5 = D( 9, 8, 10, 19)
 
 Warning:  Number of GICs=     5 3N-6=    51.
 ITRead=  0  0  0  0  0  0  0  0  0  0  0  0  0  0  0  0  0  0  0
 MicOpt= -1 -1 -1 -1 -1 -1 -1 -1 -1 -1 -1 -1 -1 -1 -1 -1 -1 -1 -1
                           ----------------------------
                           !    Current Parameters    !
                           ! (Angstroms and Degrees)  !
 --------------------------                            --------------------------
 ! Name   Definition             Value                                          !
 --------------------------------------------------------------------------------
 ! Dihed1 D(15,3,2,14)        -173.4528                                         !
 ! Dihed2 D(3,2,4,5)            82.4361                                         !
 ! Dihed3 D(4,6,7,8)          -117.9368                                         !
 ! Dihed4 D(6,7,8,9)           172.2495                                         !
 ! Dihed5 D(9,8,10,19)          -1.2421                                         !
 --------------------------------------------------------------------------------
 NAtoms=     19 NQM=       19 NQMF=       0 NMMI=      0 NMMIF=      0
                NMic=       0 NMicF=      0.
                    Isotopes and Nuclear Properties:
 (Nuclear quadrupole moments (NQMom) in fm**2, nuclear magnetic moments (NMagM)
  in nuclear magnetons)

  Atom         1           2           3           4           5           6           7           8           9          10
 IAtWgt=          12          12          32          12          16          14          12          12          16          16
 AtmWgt=  12.0000000  12.0000000  31.9720718  12.0000000  15.9949146  14.0030740  12.0000000  12.0000000  15.9949146  15.9949146
 NucSpn=           0           0           0           0           0           2           0           0           0           0
 AtZEff=  -0.0000000  -0.0000000  -0.0000000  -0.0000000  -0.0000000  -0.0000000  -0.0000000  -0.0000000  -0.0000000  -0.0000000
 NQMom=    0.0000000   0.0000000   0.0000000   0.0000000   0.0000000   2.0440000   0.0000000   0.0000000   0.0000000   0.0000000
 NMagM=    0.0000000   0.0000000   0.0000000   0.0000000   0.0000000   0.4037610   0.0000000   0.0000000   0.0000000   0.0000000
 AtZNuc=   6.0000000   6.0000000  16.0000000   6.0000000   8.0000000   7.0000000   6.0000000   6.0000000   8.0000000   8.0000000

  Atom        11          12          13          14          15          16          17          18          19
 IAtWgt=           1           1           1           1           1           1           1           1           1
 AtmWgt=   1.0078250   1.0078250   1.0078250   1.0078250   1.0078250   1.0078250   1.0078250   1.0078250   1.0078250
 NucSpn=           1           1           1           1           1           1           1           1           1
 AtZEff=  -0.0000000  -0.0000000  -0.0000000  -0.0000000  -0.0000000  -0.0000000  -0.0000000  -0.0000000  -0.0000000
 NQMom=    0.0000000   0.0000000   0.0000000   0.0000000   0.0000000   0.0000000   0.0000000   0.0000000   0.0000000
 NMagM=    2.7928460   2.7928460   2.7928460   2.7928460   2.7928460   2.7928460   2.7928460   2.7928460   2.7928460
 AtZNuc=   1.0000000   1.0000000   1.0000000   1.0000000   1.0000000   1.0000000   1.0000000   1.0000000   1.0000000
 Generating MM parameters.
 Include all MM classes

 MM sanity checks:
 All charges sum to:                0.00000000
 Charges of atoms sum to:           0.00000000
 MMInit generated parameter data with length LenPar=        2803.
 Leave Link  101 at Fri Mar 14 15:26:39 2025, MaxMem=   104857600 cpu:               0.1 elap:               0.1
 (Enter /home/enzo/gaussian_versions/gdv.j21/gdv/l202.exe)
                          Input orientation:                          
 ---------------------------------------------------------------------
 Center     Atomic      Atomic             Coordinates (Angstroms)
 Number     Number       Type             X           Y           Z
 ---------------------------------------------------------------------
      1          6    10061003        3.118386   -1.000221    0.440697
      2          6    10061003        1.907423   -0.073007    0.530443
      3         16    10161003        2.165774    1.536820   -0.357237
      4          6    10061000        0.652854   -0.742633   -0.039622
      5          8    10081002        0.691521   -1.400132   -1.071985
      6          7    10071000       -0.490796   -0.564920    0.693043
      7          6    10061003       -1.778822   -0.985752    0.184032
      8          6    10061000       -2.796241    0.128001   -0.013864
      9          8    10081002       -3.865672   -0.027311   -0.553773
     10          8    10081000       -2.395897    1.306091    0.522159
     11          1    10011000        4.019044   -0.490885    0.792949
     12          1    10011000        2.956284   -1.895811    1.053393
     13          1    10011000        3.267764   -1.323999   -0.592422
     14          1    10011000        1.739062    0.232496    1.569151
     15          1    10011000        2.198888    0.992499   -1.592966
     16          1    10011000       -0.485234    0.124133    1.432234
     17          1    10011000       -1.608957   -1.474397   -0.778727
     18          1    10011000       -2.247687   -1.728381    0.843845
     19          1    10011000       -3.117199    1.942144    0.355704
 ---------------------------------------------------------------------
                    Distance matrix (angstroms):
                    1          2          3          4          5
     1  C    0.000000
     2  C    1.527813   0.000000
     3  S    2.825021   1.856412   0.000000
     4  C    2.525056   1.532095   2.754217   0.000000
     5  O    2.887527   2.409866   3.363030   1.224571   0.000000
     6  N    3.644086   2.453543   3.546514   1.369787   2.282713
     7  C    4.903951   3.813333   4.713404   2.454012   2.802121
     8  C    6.038404   4.739317   5.169552   3.557376   3.952125
     9  O    7.121277   5.874201   6.234058   4.603598   4.787608
    10  O    5.977711   4.518909   4.651389   3.715878   4.404213
    11  H    1.093019   2.168519   2.978108   3.476749   3.921367
    12  H    1.097158   2.167072   3.794435   2.798266   3.145168
    13  H    1.092923   2.162483   3.074732   2.735202   2.621603
    14  H    2.166918   1.095715   2.365230   2.172297   3.276952
    15  H    2.992022   2.393558   1.350707   2.795314   2.875458
    16  H    3.902998   2.564546   3.496532   2.052532   3.158995
    17  H    4.905060   4.005340   4.847028   2.489487   2.320283
    18  H    5.430238   4.483684   5.619855   3.188315   3.523790
    19  H    6.895452   5.416474   5.346249   4.645171   5.264547
                    6          7          8          9         10
     6  N    0.000000
     7  C    1.447482   0.000000
     8  C    2.508971   1.521430   0.000000
     9  O    3.637769   2.412034   1.208017   0.000000
    10  O    2.675686   2.397427   1.354803   2.257394   0.000000
    11  H    4.511554   5.850720   6.890724   8.012322   6.667377
    12  H    3.712611   4.899513   6.190832   7.253507   6.259411
    13  H    4.044180   5.117160   6.262203   7.250435   6.343242
    14  H    2.525016   3.972177   4.804771   5.998946   4.398487
    15  H    3.858211   4.784702   5.309636   6.236892   5.067953
    16  H    1.010558   2.112634   2.726164   3.923585   2.424024
    17  H    2.059985   1.092947   2.135963   2.690246   3.169021
    18  H    2.112593   1.098492   2.117246   2.732188   3.055073
    19  H    3.646527   3.223864   1.879018   2.294801   0.975985
                   11         12         13         14         15
    11  H    0.000000
    12  H    1.780760   0.000000
    13  H    1.782625   1.769942   0.000000
    14  H    2.514774   2.505459   3.071157   0.000000
    15  H    3.347534   3.989887   2.740392   3.284513   0.000000
    16  H    4.590801   4.008459   4.503478   2.231139   4.136473
    17  H    5.925526   4.937173   4.882595   4.431168   4.609582
    18  H    6.387950   5.210879   5.713719   4.501697   5.754413
    19  H    7.552270   7.218301   7.234251   5.289482   5.741073
                   16         17         18         19
    16  H    0.000000
    17  H    2.950661   0.000000
    18  H    2.623785   1.762165   0.000000
    19  H    3.375103   3.903137   3.803562   0.000000
 Stoichiometry    C5H9NO3S
 Framework group  C1[X(C5H9NO3S)]
 Deg. of freedom    51
 Full point group                 C1      NOp   1
 Largest Abelian subgroup         C1      NOp   1
 Largest concise Abelian subgroup C1      NOp   1
                         Standard orientation:                         
 ---------------------------------------------------------------------
 Center     Atomic      Atomic             Coordinates (Angstroms)
 Number     Number       Type             X           Y           Z
 ---------------------------------------------------------------------
      1          6    10061003       -3.118386   -1.000221   -0.440697
      2          6    10061003       -1.907423   -0.073007   -0.530443
      3         16    10161003       -2.165774    1.536820    0.357237
      4          6    10061000       -0.652854   -0.742633    0.039622
      5          8    10081002       -0.691521   -1.400132    1.071985
      6          7    10071000        0.490796   -0.564920   -0.693043
      7          6    10061003        1.778822   -0.985752   -0.184032
      8          6    10061000        2.796241    0.128001    0.013864
      9          8    10081002        3.865672   -0.027311    0.553773
     10          8    10081000        2.395897    1.306091   -0.522159
     11          1    10011000       -4.019044   -0.490885   -0.792949
     12          1    10011000       -2.956284   -1.895811   -1.053393
     13          1    10011000       -3.267764   -1.323999    0.592422
     14          1    10011000       -1.739062    0.232496   -1.569151
     15          1    10011000       -2.198888    0.992499    1.592966
     16          1    10011000        0.485234    0.124133   -1.432234
     17          1    10011000        1.608957   -1.474397    0.778727
     18          1    10011000        2.247687   -1.728381   -0.843845
     19          1    10011000        3.117199    1.942144   -0.355704
 ---------------------------------------------------------------------
 Rotational constants (GHZ):           2.1068936           0.5580620           0.4882155
 Leave Link  202 at Fri Mar 14 15:26:39 2025, MaxMem=   104857600 cpu:               0.0 elap:               0.0
 (Enter /home/enzo/gaussian_versions/gdv.j21/gdv/l301.exe)
 Standard basis: Dummy (5D, 7F)
 There are    19 symmetry adapted cartesian basis functions of A   symmetry.
 There are    19 symmetry adapted basis functions of A   symmetry.
    19 basis functions,    19 primitive gaussians,    19 cartesian basis functions
    14 alpha electrons       14 beta electrons
       nuclear repulsion energy        68.9201866007 Hartrees.
 IExCor=         0 DFT=F Ex=HF Corr=None N6=None ScaHFX=  1.000000
 ScaDFX=  1.000000  1.000000  1.000000  1.000000  1.000000  0.000000
 ScaDFX=  0.000000  0.000000  0.000000  0.000000  0.000000  0.000000
 IRadAn=      5 IRanWt=     -1 IRanGd=            0 ICorTp=0 IEmpDi=  4
 NAtoms=   19 NActive=   19 NUniq=   19 SFac= 1.00D+00 NAtFMM=   60 NAOKFM=F Big=F
 Integral buffers will be    131072 words long.
 Raffenetti 1 integral format.
 Two-electron integral symmetry is turned on.
 Leave Link  301 at Fri Mar 14 15:26:39 2025, MaxMem=   104857600 cpu:               0.0 elap:               0.0
 (Enter /home/enzo/gaussian_versions/gdv.j21/gdv/l402.exe)
 UFF calculation of energy.
 Energy per function type:
 Direct Coulomb + vdW (small)                           0.019970407
 Direct Coulomb (large)                                 0.000000000
 Direct vdW (large)                                   883.495514160
 Non-direct Coulomb + vdW (small)                      -0.004191346
 Non-direct Coulomb (large)                             0.000000000
 Non-direct vdW (large)                              -883.495514160
 Harmonic stretch III                                   0.009497439
 UFF 3-term bend                                        0.006011746
 UFF 2-term bend                                        0.008286388
 UFF torsion fixed V                                    0.001645783
 UFF torsion w/ bond order V                            0.001383210
 UFF torsion w/ sp3 V                                   0.000076518
 Three term Wilson angle                                0.000051477
 Energy per function class:
        Coulomb               0.000000000
    Vanderwaals               0.015779060
     Stretching               0.009497439
        Bending               0.014298134
        Torsion               0.003105511
   Out-of-plane               0.000051477
 Energy=    4.273162092E-02 NIter=   0.
 Dipole moment=       0.000000       0.000000       0.000000
 Leave Link  402 at Fri Mar 14 15:26:39 2025, MaxMem=   104857600 cpu:               0.0 elap:               0.0
 (Enter /home/enzo/gaussian_versions/gdv.j21/gdv/l9999.exe)
 Unable to Open any file for archive entry.
 1\1\GINC-ORACLE\SP\UFF\ZDO\C5H9N1O3S1\ENZO\14-Mar-2025\0\\#p UFF GEOM=
 READALLGIC OUTPUT=PICKETT\\individuo_3340_opt.xyz\\0,1\C,0,3.118386,-1
 .000221,0.440697\C,0,1.907423,-0.073007,0.530443\S,0,2.165774,1.53682,
 -0.357237\C,0,0.652854,-0.742633,-0.039622\O,0,0.691521,-1.400132,-1.0
 71985\N,0,-0.490796,-0.56492,0.693043\C,0,-1.778822,-0.985752,0.184032
 \C,0,-2.796241,0.128001,-0.013864\O,0,-3.865672,-0.027311,-0.553773\O,
 0,-2.395897,1.306091,0.522159\H,0,4.019044,-0.490885,0.792949\H,0,2.95
 6284,-1.895811,1.053393\H,0,3.267764,-1.323999,-0.592422\H,0,1.739062,
 0.232496,1.569151\H,0,2.198888,0.992499,-1.592966\H,0,-0.485234,0.1241
 33,1.432234\H,0,-1.608957,-1.474397,-0.778727\H,0,-2.247687,-1.728381,
 0.843845\H,0,-3.117199,1.942144,0.355704\\Version=ES64L-GDVRevJ.21\HF=
 0.0427316\RMSD=0.000e+00\Dipole=0.,0.,0.\PG=C01 [X(C5H9N1O3S1)]\\@
 The archive entry for this job was punched.
 DoSRE=F DoSRN=F DoDH=F DoFC=F DoNQ=F DoQCD=F DoSCD=F
 Inertia tensor (amu-bohr**2): 
                 1             2             3 
      1   0.857047D+03 -0.327709D+02  0.442806D+01
      2  -0.327709D+02  0.323364D+04 -0.825389D+01
      3   0.442806D+01 -0.825389D+01  0.369645D+04
 Principal inertia moments (amu-bohr**2):
 Iaa = 0.856589D+03 Ibb= 0.323394D+04 Icc= 0.369661D+04
 Rotation matrix to Principal Axis frame: 
                 1             2             3 
      1   0.999904D+00 -0.137503D-01  0.176633D-02
      2   0.137798D-01  0.999744D+00 -0.179504D-01
      3  -0.151905D-02  0.179730D-01  0.999837D+00
                Principal axis orientation:                
 ---------------------------------------------------------------------
 Center     Atomic                     Coordinates (Angstroms)
 Number     Number                        X           Y           Z
 ---------------------------------------------------------------------
      1          6                    3.144417   -1.056921    0.483203
      2          6                    1.946211   -0.111681    0.554152
      3         16                    2.228069    1.478228   -0.361825
      4          6                    0.683401   -0.774130   -0.006016
      5          8                    0.714572   -1.450547   -1.026341
      6          7                   -0.458803   -0.567569    0.721319
      7          6                   -1.751731   -0.979731    0.217670
      8          6                   -2.753404    0.144170   -0.001983
      9          8                   -3.824053   -0.006101   -0.540905
     10          8                   -2.337679    1.326087    0.513513
     11          1                    4.051472   -0.553769    0.827846
     12          1                    2.969059   -1.939041    1.111589
     13          1                    3.290889   -1.401238   -0.543672
     14          1                    1.780498    0.214728    1.586910
     15          1                    2.255556    0.911381   -1.587523
     16          1                   -0.444869    0.134517    1.448031
     17          1                   -1.587153   -1.487890   -0.735861
     18          1                   -2.231787   -1.703864    0.889878
     19          1                   -3.049894    1.968904    0.334393
 ---------------------------------------------------------------------
 Rotational constants (MHZ):
   2106.8936044    558.0620318    488.2155452
 Dipole moment (Debye):
      0.0000000      0.0000000      0.0000000  Tot=      0.0000000

 Atoms with significant hyperfine tensors: 

--------------------------------------------------------------------------------
 individuo_3340_opt.xyz                                  
   99  1000  50  0.1760E-11  0.1000E+07  0.1000E+01 1.0000000000
a   1  0  0  0  1  1   1  0  1  0
     10000   0.21068936E+04    0.0000E+00   /  A  /
     20000   0.55806203E+03    0.0000E+00   /  B  /
     30000   0.48821555E+03    0.0000E+00   /  C  /
--------------------------------------------------------------------------------



 THE REASON MAN'S BEST FRIEND IS A DOG IS BECAUSE
 HE WAGS HIS TAIL INSTEAD OF HIS TONGUE.
 Job cpu time:       0 days  0 hours  0 minutes  0.2 seconds.
 Elapsed time:       0 days  0 hours  0 minutes  0.2 seconds.
 File lengths (MBytes):  RWF=     14 Int=      0 D2E=      0 Chk=      9 Scr=      1
 Normal termination of Gaussian DV at Fri Mar 14 15:26:39 2025.
