 Entering Gaussian System, Link 0=gdv
 Input=joint_population/temp_processing/individuo_9542_opt.gjf
 Output=joint_population/temp_processing/individuo_9542_opt.log
 Initial command:
 /home/enzo/gaussian_versions/gdv.j21/gdv/l1.exe "/local/home/enzo/scratch/Gau-2409167.inp" -scrdir="/local/home/enzo/scratch/"
 Entering Link 1 = /home/enzo/gaussian_versions/gdv.j21/gdv/l1.exe PID=   2409168.
  
 Copyright (c) 1988-2022, Gaussian, Inc.  All Rights Reserved.
  
 This is the private, development version of
 the Gaussian(R) DV system of programs. It is based on
 the Gaussian(R) 16 system (copyright 2016, Gaussian, Inc.),
 the Gaussian(R) 09 system (copyright 2009, Gaussian, Inc.),
 the Gaussian(R) 03 system (copyright 2003, Gaussian, Inc.),
 the Gaussian(R) 98 system (copyright 1998, Gaussian, Inc.),
 the Gaussian(R) 94 system (copyright 1995, Gaussian, Inc.),
 the Gaussian 92(TM) system (copyright 1992, Gaussian, Inc.),
 the Gaussian 90(TM) system (copyright 1990, Gaussian, Inc.),
 the Gaussian 88(TM) system (copyright 1988, Gaussian, Inc.),
 the Gaussian 86(TM) system (copyright 1986, Carnegie Mellon
 University), and the Gaussian 82(TM) system (copyright 1983,
 Carnegie Mellon University). Gaussian is a federally registered
 trademark of Gaussian, Inc.
  
 This software contains proprietary and confidential information,
 including trade secrets, belonging to Gaussian, Inc.
  
 This software is provided under written license and may be
 used, copied, transmitted, or stored only in accord with that
 written license.
  
 The following legend is applicable only to US Government
 contracts under FAR:
  
                    RESTRICTED RIGHTS LEGEND
  
 Use, reproduction and disclosure by the US Government is
 subject to restrictions as set forth in subparagraphs (a)
 and (c) of the Commercial Computer Software - Restricted
 Rights clause in FAR 52.227-19.
  
 Gaussian, Inc.
 340 Quinnipiac St., Bldg. 40, Wallingford CT 06492
  
  
 ---------------------------------------------------------------
 Warning -- This program may not be used in any manner that
 competes with the business of Gaussian, Inc. or will provide
 assistance to any competitor of Gaussian, Inc.  The licensee
 of this program is prohibited from giving any competitor of
 Gaussian, Inc. access to this program.  By using this program,
 the user acknowledges that Gaussian, Inc. is engaged in the
 business of creating and licensing software in the field of
 computational chemistry and represents and warrants to the
 licensee that it is not a competitor of Gaussian, Inc. and that
 it will not use this program in any manner prohibited above.
 ---------------------------------------------------------------
  

 Cite this work as:
 Gaussian Development Version, Revision J.21,
 M. J. Frisch, G. W. Trucks, H. B. Schlegel, G. E. Scuseria, 
 M. A. Robb, J. R. Cheeseman, G. Scalmani, V. Barone, 
 G. A. Petersson, H. Nakatsuji, X. Li, A. V. Marenich, M. Caricato, 
 J. Bloino, B. G. Janesko, J. Zheng, R. Gomperts, B. Mennucci, 
 H. P. Hratchian, J. V. Ortiz, A. F. Izmaylov, J. L. Sonnenberg, 
 D. Williams-Young, F. Ding, F. Lipparini, F. Egidi, J. Goings, 
 B. Peng, A. Petrone, T. Henderson, D. Ranasinghe, V. G. Zakrzewski, 
 J. Gao, N. Rega, G. Zheng, W. Liang, M. Hada, M. Ehara, K. Toyota, 
 R. Fukuda, J. Hasegawa, M. Ishida, T. Nakajima, Y. Honda, O. Kitao, 
 H. Nakai, T. Vreven, K. Throssell, J. A. Montgomery, Jr., 
 J. E. Peralta, F. Ogliaro, M. J. Bearpark, J. J. Heyd, 
 E. N. Brothers, K. N. Kudin, V. N. Staroverov, T. A. Keith, 
 R. Kobayashi, J. Normand, K. Raghavachari, A. P. Rendell, 
 J. C. Burant, S. S. Iyengar, J. Tomasi, M. Cossi, J. M. Millam, 
 M. Klene, C. Adamo, R. Cammi, J. W. Ochterski, R. L. Martin, 
 K. Morokuma, O. Farkas, J. B. Foresman, and D. J. Fox, 
 Gaussian, Inc., Wallingford CT, 2020.
 
 ******************************************
 Gaussian DV:  ES64L-GDVRevJ.21 25-Jul-2022
                14-Mar-2025 
 ******************************************
 -------------------------------------
 #p UFF GEOM=READALLGIC OUTPUT=PICKETT
 -------------------------------------
 1/18=20,37=210000000,38=1,56=1,64=2,145=602,172=1/1;
 2/12=2/2;
 3/5=30,11=9,25=1,30=1,41=10020000,43=2/1;
 4/20=10,24=3/2;
 99/5=1,9=1,10=1024/99;
 Leave Link    1 at Fri Mar 14 15:26:42 2025, MaxMem=           0 cpu:               0.0 elap:               0.0
 (Enter /home/enzo/gaussian_versions/gdv.j21/gdv/l101.exe)
 ----------------------
 individuo_9542_opt.xyz
 ----------------------
 Symbolic Z-matrix:
 Charge =     0 Multiplicity =     1
 6                     2.99293  -0.97568   0.94576 
 6                     1.90484   0.03321   0.58166 
 16                    2.63793   1.26113  -0.60784 
 6                     0.6988   -0.66608  -0.05744 
 8                     0.79389  -1.6798   -0.73645 
 7                    -0.50146  -0.06157   0.17881 
 6                    -1.72544  -0.59623  -0.36873 
 6                    -2.89095   0.234     0.12286 
 8                    -2.79751   1.18651   0.86767 
 8                    -4.06034  -0.21577  -0.3703 
 1                     3.87795  -0.46879   1.3418 
 1                     2.61874  -1.66635   1.70896 
 1                     3.27007  -1.56328   0.06754 
 1                     1.59133   0.58588   1.47401 
 1                     1.51879   1.99521  -0.79222 
 1                    -0.59619   0.73755   0.79327 
 1                    -1.71387  -0.59094  -1.46648 
 1                    -1.87465  -1.6433   -0.07398 
 1                    -4.75828   0.36414  -0.01095 
 
 Initializing the GIC definitions file.

 CrInp1: Reading the GIC input below.
 Dihed1 = D( 15, 3, 2, 14)
 Dihed2 = D( 3, 2, 4, 5)
 Dihed3 = D( 4, 6, 7, 8)
 Dihed4 = D( 6, 7, 8, 9)
 Dihed5 = D( 9, 8, 10, 19)
 
 Warning:  Number of GICs=     5 3N-6=    51.
 ITRead=  0  0  0  0  0  0  0  0  0  0  0  0  0  0  0  0  0  0  0
 MicOpt= -1 -1 -1 -1 -1 -1 -1 -1 -1 -1 -1 -1 -1 -1 -1 -1 -1 -1 -1
                           ----------------------------
                           !    Current Parameters    !
                           ! (Angstroms and Degrees)  !
 --------------------------                            --------------------------
 ! Name   Definition             Value                                          !
 --------------------------------------------------------------------------------
 ! Dihed1 D(15,3,2,14)         -62.5877                                         !
 ! Dihed2 D(3,2,4,5)            88.0079                                         !
 ! Dihed3 D(4,6,7,8)           176.8623                                         !
 ! Dihed4 D(6,7,8,9)            -0.6163                                         !
 ! Dihed5 D(9,8,10,19)          -0.0387                                         !
 --------------------------------------------------------------------------------
 NAtoms=     19 NQM=       19 NQMF=       0 NMMI=      0 NMMIF=      0
                NMic=       0 NMicF=      0.
                    Isotopes and Nuclear Properties:
 (Nuclear quadrupole moments (NQMom) in fm**2, nuclear magnetic moments (NMagM)
  in nuclear magnetons)

  Atom         1           2           3           4           5           6           7           8           9          10
 IAtWgt=          12          12          32          12          16          14          12          12          16          16
 AtmWgt=  12.0000000  12.0000000  31.9720718  12.0000000  15.9949146  14.0030740  12.0000000  12.0000000  15.9949146  15.9949146
 NucSpn=           0           0           0           0           0           2           0           0           0           0
 AtZEff=  -0.0000000  -0.0000000  -0.0000000  -0.0000000  -0.0000000  -0.0000000  -0.0000000  -0.0000000  -0.0000000  -0.0000000
 NQMom=    0.0000000   0.0000000   0.0000000   0.0000000   0.0000000   2.0440000   0.0000000   0.0000000   0.0000000   0.0000000
 NMagM=    0.0000000   0.0000000   0.0000000   0.0000000   0.0000000   0.4037610   0.0000000   0.0000000   0.0000000   0.0000000
 AtZNuc=   6.0000000   6.0000000  16.0000000   6.0000000   8.0000000   7.0000000   6.0000000   6.0000000   8.0000000   8.0000000

  Atom        11          12          13          14          15          16          17          18          19
 IAtWgt=           1           1           1           1           1           1           1           1           1
 AtmWgt=   1.0078250   1.0078250   1.0078250   1.0078250   1.0078250   1.0078250   1.0078250   1.0078250   1.0078250
 NucSpn=           1           1           1           1           1           1           1           1           1
 AtZEff=  -0.0000000  -0.0000000  -0.0000000  -0.0000000  -0.0000000  -0.0000000  -0.0000000  -0.0000000  -0.0000000
 NQMom=    0.0000000   0.0000000   0.0000000   0.0000000   0.0000000   0.0000000   0.0000000   0.0000000   0.0000000
 NMagM=    2.7928460   2.7928460   2.7928460   2.7928460   2.7928460   2.7928460   2.7928460   2.7928460   2.7928460
 AtZNuc=   1.0000000   1.0000000   1.0000000   1.0000000   1.0000000   1.0000000   1.0000000   1.0000000   1.0000000
 Generating MM parameters.
 Include all MM classes

 MM sanity checks:
 All charges sum to:                0.00000000
 Charges of atoms sum to:           0.00000000
 MMInit generated parameter data with length LenPar=        2803.
 Leave Link  101 at Fri Mar 14 15:26:42 2025, MaxMem=   104857600 cpu:               0.1 elap:               0.1
 (Enter /home/enzo/gaussian_versions/gdv.j21/gdv/l202.exe)
                          Input orientation:                          
 ---------------------------------------------------------------------
 Center     Atomic      Atomic             Coordinates (Angstroms)
 Number     Number       Type             X           Y           Z
 ---------------------------------------------------------------------
      1          6    10061003        2.992931   -0.975682    0.945760
      2          6    10061003        1.904844    0.033205    0.581655
      3         16    10161003        2.637929    1.261132   -0.607843
      4          6    10061000        0.698798   -0.666083   -0.057442
      5          8    10081002        0.793889   -1.679800   -0.736450
      6          7    10071000       -0.501457   -0.061569    0.178811
      7          6    10061003       -1.725441   -0.596231   -0.368732
      8          6    10061000       -2.890946    0.233998    0.122855
      9          8    10081002       -2.797510    1.186506    0.867666
     10          8    10081000       -4.060337   -0.215765   -0.370304
     11          1    10011000        3.877948   -0.468793    1.341798
     12          1    10011000        2.618743   -1.666347    1.708956
     13          1    10011000        3.270072   -1.563276    0.067536
     14          1    10011000        1.591330    0.585878    1.474012
     15          1    10011000        1.518787    1.995206   -0.792218
     16          1    10011000       -0.596186    0.737546    0.793268
     17          1    10011000       -1.713866   -0.590942   -1.466479
     18          1    10011000       -1.874654   -1.643300   -0.073981
     19          1    10011000       -4.758283    0.364135   -0.010949
 ---------------------------------------------------------------------
                    Distance matrix (angstroms):
                    1          2          3          4          5
     1  C    0.000000
     2  C    1.527861   0.000000
     3  S    2.746461   1.860141   0.000000
     4  C    2.522957   1.533622   2.788786   0.000000
     5  O    2.856816   2.430228   3.473630   1.223812   0.000000
     6  N    3.692501   2.441629   3.496299   1.364502   2.265898
     7  C    4.912729   3.805049   4.748260   2.445141   2.767013
     8  C    6.063044   4.821869   5.670748   3.705255   4.240169
     9  O    6.181453   4.850159   5.632645   4.063506   4.866934
    10  O    7.215129   6.045792   6.863266   4.790619   5.083402
    11  H    1.094092   2.173237   2.886414   3.479050   3.911147
    12  H    1.095218   2.160772   3.733371   2.794079   3.051276
    13  H    1.092406   2.162618   2.972040   2.726174   2.606042
    14  H    2.163794   1.095463   2.425996   2.170109   3.264254
    15  H    3.744308   2.426111   1.351051   2.880058   3.746232
    16  H    3.979970   2.606919   3.563251   2.090661   3.180551
    17  H    5.302911   4.204697   4.806824   2.794992   2.829733
    18  H    5.017865   4.186303   5.392971   2.752795   2.749785
    19  H    7.924123   6.697608   7.474278   5.553669   5.960758
                    6          7          8          9         10
     6  N    0.000000
     7  C    1.443539   0.000000
     8  C    2.408350   1.513056   0.000000
     9  O    2.702605   2.419951   1.212743   0.000000
    10  O    3.604293   2.365691   1.346465   2.256915   0.000000
    11  H    4.549457   5.860045   6.913585   6.893951   8.124758
    12  H    3.827833   4.932937   6.040174   6.179186   7.144062
    13  H    4.061027   5.106922   6.418052   6.709475   7.466082
    14  H    2.544895   3.974174   4.694704   4.471054   5.998789
    15  H    3.042138   4.173716   4.835800   4.694638   6.016064
    16  H    1.012480   2.098671   2.443141   2.247872   3.776645
    17  H    2.111196   1.097821   2.142901   3.127593   2.616923
    18  H    2.109845   1.097951   2.143791   3.121885   2.627332
    19  H    4.282266   3.201319   1.876642   2.300628   0.975986
                   11         12         13         14         15
    11  H    0.000000
    12  H    1.776102   0.000000
    13  H    1.786379   1.768930   0.000000
    14  H    2.521593   2.486623   3.068422   0.000000
    15  H    4.023799   4.568670   4.058198   2.669694   0.000000
    16  H    4.666263   4.117397   4.557238   2.296006   2.927215
    17  H    6.258572   5.478265   5.304552   4.577741   4.194381
    18  H    6.039563   4.834254   5.147294   4.402109   5.026931
    19  H    8.781126   7.842286   8.256849   6.524712   6.532410
                   16         17         18         19
    16  H    0.000000
    17  H    2.849657   0.000000
    18  H    2.838138   1.752815   0.000000
    19  H    4.255497   3.507024   3.514126   0.000000
 Stoichiometry    C5H9NO3S
 Framework group  C1[X(C5H9NO3S)]
 Deg. of freedom    51
 Full point group                 C1      NOp   1
 Largest Abelian subgroup         C1      NOp   1
 Largest concise Abelian subgroup C1      NOp   1
                         Standard orientation:                         
 ---------------------------------------------------------------------
 Center     Atomic      Atomic             Coordinates (Angstroms)
 Number     Number       Type             X           Y           Z
 ---------------------------------------------------------------------
      1          6    10061003       -2.992931    0.975682    0.945760
      2          6    10061003       -1.904844   -0.033205    0.581655
      3         16    10161003       -2.637929   -1.261132   -0.607843
      4          6    10061000       -0.698798    0.666083   -0.057442
      5          8    10081002       -0.793889    1.679800   -0.736450
      6          7    10071000        0.501457    0.061569    0.178811
      7          6    10061003        1.725441    0.596231   -0.368732
      8          6    10061000        2.890946   -0.233998    0.122855
      9          8    10081002        2.797510   -1.186506    0.867666
     10          8    10081000        4.060337    0.215765   -0.370304
     11          1    10011000       -3.877948    0.468793    1.341798
     12          1    10011000       -2.618743    1.666347    1.708956
     13          1    10011000       -3.270072    1.563276    0.067536
     14          1    10011000       -1.591330   -0.585878    1.474012
     15          1    10011000       -1.518787   -1.995206   -0.792218
     16          1    10011000        0.596186   -0.737546    0.793268
     17          1    10011000        1.713866    0.590942   -1.466479
     18          1    10011000        1.874654    1.643300   -0.073981
     19          1    10011000        4.758283   -0.364135   -0.010949
 ---------------------------------------------------------------------
 Rotational constants (GHZ):           2.3345355           0.4825661           0.4433157
 Leave Link  202 at Fri Mar 14 15:26:42 2025, MaxMem=   104857600 cpu:               0.0 elap:               0.0
 (Enter /home/enzo/gaussian_versions/gdv.j21/gdv/l301.exe)
 Standard basis: Dummy (5D, 7F)
 There are    19 symmetry adapted cartesian basis functions of A   symmetry.
 There are    19 symmetry adapted basis functions of A   symmetry.
    19 basis functions,    19 primitive gaussians,    19 cartesian basis functions
    14 alpha electrons       14 beta electrons
       nuclear repulsion energy        68.3290545253 Hartrees.
 IExCor=         0 DFT=F Ex=HF Corr=None N6=None ScaHFX=  1.000000
 ScaDFX=  1.000000  1.000000  1.000000  1.000000  1.000000  0.000000
 ScaDFX=  0.000000  0.000000  0.000000  0.000000  0.000000  0.000000
 IRadAn=      5 IRanWt=     -1 IRanGd=            0 ICorTp=0 IEmpDi=  4
 NAtoms=   19 NActive=   19 NUniq=   19 SFac= 1.00D+00 NAtFMM=   60 NAOKFM=F Big=F
 Integral buffers will be    131072 words long.
 Raffenetti 1 integral format.
 Two-electron integral symmetry is turned on.
 Leave Link  301 at Fri Mar 14 15:26:42 2025, MaxMem=   104857600 cpu:               0.0 elap:               0.0
 (Enter /home/enzo/gaussian_versions/gdv.j21/gdv/l402.exe)
 UFF calculation of energy.
 Energy per function type:
 Direct Coulomb + vdW (small)                           0.028516332
 Direct Coulomb (large)                                 0.000000000
 Direct vdW (large)                                   879.589763785
 Non-direct Coulomb + vdW (small)                      -0.011238617
 Non-direct Coulomb (large)                             0.000000000
 Non-direct vdW (large)                              -879.589763785
 Harmonic stretch III                                   0.007951908
 UFF 3-term bend                                        0.002161939
 UFF 2-term bend                                        0.010935616
 UFF torsion fixed V                                    0.003201747
 UFF torsion w/ bond order V                            0.000137733
 UFF torsion w/ sp3 V                                   0.000042097
 Three term Wilson angle                                0.000003125
 Energy per function class:
        Coulomb               0.000000000
    Vanderwaals               0.017277715
     Stretching               0.007951908
        Bending               0.013097555
        Torsion               0.003381578
   Out-of-plane               0.000003125
 Energy=    4.171188149E-02 NIter=   0.
 Dipole moment=       0.000000       0.000000       0.000000
 Leave Link  402 at Fri Mar 14 15:26:42 2025, MaxMem=   104857600 cpu:               0.0 elap:               0.0
 (Enter /home/enzo/gaussian_versions/gdv.j21/gdv/l9999.exe)
 Unable to Open any file for archive entry.
 1\1\GINC-ORACLE\SP\UFF\ZDO\C5H9N1O3S1\ENZO\14-Mar-2025\0\\#p UFF GEOM=
 READALLGIC OUTPUT=PICKETT\\individuo_9542_opt.xyz\\0,1\C,0,2.992931,-0
 .975682,0.94576\C,0,1.904844,0.033205,0.581655\S,0,2.637929,1.261132,-
 0.607843\C,0,0.698798,-0.666083,-0.057442\O,0,0.793889,-1.6798,-0.7364
 5\N,0,-0.501457,-0.061569,0.178811\C,0,-1.725441,-0.596231,-0.368732\C
 ,0,-2.890946,0.233998,0.122855\O,0,-2.79751,1.186506,0.867666\O,0,-4.0
 60337,-0.215765,-0.370304\H,0,3.877948,-0.468793,1.341798\H,0,2.618743
 ,-1.666347,1.708956\H,0,3.270072,-1.563276,0.067536\H,0,1.59133,0.5858
 78,1.474012\H,0,1.518787,1.995206,-0.792218\H,0,-0.596186,0.737546,0.7
 93268\H,0,-1.713866,-0.590942,-1.466479\H,0,-1.874654,-1.6433,-0.07398
 1\H,0,-4.758283,0.364135,-0.010949\\Version=ES64L-GDVRevJ.21\HF=0.0417
 119\RMSD=0.000e+00\Dipole=0.,0.,0.\PG=C01 [X(C5H9N1O3S1)]\\@
 The archive entry for this job was punched.
 DoSRE=F DoSRN=F DoDH=F DoFC=F DoNQ=F DoQCD=F DoSCD=F
 Inertia tensor (amu-bohr**2): 
                 1             2             3 
      1   0.773856D+03 -0.190959D+02  0.471015D+02
      2  -0.190959D+02  0.374007D+04 -0.985140D+01
      3   0.471015D+02 -0.985140D+01  0.407002D+04
 Principal inertia moments (amu-bohr**2):
 Iaa = 0.773062D+03 Ibb= 0.373988D+04 Icc= 0.407101D+04
 Rotation matrix to Principal Axis frame: 
                 1             2             3 
      1   0.999878D+00 -0.594795D-02  0.144545D-01
      2   0.638792D-02  0.999512D+00 -0.305855D-01
      3  -0.142655D-01  0.306741D-01  0.999428D+00
                Principal axis orientation:                
 ---------------------------------------------------------------------
 Center     Atomic                     Coordinates (Angstroms)
 Number     Number                        X           Y           Z
 ---------------------------------------------------------------------
      1          6                    2.996703   -0.977068    1.037472
      2          6                    1.920387    0.026630    0.626990
      3         16                    2.678195    1.213110   -0.588787
      4          6                    0.719139   -0.684747   -0.007786
      5          8                    0.817429   -1.719362   -0.654026
      6          7                   -0.480478   -0.066142    0.192493
      7          6                   -1.699917   -0.610058   -0.356075
      8          6                   -2.866989    0.241777    0.092991
      9          8                   -2.778105    1.216110    0.809593
     10          8                   -4.032075   -0.215938   -0.403033
     11          1                    3.879200   -0.463542    1.430572
     12          1                    2.607261   -1.641759    1.815946
     13          1                    3.282584   -1.592962    0.181728
     14          1                    1.597712    0.608270    1.497401
     15          1                    1.566510    1.947827   -0.811686
     16          1                   -0.578857    0.751994    0.780788
     17          1                   -1.672650   -0.638513   -1.453188
     18          1                   -1.860005   -1.646687   -0.031625
     19          1                   -4.731358    0.378853   -0.071708
 ---------------------------------------------------------------------
 Rotational constants (MHZ):
   2334.5355019    482.5661243    443.3156898
 Dipole moment (Debye):
      0.0000000      0.0000000      0.0000000  Tot=      0.0000000

 Atoms with significant hyperfine tensors: 

--------------------------------------------------------------------------------
 individuo_9542_opt.xyz                                  
   99  1000  50  0.1760E-11  0.1000E+07  0.1000E+01 1.0000000000
a   1  0  0  0  1  1   1  0  1  0
     10000   0.23345355E+04    0.0000E+00   /  A  /
     20000   0.48256612E+03    0.0000E+00   /  B  /
     30000   0.44331569E+03    0.0000E+00   /  C  /
--------------------------------------------------------------------------------



 THE REAL VOYAGE OF DISCOVERY CONSISTS NOT IN SEEKING NEW LANDSCAPES 
 BUT IN HAVING NEW EYES.
                                                    -- MARCEL PROUST
 Job cpu time:       0 days  0 hours  0 minutes  0.2 seconds.
 Elapsed time:       0 days  0 hours  0 minutes  0.2 seconds.
 File lengths (MBytes):  RWF=     14 Int=      0 D2E=      0 Chk=      9 Scr=      1
 Normal termination of Gaussian DV at Fri Mar 14 15:26:42 2025.
