 Entering Gaussian System, Link 0=gdv
 Input=joint_population/temp_processing/individuo_4530_opt.gjf
 Output=joint_population/temp_processing/individuo_4530_opt.log
 Initial command:
 /home/enzo/gaussian_versions/gdv.j21/gdv/l1.exe "/local/home/enzo/scratch/Gau-2409187.inp" -scrdir="/local/home/enzo/scratch/"
 Entering Link 1 = /home/enzo/gaussian_versions/gdv.j21/gdv/l1.exe PID=   2409188.
  
 Copyright (c) 1988-2022, Gaussian, Inc.  All Rights Reserved.
  
 This is the private, development version of
 the Gaussian(R) DV system of programs. It is based on
 the Gaussian(R) 16 system (copyright 2016, Gaussian, Inc.),
 the Gaussian(R) 09 system (copyright 2009, Gaussian, Inc.),
 the Gaussian(R) 03 system (copyright 2003, Gaussian, Inc.),
 the Gaussian(R) 98 system (copyright 1998, Gaussian, Inc.),
 the Gaussian(R) 94 system (copyright 1995, Gaussian, Inc.),
 the Gaussian 92(TM) system (copyright 1992, Gaussian, Inc.),
 the Gaussian 90(TM) system (copyright 1990, Gaussian, Inc.),
 the Gaussian 88(TM) system (copyright 1988, Gaussian, Inc.),
 the Gaussian 86(TM) system (copyright 1986, Carnegie Mellon
 University), and the Gaussian 82(TM) system (copyright 1983,
 Carnegie Mellon University). Gaussian is a federally registered
 trademark of Gaussian, Inc.
  
 This software contains proprietary and confidential information,
 including trade secrets, belonging to Gaussian, Inc.
  
 This software is provided under written license and may be
 used, copied, transmitted, or stored only in accord with that
 written license.
  
 The following legend is applicable only to US Government
 contracts under FAR:
  
                    RESTRICTED RIGHTS LEGEND
  
 Use, reproduction and disclosure by the US Government is
 subject to restrictions as set forth in subparagraphs (a)
 and (c) of the Commercial Computer Software - Restricted
 Rights clause in FAR 52.227-19.
  
 Gaussian, Inc.
 340 Quinnipiac St., Bldg. 40, Wallingford CT 06492
  
  
 ---------------------------------------------------------------
 Warning -- This program may not be used in any manner that
 competes with the business of Gaussian, Inc. or will provide
 assistance to any competitor of Gaussian, Inc.  The licensee
 of this program is prohibited from giving any competitor of
 Gaussian, Inc. access to this program.  By using this program,
 the user acknowledges that Gaussian, Inc. is engaged in the
 business of creating and licensing software in the field of
 computational chemistry and represents and warrants to the
 licensee that it is not a competitor of Gaussian, Inc. and that
 it will not use this program in any manner prohibited above.
 ---------------------------------------------------------------
  

 Cite this work as:
 Gaussian Development Version, Revision J.21,
 M. J. Frisch, G. W. Trucks, H. B. Schlegel, G. E. Scuseria, 
 M. A. Robb, J. R. Cheeseman, G. Scalmani, V. Barone, 
 G. A. Petersson, H. Nakatsuji, X. Li, A. V. Marenich, M. Caricato, 
 J. Bloino, B. G. Janesko, J. Zheng, R. Gomperts, B. Mennucci, 
 H. P. Hratchian, J. V. Ortiz, A. F. Izmaylov, J. L. Sonnenberg, 
 D. Williams-Young, F. Ding, F. Lipparini, F. Egidi, J. Goings, 
 B. Peng, A. Petrone, T. Henderson, D. Ranasinghe, V. G. Zakrzewski, 
 J. Gao, N. Rega, G. Zheng, W. Liang, M. Hada, M. Ehara, K. Toyota, 
 R. Fukuda, J. Hasegawa, M. Ishida, T. Nakajima, Y. Honda, O. Kitao, 
 H. Nakai, T. Vreven, K. Throssell, J. A. Montgomery, Jr., 
 J. E. Peralta, F. Ogliaro, M. J. Bearpark, J. J. Heyd, 
 E. N. Brothers, K. N. Kudin, V. N. Staroverov, T. A. Keith, 
 R. Kobayashi, J. Normand, K. Raghavachari, A. P. Rendell, 
 J. C. Burant, S. S. Iyengar, J. Tomasi, M. Cossi, J. M. Millam, 
 M. Klene, C. Adamo, R. Cammi, J. W. Ochterski, R. L. Martin, 
 K. Morokuma, O. Farkas, J. B. Foresman, and D. J. Fox, 
 Gaussian, Inc., Wallingford CT, 2020.
 
 ******************************************
 Gaussian DV:  ES64L-GDVRevJ.21 25-Jul-2022
                14-Mar-2025 
 ******************************************
 -------------------------------------
 #p UFF GEOM=READALLGIC OUTPUT=PICKETT
 -------------------------------------
 1/18=20,37=210000000,38=1,56=1,64=2,145=602,172=1/1;
 2/12=2/2;
 3/5=30,11=9,25=1,30=1,41=10020000,43=2/1;
 4/20=10,24=3/2;
 99/5=1,9=1,10=1024/99;
 Leave Link    1 at Fri Mar 14 15:26:44 2025, MaxMem=           0 cpu:               0.0 elap:               0.0
 (Enter /home/enzo/gaussian_versions/gdv.j21/gdv/l101.exe)
 ----------------------
 individuo_4530_opt.xyz
 ----------------------
 Symbolic Z-matrix:
 Charge =     0 Multiplicity =     1
 6                     2.85713   0.93243   0.86556 
 6                     2.01481   0.31208  -0.25012 
 16                    2.12879  -1.5398   -0.27931 
 6                     0.57545   0.87598  -0.2416 
 8                     0.34803   1.98055   0.23591 
 7                    -0.37845   0.12078  -0.86077 
 6                    -1.7649    0.51933  -0.85336 
 6                    -2.66443  -0.20519   0.14142 
 8                    -3.86942  -0.10446   0.14478 
 8                    -1.97952  -0.96646   1.02625 
 1                     3.89926   0.61559   0.77588 
 1                     2.79868   2.02196   0.80737 
 1                     2.48406   0.6323    1.85061 
 1                     2.44556   0.58763  -1.22176 
 1                     1.66591  -1.74144   0.97419 
 1                    -0.13932  -0.83633  -1.08881 
 1                    -1.7955    1.58462  -0.60312 
 1                    -2.21856   0.39889  -1.8428 
 1                    -2.65247  -1.35685   1.61591 
 
 Initializing the GIC definitions file.

 CrInp1: Reading the GIC input below.
 Dihed1 = D( 15, 3, 2, 14)
 Dihed2 = D( 3, 2, 4, 5)
 Dihed3 = D( 4, 6, 7, 8)
 Dihed4 = D( 6, 7, 8, 9)
 Dihed5 = D( 9, 8, 10, 19)
 
 Warning:  Number of GICs=     5 3N-6=    51.
 ITRead=  0  0  0  0  0  0  0  0  0  0  0  0  0  0  0  0  0  0  0
 MicOpt= -1 -1 -1 -1 -1 -1 -1 -1 -1 -1 -1 -1 -1 -1 -1 -1 -1 -1 -1
                           ----------------------------
                           !    Current Parameters    !
                           ! (Angstroms and Degrees)  !
 --------------------------                            --------------------------
 ! Name   Definition             Value                                          !
 --------------------------------------------------------------------------------
 ! Dihed1 D(15,3,2,14)         176.0772                                         !
 ! Dihed2 D(3,2,4,5)           154.2161                                         !
 ! Dihed3 D(4,6,7,8)          -101.4329                                         !
 ! Dihed4 D(6,7,8,9)          -170.1456                                         !
 ! Dihed5 D(9,8,10,19)          -0.9539                                         !
 --------------------------------------------------------------------------------
 NAtoms=     19 NQM=       19 NQMF=       0 NMMI=      0 NMMIF=      0
                NMic=       0 NMicF=      0.
                    Isotopes and Nuclear Properties:
 (Nuclear quadrupole moments (NQMom) in fm**2, nuclear magnetic moments (NMagM)
  in nuclear magnetons)

  Atom         1           2           3           4           5           6           7           8           9          10
 IAtWgt=          12          12          32          12          16          14          12          12          16          16
 AtmWgt=  12.0000000  12.0000000  31.9720718  12.0000000  15.9949146  14.0030740  12.0000000  12.0000000  15.9949146  15.9949146
 NucSpn=           0           0           0           0           0           2           0           0           0           0
 AtZEff=  -0.0000000  -0.0000000  -0.0000000  -0.0000000  -0.0000000  -0.0000000  -0.0000000  -0.0000000  -0.0000000  -0.0000000
 NQMom=    0.0000000   0.0000000   0.0000000   0.0000000   0.0000000   2.0440000   0.0000000   0.0000000   0.0000000   0.0000000
 NMagM=    0.0000000   0.0000000   0.0000000   0.0000000   0.0000000   0.4037610   0.0000000   0.0000000   0.0000000   0.0000000
 AtZNuc=   6.0000000   6.0000000  16.0000000   6.0000000   8.0000000   7.0000000   6.0000000   6.0000000   8.0000000   8.0000000

  Atom        11          12          13          14          15          16          17          18          19
 IAtWgt=           1           1           1           1           1           1           1           1           1
 AtmWgt=   1.0078250   1.0078250   1.0078250   1.0078250   1.0078250   1.0078250   1.0078250   1.0078250   1.0078250
 NucSpn=           1           1           1           1           1           1           1           1           1
 AtZEff=  -0.0000000  -0.0000000  -0.0000000  -0.0000000  -0.0000000  -0.0000000  -0.0000000  -0.0000000  -0.0000000
 NQMom=    0.0000000   0.0000000   0.0000000   0.0000000   0.0000000   0.0000000   0.0000000   0.0000000   0.0000000
 NMagM=    2.7928460   2.7928460   2.7928460   2.7928460   2.7928460   2.7928460   2.7928460   2.7928460   2.7928460
 AtZNuc=   1.0000000   1.0000000   1.0000000   1.0000000   1.0000000   1.0000000   1.0000000   1.0000000   1.0000000
 Generating MM parameters.
 Include all MM classes

 MM sanity checks:
 All charges sum to:                0.00000000
 Charges of atoms sum to:           0.00000000
 MMInit generated parameter data with length LenPar=        2803.
 Leave Link  101 at Fri Mar 14 15:26:44 2025, MaxMem=   104857600 cpu:               0.1 elap:               0.1
 (Enter /home/enzo/gaussian_versions/gdv.j21/gdv/l202.exe)
                          Input orientation:                          
 ---------------------------------------------------------------------
 Center     Atomic      Atomic             Coordinates (Angstroms)
 Number     Number       Type             X           Y           Z
 ---------------------------------------------------------------------
      1          6    10061003        2.857126    0.932426    0.865557
      2          6    10061003        2.014807    0.312083   -0.250120
      3         16    10161003        2.128785   -1.539797   -0.279310
      4          6    10061000        0.575446    0.875979   -0.241598
      5          8    10081002        0.348027    1.980554    0.235913
      6          7    10071000       -0.378448    0.120779   -0.860774
      7          6    10061003       -1.764902    0.519333   -0.853358
      8          6    10061000       -2.664434   -0.205185    0.141415
      9          8    10081002       -3.869422   -0.104459    0.144775
     10          8    10081000       -1.979515   -0.966457    1.026254
     11          1    10011000        3.899260    0.615593    0.775877
     12          1    10011000        2.798679    2.021956    0.807370
     13          1    10011000        2.484055    0.632299    1.850607
     14          1    10011000        2.445555    0.587633   -1.221765
     15          1    10011000        1.665910   -1.741439    0.974189
     16          1    10011000       -0.139322   -0.836334   -1.088806
     17          1    10011000       -1.795502    1.584622   -0.603119
     18          1    10011000       -2.218560    0.398890   -1.842804
     19          1    10011000       -2.652469   -1.356846    1.615914
 ---------------------------------------------------------------------
                    Distance matrix (angstroms):
                    1          2          3          4          5
     1  C    0.000000
     2  C    1.529399   0.000000
     3  S    2.820122   1.855614   0.000000
     4  C    2.536738   1.545901   2.872326   0.000000
     5  O    2.791165   2.407941   3.978621   1.224672   0.000000
     6  N    3.756052   2.477330   3.062977   1.365145   2.277993
     7  C    4.948581   3.833151   4.441885   2.445133   2.790367
     8  C    5.683851   4.723999   4.993310   3.436923   3.723078
     9  O    6.844056   5.912157   6.182114   4.568084   4.705578
    10  O    5.198526   4.383880   4.348718   3.395563   3.837573
    11  H    1.092918   2.167014   2.982232   3.485799   3.842647
    12  H    1.092647   2.157871   3.783611   2.712261   2.516738
    13  H    1.095254   2.176186   3.062803   2.842444   2.997940
    14  H    2.155269   1.097983   2.348302   2.131004   2.909412
    15  H    2.929224   2.416116   1.351360   3.085146   4.016852
    16  H    3.990833   2.581187   2.508875   2.039772   3.150753
    17  H    4.922328   4.032669   5.026617   2.500853   2.335691
    18  H    5.777756   4.523889   5.010232   3.255448   3.661980
    19  H    6.013272   5.296307   5.146429   4.342268   4.695276
                    6          7          8          9         10
     6  N    0.000000
     7  C    1.442621   0.000000
     8  C    2.517214   1.524355   0.000000
     9  O    3.639885   2.411305   1.209195   0.000000
    10  O    2.703030   2.405529   1.353362   2.256500   0.000000
    11  H    4.606762   5.894608   6.645171   7.827463   6.093075
    12  H    4.060950   5.083519   5.937108   7.030238   5.640005
    13  H    3.975822   5.037641   5.489049   6.619618   4.812384
    14  H    2.885006   4.227096   5.347785   6.498104   5.200964
    15  H    3.318787   4.496831   4.669633   5.831598   3.727255
    16  H    1.012544   2.129737   2.878886   3.996374   2.806550
    17  H    2.053598   1.094713   2.124331   2.777316   3.032610
    18  H    2.104220   1.095133   2.121517   2.632333   3.186347
    19  H    3.672673   3.225698   1.870993   2.283352   0.976202
                   11         12         13         14         15
    11  H    0.000000
    12  H    1.786093   0.000000
    13  H    1.777113   1.765921   0.000000
    14  H    2.470752   2.509854   3.072938   0.000000
    15  H    3.253118   3.933718   2.659342   3.294638   0.000000
    16  H    4.679239   4.516321   4.204657   2.954141   2.886871
    17  H    5.938936   4.825685   5.024171   4.400372   5.052916
    18  H    6.658241   5.901733   5.984175   4.709064   5.254100
    19  H    6.893572   6.464137   5.513226   6.150063   4.382707
                   16         17         18         19
    16  H    0.000000
    17  H    2.973189   0.000000
    18  H    2.533283   1.766850   0.000000
    19  H    3.728586   3.782953   3.903027   0.000000
 Stoichiometry    C5H9NO3S
 Framework group  C1[X(C5H9NO3S)]
 Deg. of freedom    51
 Full point group                 C1      NOp   1
 Largest Abelian subgroup         C1      NOp   1
 Largest concise Abelian subgroup C1      NOp   1
                         Standard orientation:                         
 ---------------------------------------------------------------------
 Center     Atomic      Atomic             Coordinates (Angstroms)
 Number     Number       Type             X           Y           Z
 ---------------------------------------------------------------------
      1          6    10061003        2.857126    0.932426    0.865557
      2          6    10061003        2.014807    0.312083   -0.250120
      3         16    10161003        2.128785   -1.539797   -0.279310
      4          6    10061000        0.575446    0.875979   -0.241598
      5          8    10081002        0.348027    1.980554    0.235913
      6          7    10071000       -0.378448    0.120779   -0.860774
      7          6    10061003       -1.764902    0.519333   -0.853358
      8          6    10061000       -2.664434   -0.205185    0.141415
      9          8    10081002       -3.869422   -0.104459    0.144775
     10          8    10081000       -1.979515   -0.966457    1.026254
     11          1    10011000        3.899260    0.615593    0.775877
     12          1    10011000        2.798679    2.021956    0.807370
     13          1    10011000        2.484055    0.632299    1.850607
     14          1    10011000        2.445555    0.587633   -1.221765
     15          1    10011000        1.665910   -1.741439    0.974189
     16          1    10011000       -0.139322   -0.836334   -1.088806
     17          1    10011000       -1.795502    1.584622   -0.603119
     18          1    10011000       -2.218560    0.398890   -1.842804
     19          1    10011000       -2.652469   -1.356846    1.615914
 ---------------------------------------------------------------------
 Rotational constants (GHZ):           1.9675246           0.5996768           0.5212022
 Leave Link  202 at Fri Mar 14 15:26:44 2025, MaxMem=   104857600 cpu:               0.0 elap:               0.0
 (Enter /home/enzo/gaussian_versions/gdv.j21/gdv/l301.exe)
 Standard basis: Dummy (5D, 7F)
 There are    19 symmetry adapted cartesian basis functions of A   symmetry.
 There are    19 symmetry adapted basis functions of A   symmetry.
    19 basis functions,    19 primitive gaussians,    19 cartesian basis functions
    14 alpha electrons       14 beta electrons
       nuclear repulsion energy        69.4235953226 Hartrees.
 IExCor=         0 DFT=F Ex=HF Corr=None N6=None ScaHFX=  1.000000
 ScaDFX=  1.000000  1.000000  1.000000  1.000000  1.000000  0.000000
 ScaDFX=  0.000000  0.000000  0.000000  0.000000  0.000000  0.000000
 IRadAn=      5 IRanWt=     -1 IRanGd=            0 ICorTp=0 IEmpDi=  4
 NAtoms=   19 NActive=   19 NUniq=   19 SFac= 1.00D+00 NAtFMM=   60 NAOKFM=F Big=F
 Integral buffers will be    131072 words long.
 Raffenetti 1 integral format.
 Two-electron integral symmetry is turned on.
 Leave Link  301 at Fri Mar 14 15:26:44 2025, MaxMem=   104857600 cpu:               0.0 elap:               0.0
 (Enter /home/enzo/gaussian_versions/gdv.j21/gdv/l402.exe)
 UFF calculation of energy.
 Energy per function type:
 Direct Coulomb + vdW (small)                           0.031392007
 Direct Coulomb (large)                                 0.000000000
 Direct vdW (large)                                   881.109863398
 Non-direct Coulomb + vdW (small)                      -0.012117038
 Non-direct Coulomb (large)                             0.000000000
 Non-direct vdW (large)                              -881.109863398
 Harmonic stretch III                                   0.010027665
 UFF 3-term bend                                        0.009305233
 UFF 2-term bend                                        0.006780097
 UFF torsion fixed V                                    0.002503362
 UFF torsion w/ bond order V                            0.001154305
 UFF torsion w/ sp3 V                                   0.000093659
 Three term Wilson angle                                0.000156964
 Energy per function class:
        Coulomb               0.000000000
    Vanderwaals               0.019274968
     Stretching               0.010027665
        Bending               0.016085330
        Torsion               0.003751325
   Out-of-plane               0.000156964
 Energy=    4.929625209E-02 NIter=   0.
 Dipole moment=       0.000000       0.000000       0.000000
 Leave Link  402 at Fri Mar 14 15:26:44 2025, MaxMem=   104857600 cpu:               0.0 elap:               0.0
 (Enter /home/enzo/gaussian_versions/gdv.j21/gdv/l9999.exe)
 Unable to Open any file for archive entry.
 1\1\GINC-ORACLE\SP\UFF\ZDO\C5H9N1O3S1\ENZO\14-Mar-2025\0\\#p UFF GEOM=
 READALLGIC OUTPUT=PICKETT\\individuo_4530_opt.xyz\\0,1\C,0,2.857126,0.
 932426,0.865557\C,0,2.014807,0.312083,-0.25012\S,0,2.128785,-1.539797,
 -0.27931\C,0,0.575446,0.875979,-0.241598\O,0,0.348027,1.980554,0.23591
 3\N,0,-0.378448,0.120779,-0.860774\C,0,-1.764902,0.519333,-0.853358\C,
 0,-2.664434,-0.205185,0.141415\O,0,-3.869422,-0.104459,0.144775\O,0,-1
 .979515,-0.966457,1.026254\H,0,3.89926,0.615593,0.775877\H,0,2.798679,
 2.021956,0.80737\H,0,2.484055,0.632299,1.850607\H,0,2.445555,0.587633,
 -1.221765\H,0,1.66591,-1.741439,0.974189\H,0,-0.139322,-0.836334,-1.08
 8806\H,0,-1.795502,1.584622,-0.603119\H,0,-2.21856,0.39889,-1.842804\H
 ,0,-2.652469,-1.356846,1.615914\\Version=ES64L-GDVRevJ.21\HF=0.0492963
 \RMSD=0.000e+00\Dipole=0.,0.,0.\PG=C01 [X(C5H9N1O3S1)]\\@
 The archive entry for this job was punched.
 DoSRE=F DoSRN=F DoDH=F DoFC=F DoNQ=F DoQCD=F DoSCD=F
 Inertia tensor (amu-bohr**2): 
                 1             2             3 
      1   0.918118D+03  0.288714D+02  0.339200D+02
      2   0.288714D+02  0.300923D+04 -0.737962D+01
      3   0.339200D+02 -0.737962D+01  0.346209D+04
 Principal inertia moments (amu-bohr**2):
 Iaa = 0.917265D+03 Ibb= 0.300952D+04 Icc= 0.346265D+04
 Rotation matrix to Principal Axis frame: 
                 1             2             3 
      1   0.999815D+00  0.140492D-01  0.131527D-01
      2  -0.138457D-01  0.999785D+00 -0.154346D-01
      3  -0.133667D-01  0.152496D-01  0.999794D+00
                Principal axis orientation:                
 ---------------------------------------------------------------------
 Center     Atomic                     Coordinates (Angstroms)
 Number     Number                        X           Y           Z
 ---------------------------------------------------------------------
      1          6                    2.871532    0.997602    0.896637
      2          6                    2.052871    0.348545   -0.220315
      3         16                    2.192858   -1.501781   -0.219416
      4          6                    0.605855    0.892228   -0.239429
      5          8                    0.356802    2.000652    0.217944
      6          7                   -0.329130    0.114347   -0.859368
      7          6                   -1.720944    0.493450   -0.876341
      8          6                   -2.623575   -0.228380    0.117579
      9          8                   -3.829780   -0.144554    0.103535
     10          8                   -1.940070   -0.966373    1.022995
     11          1                    3.919058    0.694111    0.825573
     12          1                    2.798788    2.085190    0.820877
     13          1                    2.489518    0.707320    1.881210
     14          1                    2.492711    0.615270   -1.190347
     15          1                    1.716106   -1.690767    1.030849
     16          1                   -0.073748   -0.842678   -1.069435
     17          1                   -1.769633    1.561896   -0.642998
     18          1                   -2.159625    0.351570   -1.869691
     19          1                   -2.615376   -1.357140    1.609708
 ---------------------------------------------------------------------
 Rotational constants (MHZ):
   1967.5245978    599.6767683    521.2021680
 Dipole moment (Debye):
      0.0000000      0.0000000      0.0000000  Tot=      0.0000000

 Atoms with significant hyperfine tensors: 

--------------------------------------------------------------------------------
 individuo_4530_opt.xyz                                  
   99  1000  50  0.1760E-11  0.1000E+07  0.1000E+01 1.0000000000
a   1  0  0  0  1  1   1  0  1  0
     10000   0.19675246E+04    0.0000E+00   /  A  /
     20000   0.59967677E+03    0.0000E+00   /  B  /
     30000   0.52120217E+03    0.0000E+00   /  C  /
--------------------------------------------------------------------------------



 COMMON SENSE IS NOT SO COMMON.   -- VOLTAIRE
 Job cpu time:       0 days  0 hours  0 minutes  0.2 seconds.
 Elapsed time:       0 days  0 hours  0 minutes  0.2 seconds.
 File lengths (MBytes):  RWF=     14 Int=      0 D2E=      0 Chk=      9 Scr=      1
 Normal termination of Gaussian DV at Fri Mar 14 15:26:44 2025.
