 Entering Gaussian System, Link 0=gdv
 Input=joint_population/temp_processing/individuo_3638_opt.gjf
 Output=joint_population/temp_processing/individuo_3638_opt.log
 Initial command:
 /home/enzo/gaussian_versions/gdv.j21/gdv/l1.exe "/local/home/enzo/scratch/Gau-2409141.inp" -scrdir="/local/home/enzo/scratch/"
 Entering Link 1 = /home/enzo/gaussian_versions/gdv.j21/gdv/l1.exe PID=   2409142.
  
 Copyright (c) 1988-2022, Gaussian, Inc.  All Rights Reserved.
  
 This is the private, development version of
 the Gaussian(R) DV system of programs. It is based on
 the Gaussian(R) 16 system (copyright 2016, Gaussian, Inc.),
 the Gaussian(R) 09 system (copyright 2009, Gaussian, Inc.),
 the Gaussian(R) 03 system (copyright 2003, Gaussian, Inc.),
 the Gaussian(R) 98 system (copyright 1998, Gaussian, Inc.),
 the Gaussian(R) 94 system (copyright 1995, Gaussian, Inc.),
 the Gaussian 92(TM) system (copyright 1992, Gaussian, Inc.),
 the Gaussian 90(TM) system (copyright 1990, Gaussian, Inc.),
 the Gaussian 88(TM) system (copyright 1988, Gaussian, Inc.),
 the Gaussian 86(TM) system (copyright 1986, Carnegie Mellon
 University), and the Gaussian 82(TM) system (copyright 1983,
 Carnegie Mellon University). Gaussian is a federally registered
 trademark of Gaussian, Inc.
  
 This software contains proprietary and confidential information,
 including trade secrets, belonging to Gaussian, Inc.
  
 This software is provided under written license and may be
 used, copied, transmitted, or stored only in accord with that
 written license.
  
 The following legend is applicable only to US Government
 contracts under FAR:
  
                    RESTRICTED RIGHTS LEGEND
  
 Use, reproduction and disclosure by the US Government is
 subject to restrictions as set forth in subparagraphs (a)
 and (c) of the Commercial Computer Software - Restricted
 Rights clause in FAR 52.227-19.
  
 Gaussian, Inc.
 340 Quinnipiac St., Bldg. 40, Wallingford CT 06492
  
  
 ---------------------------------------------------------------
 Warning -- This program may not be used in any manner that
 competes with the business of Gaussian, Inc. or will provide
 assistance to any competitor of Gaussian, Inc.  The licensee
 of this program is prohibited from giving any competitor of
 Gaussian, Inc. access to this program.  By using this program,
 the user acknowledges that Gaussian, Inc. is engaged in the
 business of creating and licensing software in the field of
 computational chemistry and represents and warrants to the
 licensee that it is not a competitor of Gaussian, Inc. and that
 it will not use this program in any manner prohibited above.
 ---------------------------------------------------------------
  

 Cite this work as:
 Gaussian Development Version, Revision J.21,
 M. J. Frisch, G. W. Trucks, H. B. Schlegel, G. E. Scuseria, 
 M. A. Robb, J. R. Cheeseman, G. Scalmani, V. Barone, 
 G. A. Petersson, H. Nakatsuji, X. Li, A. V. Marenich, M. Caricato, 
 J. Bloino, B. G. Janesko, J. Zheng, R. Gomperts, B. Mennucci, 
 H. P. Hratchian, J. V. Ortiz, A. F. Izmaylov, J. L. Sonnenberg, 
 D. Williams-Young, F. Ding, F. Lipparini, F. Egidi, J. Goings, 
 B. Peng, A. Petrone, T. Henderson, D. Ranasinghe, V. G. Zakrzewski, 
 J. Gao, N. Rega, G. Zheng, W. Liang, M. Hada, M. Ehara, K. Toyota, 
 R. Fukuda, J. Hasegawa, M. Ishida, T. Nakajima, Y. Honda, O. Kitao, 
 H. Nakai, T. Vreven, K. Throssell, J. A. Montgomery, Jr., 
 J. E. Peralta, F. Ogliaro, M. J. Bearpark, J. J. Heyd, 
 E. N. Brothers, K. N. Kudin, V. N. Staroverov, T. A. Keith, 
 R. Kobayashi, J. Normand, K. Raghavachari, A. P. Rendell, 
 J. C. Burant, S. S. Iyengar, J. Tomasi, M. Cossi, J. M. Millam, 
 M. Klene, C. Adamo, R. Cammi, J. W. Ochterski, R. L. Martin, 
 K. Morokuma, O. Farkas, J. B. Foresman, and D. J. Fox, 
 Gaussian, Inc., Wallingford CT, 2020.
 
 ******************************************
 Gaussian DV:  ES64L-GDVRevJ.21 25-Jul-2022
                14-Mar-2025 
 ******************************************
 -------------------------------------
 #p UFF GEOM=READALLGIC OUTPUT=PICKETT
 -------------------------------------
 1/18=20,37=210000000,38=1,56=1,64=2,145=602,172=1/1;
 2/12=2/2;
 3/5=30,11=9,25=1,30=1,41=10020000,43=2/1;
 4/20=10,24=3/2;
 99/5=1,9=1,10=1024/99;
 Leave Link    1 at Fri Mar 14 15:26:39 2025, MaxMem=           0 cpu:               0.0 elap:               0.0
 (Enter /home/enzo/gaussian_versions/gdv.j21/gdv/l101.exe)
 ----------------------
 individuo_3638_opt.xyz
 ----------------------
 Symbolic Z-matrix:
 Charge =     0 Multiplicity =     1
 6                    -3.22841   0.84914  -0.38766 
 6                    -2.09232   0.14584   0.35966 
 16                   -2.05364  -1.67846   0.03716 
 6                    -0.75535   0.89434   0.15799 
 8                    -0.74532   2.11834   0.0612 
 7                     0.38192   0.15768   0.14815 
 6                     1.66815   0.79937   0.02261 
 6                     2.7535   -0.25262  -0.04063 
 8                     2.56871  -1.44903   0.00425 
 8                     3.97392   0.31032  -0.15361 
 1                    -4.19192   0.40629  -0.12282 
 1                    -3.22853   1.91135  -0.13186 
 1                    -3.09416   0.7658   -1.47212 
 1                    -2.29722   0.19071   1.4372 
 1                    -2.01314  -1.59713  -1.31126 
 1                     0.35632  -0.85465   0.20193 
 1                     1.71594   1.42543  -0.8778 
 1                     1.86902   1.47375   0.86578 
 1                     4.61642  -0.42344  -0.18722 
 
 Initializing the GIC definitions file.

 CrInp1: Reading the GIC input below.
 Dihed1 = D( 15, 3, 2, 14)
 Dihed2 = D( 3, 2, 4, 5)
 Dihed3 = D( 4, 6, 7, 8)
 Dihed4 = D( 6, 7, 8, 9)
 Dihed5 = D( 9, 8, 10, 19)
 
 Warning:  Number of GICs=     5 3N-6=    51.
 ITRead=  0  0  0  0  0  0  0  0  0  0  0  0  0  0  0  0  0  0  0
 MicOpt= -1 -1 -1 -1 -1 -1 -1 -1 -1 -1 -1 -1 -1 -1 -1 -1 -1 -1 -1
                           ----------------------------
                           !    Current Parameters    !
                           ! (Angstroms and Degrees)  !
 --------------------------                            --------------------------
 ! Name   Definition             Value                                          !
 --------------------------------------------------------------------------------
 ! Dihed1 D(15,3,2,14)         170.8379                                         !
 ! Dihed2 D(3,2,4,5)           164.094                                          !
 ! Dihed3 D(4,6,7,8)          -176.7619                                         !
 ! Dihed4 D(6,7,8,9)             0.1582                                         !
 ! Dihed5 D(9,8,10,19)          -0.0073                                         !
 --------------------------------------------------------------------------------
 NAtoms=     19 NQM=       19 NQMF=       0 NMMI=      0 NMMIF=      0
                NMic=       0 NMicF=      0.
                    Isotopes and Nuclear Properties:
 (Nuclear quadrupole moments (NQMom) in fm**2, nuclear magnetic moments (NMagM)
  in nuclear magnetons)

  Atom         1           2           3           4           5           6           7           8           9          10
 IAtWgt=          12          12          32          12          16          14          12          12          16          16
 AtmWgt=  12.0000000  12.0000000  31.9720718  12.0000000  15.9949146  14.0030740  12.0000000  12.0000000  15.9949146  15.9949146
 NucSpn=           0           0           0           0           0           2           0           0           0           0
 AtZEff=  -0.0000000  -0.0000000  -0.0000000  -0.0000000  -0.0000000  -0.0000000  -0.0000000  -0.0000000  -0.0000000  -0.0000000
 NQMom=    0.0000000   0.0000000   0.0000000   0.0000000   0.0000000   2.0440000   0.0000000   0.0000000   0.0000000   0.0000000
 NMagM=    0.0000000   0.0000000   0.0000000   0.0000000   0.0000000   0.4037610   0.0000000   0.0000000   0.0000000   0.0000000
 AtZNuc=   6.0000000   6.0000000  16.0000000   6.0000000   8.0000000   7.0000000   6.0000000   6.0000000   8.0000000   8.0000000

  Atom        11          12          13          14          15          16          17          18          19
 IAtWgt=           1           1           1           1           1           1           1           1           1
 AtmWgt=   1.0078250   1.0078250   1.0078250   1.0078250   1.0078250   1.0078250   1.0078250   1.0078250   1.0078250
 NucSpn=           1           1           1           1           1           1           1           1           1
 AtZEff=  -0.0000000  -0.0000000  -0.0000000  -0.0000000  -0.0000000  -0.0000000  -0.0000000  -0.0000000  -0.0000000
 NQMom=    0.0000000   0.0000000   0.0000000   0.0000000   0.0000000   0.0000000   0.0000000   0.0000000   0.0000000
 NMagM=    2.7928460   2.7928460   2.7928460   2.7928460   2.7928460   2.7928460   2.7928460   2.7928460   2.7928460
 AtZNuc=   1.0000000   1.0000000   1.0000000   1.0000000   1.0000000   1.0000000   1.0000000   1.0000000   1.0000000
 Generating MM parameters.
 Include all MM classes

 MM sanity checks:
 All charges sum to:                0.00000000
 Charges of atoms sum to:           0.00000000
 MMInit generated parameter data with length LenPar=        2803.
 Leave Link  101 at Fri Mar 14 15:26:39 2025, MaxMem=   104857600 cpu:               0.1 elap:               0.1
 (Enter /home/enzo/gaussian_versions/gdv.j21/gdv/l202.exe)
                          Input orientation:                          
 ---------------------------------------------------------------------
 Center     Atomic      Atomic             Coordinates (Angstroms)
 Number     Number       Type             X           Y           Z
 ---------------------------------------------------------------------
      1          6    10061003       -3.228407    0.849138   -0.387658
      2          6    10061003       -2.092317    0.145837    0.359662
      3         16    10161003       -2.053636   -1.678455    0.037163
      4          6    10061000       -0.755351    0.894335    0.157985
      5          8    10081002       -0.745317    2.118341    0.061203
      6          7    10071000        0.381923    0.157675    0.148152
      7          6    10061003        1.668150    0.799374    0.022606
      8          6    10061000        2.753497   -0.252616   -0.040634
      9          8    10081002        2.568714   -1.449027    0.004246
     10          8    10081000        3.973921    0.310316   -0.153610
     11          1    10011000       -4.191916    0.406293   -0.122819
     12          1    10011000       -3.228525    1.911353   -0.131858
     13          1    10011000       -3.094159    0.765796   -1.472119
     14          1    10011000       -2.297221    0.190705    1.437201
     15          1    10011000       -2.013136   -1.597128   -1.311261
     16          1    10011000        0.356324   -0.854647    0.201930
     17          1    10011000        1.715937    1.425425   -0.877801
     18          1    10011000        1.869018    1.473745    0.865783
     19          1    10011000        4.616424   -0.423438   -0.187219
 ---------------------------------------------------------------------
                    Distance matrix (angstroms):
                    1          2          3          4          5
     1  C    0.000000
     2  C    1.530954   0.000000
     3  S    2.819448   1.852982   0.000000
     4  C    2.532938   1.545445   2.884335   0.000000
     5  O    2.824551   2.407127   4.015960   1.227867   0.000000
     6  N    3.714794   2.483292   3.052153   1.355049   2.263281
     7  C    4.913966   3.831688   4.471190   2.429136   2.750634
     8  C    6.092410   4.878618   5.014738   3.696885   4.227707
     9  O    6.248341   4.939142   4.628157   4.069937   4.869513
    10  O    7.226246   6.090135   6.350043   4.775373   5.058291
    11  H    1.092978   2.170009   2.990654   3.482386   3.852793
    12  H    1.092582   2.156295   3.780959   2.689781   2.499288
    13  H    1.095912   2.177948   3.055320   2.853732   3.114083
    14  H    2.151918   1.097765   2.348020   2.123406   2.831529
    15  H    2.883426   2.415819   1.351481   3.154060   4.158814
    16  H    4.012579   2.649847   2.552198   2.072846   3.173653
    17  H    5.001888   4.203743   4.967989   2.731698   2.723900
    18  H    5.286302   4.208524   5.100019   2.779210   2.810267
    19  H    7.949906   6.755025   6.790811   5.541810   5.938907
                    6          7          8          9         10
     6  N    0.000000
     7  C    1.442886   0.000000
     8  C    2.414196   1.512832   0.000000
     9  O    2.717399   2.422119   1.211428   0.000000
    10  O    3.607882   2.363643   1.348737   2.257169   0.000000
    11  H    4.588599   5.875035   6.977082   7.011738   8.166459
    12  H    4.023571   5.023722   6.362049   6.702138   7.378280
    13  H    3.883070   4.991484   6.105849   6.257254   7.204421
    14  H    2.973306   4.253907   5.281125   5.330985   6.470874
    15  H    3.308403   4.590674   5.113022   4.769260   6.389315
    16  H    1.014073   2.118686   2.483489   2.299356   3.817140
    17  H    2.106980   1.097705   2.143175   3.125334   2.620384
    18  H    2.111513   1.098213   2.141079   3.126406   2.612153
    19  H    4.287326   3.198690   1.876477   2.298175   0.975876
                   11         12         13         14         15
    11  H    0.000000
    12  H    1.787011   0.000000
    13  H    1.776210   1.768235   0.000000
    14  H    2.463739   2.507968   3.070828   0.000000
    15  H    3.189541   3.895844   2.603439   3.291063   0.000000
    16  H    4.730953   4.540189   4.163425   3.108047   2.907811
    17  H    6.042463   5.023969   4.891354   4.794706   4.819720
    18  H    6.233114   5.212651   5.531736   4.396619   5.407486
    19  H    8.847568   8.185202   7.906854   7.128422   6.825839
                   16         17         18         19
    16  H    0.000000
    17  H    2.865850   0.000000
    18  H    2.854882   1.750958   0.000000
    19  H    4.299515   3.508279   3.500908   0.000000
 Stoichiometry    C5H9NO3S
 Framework group  C1[X(C5H9NO3S)]
 Deg. of freedom    51
 Full point group                 C1      NOp   1
 Largest Abelian subgroup         C1      NOp   1
 Largest concise Abelian subgroup C1      NOp   1
                         Standard orientation:                         
 ---------------------------------------------------------------------
 Center     Atomic      Atomic             Coordinates (Angstroms)
 Number     Number       Type             X           Y           Z
 ---------------------------------------------------------------------
      1          6    10061003       -3.228407   -0.849138    0.387658
      2          6    10061003       -2.092317   -0.145837   -0.359662
      3         16    10161003       -2.053636    1.678455   -0.037163
      4          6    10061000       -0.755351   -0.894335   -0.157985
      5          8    10081002       -0.745317   -2.118341   -0.061203
      6          7    10071000        0.381923   -0.157675   -0.148152
      7          6    10061003        1.668150   -0.799374   -0.022606
      8          6    10061000        2.753497    0.252616    0.040634
      9          8    10081002        2.568714    1.449027   -0.004246
     10          8    10081000        3.973921   -0.310316    0.153610
     11          1    10011000       -4.191916   -0.406293    0.122819
     12          1    10011000       -3.228525   -1.911353    0.131858
     13          1    10011000       -3.094159   -0.765796    1.472119
     14          1    10011000       -2.297221   -0.190705   -1.437201
     15          1    10011000       -2.013136    1.597128    1.311261
     16          1    10011000        0.356324    0.854647   -0.201930
     17          1    10011000        1.715937   -1.425425    0.877801
     18          1    10011000        1.869018   -1.473745   -0.865783
     19          1    10011000        4.616424    0.423438    0.187219
 ---------------------------------------------------------------------
 Rotational constants (GHZ):           2.0342228           0.5615519           0.4495202
 Leave Link  202 at Fri Mar 14 15:26:39 2025, MaxMem=   104857600 cpu:               0.0 elap:               0.0
 (Enter /home/enzo/gaussian_versions/gdv.j21/gdv/l301.exe)
 Standard basis: Dummy (5D, 7F)
 There are    19 symmetry adapted cartesian basis functions of A   symmetry.
 There are    19 symmetry adapted basis functions of A   symmetry.
    19 basis functions,    19 primitive gaussians,    19 cartesian basis functions
    14 alpha electrons       14 beta electrons
       nuclear repulsion energy        68.4135158526 Hartrees.
 IExCor=         0 DFT=F Ex=HF Corr=None N6=None ScaHFX=  1.000000
 ScaDFX=  1.000000  1.000000  1.000000  1.000000  1.000000  0.000000
 ScaDFX=  0.000000  0.000000  0.000000  0.000000  0.000000  0.000000
 IRadAn=      5 IRanWt=     -1 IRanGd=            0 ICorTp=0 IEmpDi=  4
 NAtoms=   19 NActive=   19 NUniq=   19 SFac= 1.00D+00 NAtFMM=   60 NAOKFM=F Big=F
 Integral buffers will be    131072 words long.
 Raffenetti 1 integral format.
 Two-electron integral symmetry is turned on.
 Leave Link  301 at Fri Mar 14 15:26:39 2025, MaxMem=   104857600 cpu:               0.0 elap:               0.0
 (Enter /home/enzo/gaussian_versions/gdv.j21/gdv/l402.exe)
 UFF calculation of energy.
 Energy per function type:
 Direct Coulomb + vdW (small)                           0.031607442
 Direct Coulomb (large)                                 0.000000000
 Direct vdW (large)                                   875.304843531
 Non-direct Coulomb + vdW (small)                      -0.011623627
 Non-direct Coulomb (large)                             0.000000000
 Non-direct vdW (large)                              -875.304843531
 Harmonic stretch III                                   0.008572093
 UFF 3-term bend                                        0.006391511
 UFF 2-term bend                                        0.008867456
 UFF torsion fixed V                                    0.002960287
 UFF torsion w/ bond order V                            0.000089173
 UFF torsion w/ sp3 V                                   0.000196759
 Three term Wilson angle                                0.000063122
 Energy per function class:
        Coulomb               0.000000000
    Vanderwaals               0.019983815
     Stretching               0.008572093
        Bending               0.015258968
        Torsion               0.003246220
   Out-of-plane               0.000063122
 Energy=    4.712421691E-02 NIter=   0.
 Dipole moment=       0.000000       0.000000       0.000000
 Leave Link  402 at Fri Mar 14 15:26:39 2025, MaxMem=   104857600 cpu:               0.0 elap:               0.0
 (Enter /home/enzo/gaussian_versions/gdv.j21/gdv/l9999.exe)
 Unable to Open any file for archive entry.
 1\1\GINC-ORACLE\SP\UFF\ZDO\C5H9N1O3S1\ENZO\14-Mar-2025\0\\#p UFF GEOM=
 READALLGIC OUTPUT=PICKETT\\individuo_3638_opt.xyz\\0,1\C,0,-3.228407,0
 .849138,-0.387658\C,0,-2.092317,0.145837,0.359662\S,0,-2.053636,-1.678
 455,0.037163\C,0,-0.755351,0.894335,0.157985\O,0,-0.745317,2.118341,0.
 061203\N,0,0.381923,0.157675,0.148152\C,0,1.66815,0.799374,0.022606\C,
 0,2.753497,-0.252616,-0.040634\O,0,2.568714,-1.449027,0.004246\O,0,3.9
 73921,0.310316,-0.15361\H,0,-4.191916,0.406293,-0.122819\H,0,-3.228525
 ,1.911353,-0.131858\H,0,-3.094159,0.765796,-1.472119\H,0,-2.297221,0.1
 90705,1.437201\H,0,-2.013136,-1.597128,-1.311261\H,0,0.356324,-0.85464
 7,0.20193\H,0,1.715937,1.425425,-0.877801\H,0,1.869018,1.473745,0.8657
 83\H,0,4.616424,-0.423438,-0.187219\\Version=ES64L-GDVRevJ.21\HF=0.047
 1242\RMSD=0.000e+00\Dipole=0.,0.,0.\PG=C01 [X(C5H9N1O3S1)]\\@
 The archive entry for this job was punched.
 DoSRE=F DoSRN=F DoDH=F DoFC=F DoNQ=F DoQCD=F DoSCD=F
 Inertia tensor (amu-bohr**2): 
                 1             2             3 
      1   0.887374D+03 -0.162064D+02  0.149126D+02
      2  -0.162064D+02  0.321374D+04  0.296680D+01
      3   0.149126D+02  0.296680D+01  0.401474D+04
 Principal inertia moments (amu-bohr**2):
 Iaa = 0.887190D+03 Ibb= 0.321385D+04 Icc= 0.401482D+04
 Rotation matrix to Principal Axis frame: 
                 1             2             3 
      1   0.999964D+00 -0.698879D-02  0.474953D-02
      2   0.697169D-02  0.999969D+00  0.360738D-02
      3  -0.477459D-02 -0.357414D-02  0.999982D+00
                Principal axis orientation:                
 ---------------------------------------------------------------------
 Center     Atomic                     Coordinates (Angstroms)
 Number     Number                        X           Y           Z
 ---------------------------------------------------------------------
      1          6                   -3.258655    0.893174   -0.409757
      2          6                   -2.131077    0.179284    0.340409
      3         16                   -2.103576   -1.644070    0.011518
      4          6                   -0.787977    0.919136    0.147785
      5          8                   -0.768948    2.143380    0.055468
      6          7                    0.344167    0.174585    0.140697
      7          6                    1.635422    0.807724    0.023577
      8          6                    2.713698   -0.251593   -0.038302
      9          8                    2.520366   -1.446836    0.001383
     10          8                    3.938542    0.303196   -0.143449
     11          1                   -4.226481    0.456130   -0.151096
     12          1                   -3.252589    1.954443   -0.150130
     13          1                   -3.119815    0.812772   -1.493862
     14          1                   -2.340805    0.221731    1.417117
     15          1                   -2.056072   -1.558209   -1.336396
     16          1                    0.311255   -0.837719    0.190700
     17          1                    1.691871    1.436640   -0.874329
     18          1                    1.836958    1.477657    0.870125
     19          1                    4.576067   -0.434905   -0.176653
 ---------------------------------------------------------------------
 Rotational constants (MHZ):
   2034.2227741    561.5519110    449.5201576
 Dipole moment (Debye):
      0.0000000      0.0000000      0.0000000  Tot=      0.0000000

 Atoms with significant hyperfine tensors: 

--------------------------------------------------------------------------------
 individuo_3638_opt.xyz                                  
   99  1000  50  0.1760E-11  0.1000E+07  0.1000E+01 1.0000000000
a   1  0  0  0  1  1   1  0  1  0
     10000   0.20342228E+04    0.0000E+00   /  A  /
     20000   0.56155191E+03    0.0000E+00   /  B  /
     30000   0.44952016E+03    0.0000E+00   /  C  /
--------------------------------------------------------------------------------



 THE REASON MAN'S BEST FRIEND IS A DOG IS BECAUSE
 HE WAGS HIS TAIL INSTEAD OF HIS TONGUE.
 Job cpu time:       0 days  0 hours  0 minutes  0.2 seconds.
 Elapsed time:       0 days  0 hours  0 minutes  0.2 seconds.
 File lengths (MBytes):  RWF=     14 Int=      0 D2E=      0 Chk=      9 Scr=      1
 Normal termination of Gaussian DV at Fri Mar 14 15:26:39 2025.
