 Entering Gaussian System, Link 0=gdv
 Input=joint_population/temp_processing/individuo_7629_opt.gjf
 Output=joint_population/temp_processing/individuo_7629_opt.log
 Initial command:
 /home/enzo/gaussian_versions/gdv.j21/gdv/l1.exe "/local/home/enzo/scratch/Gau-2409155.inp" -scrdir="/local/home/enzo/scratch/"
 Entering Link 1 = /home/enzo/gaussian_versions/gdv.j21/gdv/l1.exe PID=   2409156.
  
 Copyright (c) 1988-2022, Gaussian, Inc.  All Rights Reserved.
  
 This is the private, development version of
 the Gaussian(R) DV system of programs. It is based on
 the Gaussian(R) 16 system (copyright 2016, Gaussian, Inc.),
 the Gaussian(R) 09 system (copyright 2009, Gaussian, Inc.),
 the Gaussian(R) 03 system (copyright 2003, Gaussian, Inc.),
 the Gaussian(R) 98 system (copyright 1998, Gaussian, Inc.),
 the Gaussian(R) 94 system (copyright 1995, Gaussian, Inc.),
 the Gaussian 92(TM) system (copyright 1992, Gaussian, Inc.),
 the Gaussian 90(TM) system (copyright 1990, Gaussian, Inc.),
 the Gaussian 88(TM) system (copyright 1988, Gaussian, Inc.),
 the Gaussian 86(TM) system (copyright 1986, Carnegie Mellon
 University), and the Gaussian 82(TM) system (copyright 1983,
 Carnegie Mellon University). Gaussian is a federally registered
 trademark of Gaussian, Inc.
  
 This software contains proprietary and confidential information,
 including trade secrets, belonging to Gaussian, Inc.
  
 This software is provided under written license and may be
 used, copied, transmitted, or stored only in accord with that
 written license.
  
 The following legend is applicable only to US Government
 contracts under FAR:
  
                    RESTRICTED RIGHTS LEGEND
  
 Use, reproduction and disclosure by the US Government is
 subject to restrictions as set forth in subparagraphs (a)
 and (c) of the Commercial Computer Software - Restricted
 Rights clause in FAR 52.227-19.
  
 Gaussian, Inc.
 340 Quinnipiac St., Bldg. 40, Wallingford CT 06492
  
  
 ---------------------------------------------------------------
 Warning -- This program may not be used in any manner that
 competes with the business of Gaussian, Inc. or will provide
 assistance to any competitor of Gaussian, Inc.  The licensee
 of this program is prohibited from giving any competitor of
 Gaussian, Inc. access to this program.  By using this program,
 the user acknowledges that Gaussian, Inc. is engaged in the
 business of creating and licensing software in the field of
 computational chemistry and represents and warrants to the
 licensee that it is not a competitor of Gaussian, Inc. and that
 it will not use this program in any manner prohibited above.
 ---------------------------------------------------------------
  

 Cite this work as:
 Gaussian Development Version, Revision J.21,
 M. J. Frisch, G. W. Trucks, H. B. Schlegel, G. E. Scuseria, 
 M. A. Robb, J. R. Cheeseman, G. Scalmani, V. Barone, 
 G. A. Petersson, H. Nakatsuji, X. Li, A. V. Marenich, M. Caricato, 
 J. Bloino, B. G. Janesko, J. Zheng, R. Gomperts, B. Mennucci, 
 H. P. Hratchian, J. V. Ortiz, A. F. Izmaylov, J. L. Sonnenberg, 
 D. Williams-Young, F. Ding, F. Lipparini, F. Egidi, J. Goings, 
 B. Peng, A. Petrone, T. Henderson, D. Ranasinghe, V. G. Zakrzewski, 
 J. Gao, N. Rega, G. Zheng, W. Liang, M. Hada, M. Ehara, K. Toyota, 
 R. Fukuda, J. Hasegawa, M. Ishida, T. Nakajima, Y. Honda, O. Kitao, 
 H. Nakai, T. Vreven, K. Throssell, J. A. Montgomery, Jr., 
 J. E. Peralta, F. Ogliaro, M. J. Bearpark, J. J. Heyd, 
 E. N. Brothers, K. N. Kudin, V. N. Staroverov, T. A. Keith, 
 R. Kobayashi, J. Normand, K. Raghavachari, A. P. Rendell, 
 J. C. Burant, S. S. Iyengar, J. Tomasi, M. Cossi, J. M. Millam, 
 M. Klene, C. Adamo, R. Cammi, J. W. Ochterski, R. L. Martin, 
 K. Morokuma, O. Farkas, J. B. Foresman, and D. J. Fox, 
 Gaussian, Inc., Wallingford CT, 2020.
 
 ******************************************
 Gaussian DV:  ES64L-GDVRevJ.21 25-Jul-2022
                14-Mar-2025 
 ******************************************
 -------------------------------------
 #p UFF GEOM=READALLGIC OUTPUT=PICKETT
 -------------------------------------
 1/18=20,37=210000000,38=1,56=1,64=2,145=602,172=1/1;
 2/12=2/2;
 3/5=30,11=9,25=1,30=1,41=10020000,43=2/1;
 4/20=10,24=3/2;
 99/5=1,9=1,10=1024/99;
 Leave Link    1 at Fri Mar 14 15:26:41 2025, MaxMem=           0 cpu:               0.0 elap:               0.0
 (Enter /home/enzo/gaussian_versions/gdv.j21/gdv/l101.exe)
 ----------------------
 individuo_7629_opt.xyz
 ----------------------
 Symbolic Z-matrix:
 Charge =     0 Multiplicity =     1
 6                     2.89326  -0.95999   1.11297 
 6                     1.89449   0.07593   0.59768 
 16                    2.64779   1.25243  -0.62386 
 6                     0.69091  -0.60246  -0.06421 
 8                     0.82617  -1.52246  -0.86435 
 7                    -0.53014  -0.12382   0.29605 
 6                    -1.73323  -0.60636  -0.34094 
 6                    -2.90562   0.23546   0.11356 
 8                    -2.82908   1.17947   0.87039 
 8                    -4.06056  -0.19339  -0.43076 
 1                     3.77929  -0.46946   1.52423 
 1                     2.43312  -1.57329   1.89805 
 1                     3.19485  -1.62569   0.30006 
 1                     1.566     0.72807   1.41435 
 1                     2.81824   0.32636  -1.5923 
 1                    -0.63225   0.69996   0.87601 
 1                    -1.65428  -0.56113  -1.43522 
 1                    -1.92665  -1.65812  -0.0944 
 1                    -4.76318   0.39658  -0.09793 
 
 Initializing the GIC definitions file.

 CrInp1: Reading the GIC input below.
 Dihed1 = D( 15, 3, 2, 14)
 Dihed2 = D( 3, 2, 4, 5)
 Dihed3 = D( 4, 6, 7, 8)
 Dihed4 = D( 6, 7, 8, 9)
 Dihed5 = D( 9, 8, 10, 19)
 
 Warning:  Number of GICs=     5 3N-6=    51.
 ITRead=  0  0  0  0  0  0  0  0  0  0  0  0  0  0  0  0  0  0  0
 MicOpt= -1 -1 -1 -1 -1 -1 -1 -1 -1 -1 -1 -1 -1 -1 -1 -1 -1 -1 -1
                           ----------------------------
                           !    Current Parameters    !
                           ! (Angstroms and Degrees)  !
 --------------------------                            --------------------------
 ! Name   Definition             Value                                          !
 --------------------------------------------------------------------------------
 ! Dihed1 D(15,3,2,14)        -172.3846                                         !
 ! Dihed2 D(3,2,4,5)            78.2019                                         !
 ! Dihed3 D(4,6,7,8)          -171.9763                                         !
 ! Dihed4 D(6,7,8,9)             1.416                                          !
 ! Dihed5 D(9,8,10,19)           0.2783                                         !
 --------------------------------------------------------------------------------
 NAtoms=     19 NQM=       19 NQMF=       0 NMMI=      0 NMMIF=      0
                NMic=       0 NMicF=      0.
                    Isotopes and Nuclear Properties:
 (Nuclear quadrupole moments (NQMom) in fm**2, nuclear magnetic moments (NMagM)
  in nuclear magnetons)

  Atom         1           2           3           4           5           6           7           8           9          10
 IAtWgt=          12          12          32          12          16          14          12          12          16          16
 AtmWgt=  12.0000000  12.0000000  31.9720718  12.0000000  15.9949146  14.0030740  12.0000000  12.0000000  15.9949146  15.9949146
 NucSpn=           0           0           0           0           0           2           0           0           0           0
 AtZEff=  -0.0000000  -0.0000000  -0.0000000  -0.0000000  -0.0000000  -0.0000000  -0.0000000  -0.0000000  -0.0000000  -0.0000000
 NQMom=    0.0000000   0.0000000   0.0000000   0.0000000   0.0000000   2.0440000   0.0000000   0.0000000   0.0000000   0.0000000
 NMagM=    0.0000000   0.0000000   0.0000000   0.0000000   0.0000000   0.4037610   0.0000000   0.0000000   0.0000000   0.0000000
 AtZNuc=   6.0000000   6.0000000  16.0000000   6.0000000   8.0000000   7.0000000   6.0000000   6.0000000   8.0000000   8.0000000

  Atom        11          12          13          14          15          16          17          18          19
 IAtWgt=           1           1           1           1           1           1           1           1           1
 AtmWgt=   1.0078250   1.0078250   1.0078250   1.0078250   1.0078250   1.0078250   1.0078250   1.0078250   1.0078250
 NucSpn=           1           1           1           1           1           1           1           1           1
 AtZEff=  -0.0000000  -0.0000000  -0.0000000  -0.0000000  -0.0000000  -0.0000000  -0.0000000  -0.0000000  -0.0000000
 NQMom=    0.0000000   0.0000000   0.0000000   0.0000000   0.0000000   0.0000000   0.0000000   0.0000000   0.0000000
 NMagM=    2.7928460   2.7928460   2.7928460   2.7928460   2.7928460   2.7928460   2.7928460   2.7928460   2.7928460
 AtZNuc=   1.0000000   1.0000000   1.0000000   1.0000000   1.0000000   1.0000000   1.0000000   1.0000000   1.0000000
 Generating MM parameters.
 Include all MM classes

 MM sanity checks:
 All charges sum to:                0.00000000
 Charges of atoms sum to:           0.00000000
 MMInit generated parameter data with length LenPar=        2803.
 Leave Link  101 at Fri Mar 14 15:26:41 2025, MaxMem=   104857600 cpu:               0.1 elap:               0.1
 (Enter /home/enzo/gaussian_versions/gdv.j21/gdv/l202.exe)
                          Input orientation:                          
 ---------------------------------------------------------------------
 Center     Atomic      Atomic             Coordinates (Angstroms)
 Number     Number       Type             X           Y           Z
 ---------------------------------------------------------------------
      1          6    10061003        2.893263   -0.959985    1.112970
      2          6    10061003        1.894486    0.075933    0.597678
      3         16    10161003        2.647786    1.252431   -0.623864
      4          6    10061000        0.690912   -0.602459   -0.064213
      5          8    10081002        0.826173   -1.522459   -0.864349
      6          7    10071000       -0.530136   -0.123816    0.296048
      7          6    10061003       -1.733226   -0.606357   -0.340943
      8          6    10061000       -2.905615    0.235463    0.113561
      9          8    10081002       -2.829076    1.179470    0.870394
     10          8    10081000       -4.060557   -0.193390   -0.430758
     11          1    10011000        3.779287   -0.469459    1.524234
     12          1    10011000        2.433122   -1.573287    1.898045
     13          1    10011000        3.194846   -1.625689    0.300064
     14          1    10011000        1.565999    0.728071    1.414345
     15          1    10011000        2.818243    0.326364   -1.592295
     16          1    10011000       -0.632254    0.699956    0.876013
     17          1    10011000       -1.654281   -0.561127   -1.435220
     18          1    10011000       -1.926646   -1.658123   -0.094404
     19          1    10011000       -4.763184    0.396577   -0.097927
 ---------------------------------------------------------------------
                    Distance matrix (angstroms):
                    1          2          3          4          5
     1  C    0.000000
     2  C    1.528466   0.000000
     3  S    2.823409   1.855741   0.000000
     4  C    2.522684   1.531961   2.753758   0.000000
     5  O    2.915309   2.415300   3.328081   1.226749   0.000000
     6  N    3.617485   2.451463   3.583222   1.360090   2.267663
     7  C    4.862439   3.808782   4.767432   2.439885   2.768342
     8  C    6.004573   4.827089   5.693705   3.697124   4.239439
     9  O    6.114023   4.858416   5.677512   4.054513   4.865244
    10  O    7.164243   6.049194   6.865097   4.783111   5.082770
    11  H    1.093066   2.169892   2.976495   3.475473   3.941449
    12  H    1.097366   2.168181   3.793519   2.797903   3.196199
    13  H    1.093129   2.162181   3.071887   2.729356   2.641425
    14  H    2.168407   1.095506   2.366329   2.173067   3.287046
    15  H    2.996461   2.389984   1.350746   2.779080   2.813609
    16  H    3.903950   2.617497   3.648770   2.081124   3.177263
    17  H    5.228051   4.139114   4.738678   2.716855   2.720791
    18  H    5.017636   4.252879   5.447667   2.822578   2.861684
    19  H    7.869416   6.701586   7.478741   5.544941   5.959112
                    6          7          8          9         10
     6  N    0.000000
     7  C    1.444309   0.000000
     8  C    2.409416   1.513186   0.000000
     9  O    2.704358   2.420207   1.212355   0.000000
    10  O    3.605130   2.365392   1.346881   2.257053   0.000000
    11  H    4.494334   5.821119   6.868393   6.842290   8.084637
    12  H    3.667187   4.827678   5.912535   6.026978   7.035290
    13  H    4.016358   5.073049   6.380775   6.669470   7.431450
    14  H    2.523902   3.968201   4.682951   4.451553   5.992631
    15  H    3.870419   4.811623   5.973337   6.219714   6.995513
    16  H    1.012614   2.097516   2.442388   2.248553   3.776106
    17  H    2.110031   1.098053   2.144555   3.118602   2.633313
    18  H    2.111111   1.097454   2.141798   3.130040   2.610010
    19  H    4.283074   3.200872   1.876499   2.300291   0.975972
                   11         12         13         14         15
    11  H    0.000000
    12  H    1.780542   0.000000
    13  H    1.782423   1.771020   0.000000
    14  H    2.518888   2.506415   3.071637   0.000000
    15  H    3.357036   3.992426   2.744697   3.281671   0.000000
    16  H    4.609709   3.950786   4.515201   2.263384   4.258878
    17  H    6.187926   5.370474   5.259138   4.489126   4.562432
    18  H    6.049015   4.794229   5.136763   4.490970   5.356850
    19  H    8.738148   7.723412   8.220596   6.515782   7.727619
                   16         17         18         19
    16  H    0.000000
    17  H    2.824299   0.000000
    18  H    2.859667   1.753673   0.000000
    19  H    4.255018   3.517219   3.502535   0.000000
 Stoichiometry    C5H9NO3S
 Framework group  C1[X(C5H9NO3S)]
 Deg. of freedom    51
 Full point group                 C1      NOp   1
 Largest Abelian subgroup         C1      NOp   1
 Largest concise Abelian subgroup C1      NOp   1
                         Standard orientation:                         
 ---------------------------------------------------------------------
 Center     Atomic      Atomic             Coordinates (Angstroms)
 Number     Number       Type             X           Y           Z
 ---------------------------------------------------------------------
      1          6    10061003       -2.893263    0.959985    1.112970
      2          6    10061003       -1.894486   -0.075933    0.597678
      3         16    10161003       -2.647786   -1.252431   -0.623864
      4          6    10061000       -0.690912    0.602459   -0.064213
      5          8    10081002       -0.826173    1.522459   -0.864349
      6          7    10071000        0.530136    0.123816    0.296048
      7          6    10061003        1.733226    0.606357   -0.340943
      8          6    10061000        2.905615   -0.235463    0.113561
      9          8    10081002        2.829076   -1.179470    0.870394
     10          8    10081000        4.060557    0.193390   -0.430758
     11          1    10011000       -3.779287    0.469459    1.524234
     12          1    10011000       -2.433122    1.573287    1.898045
     13          1    10011000       -3.194846    1.625689    0.300064
     14          1    10011000       -1.565999   -0.728071    1.414345
     15          1    10011000       -2.818243   -0.326364   -1.592295
     16          1    10011000        0.632254   -0.699956    0.876013
     17          1    10011000        1.654281    0.561127   -1.435220
     18          1    10011000        1.926646    1.658123   -0.094404
     19          1    10011000        4.763184   -0.396577   -0.097927
 ---------------------------------------------------------------------
 Rotational constants (GHZ):           2.3479593           0.4754302           0.4476908
 Leave Link  202 at Fri Mar 14 15:26:41 2025, MaxMem=   104857600 cpu:               0.0 elap:               0.0
 (Enter /home/enzo/gaussian_versions/gdv.j21/gdv/l301.exe)
 Standard basis: Dummy (5D, 7F)
 There are    19 symmetry adapted cartesian basis functions of A   symmetry.
 There are    19 symmetry adapted basis functions of A   symmetry.
    19 basis functions,    19 primitive gaussians,    19 cartesian basis functions
    14 alpha electrons       14 beta electrons
       nuclear repulsion energy        68.3290170353 Hartrees.
 IExCor=         0 DFT=F Ex=HF Corr=None N6=None ScaHFX=  1.000000
 ScaDFX=  1.000000  1.000000  1.000000  1.000000  1.000000  0.000000
 ScaDFX=  0.000000  0.000000  0.000000  0.000000  0.000000  0.000000
 IRadAn=      5 IRanWt=     -1 IRanGd=            0 ICorTp=0 IEmpDi=  4
 NAtoms=   19 NActive=   19 NUniq=   19 SFac= 1.00D+00 NAtFMM=   60 NAOKFM=F Big=F
 Integral buffers will be    131072 words long.
 Raffenetti 1 integral format.
 Two-electron integral symmetry is turned on.
 Leave Link  301 at Fri Mar 14 15:26:41 2025, MaxMem=   104857600 cpu:               0.0 elap:               0.0
 (Enter /home/enzo/gaussian_versions/gdv.j21/gdv/l402.exe)
 UFF calculation of energy.
 Energy per function type:
 Direct Coulomb + vdW (small)                           0.021333453
 Direct Coulomb (large)                                 0.000000000
 Direct vdW (large)                                   877.651009917
 Non-direct Coulomb + vdW (small)                      -0.004281552
 Non-direct Coulomb (large)                             0.000000000
 Non-direct vdW (large)                              -877.651009917
 Harmonic stretch III                                   0.007948184
 UFF 3-term bend                                        0.003168400
 UFF 2-term bend                                        0.009969789
 UFF torsion fixed V                                    0.002472693
 UFF torsion w/ bond order V                            0.000504229
 UFF torsion w/ sp3 V                                   0.000093220
 Three term Wilson angle                                0.000000679
 Energy per function class:
        Coulomb               0.000000000
    Vanderwaals               0.017051901
     Stretching               0.007948184
        Bending               0.013138189
        Torsion               0.003070141
   Out-of-plane               0.000000679
 Energy=    4.120909328E-02 NIter=   0.
 Dipole moment=       0.000000       0.000000       0.000000
 Leave Link  402 at Fri Mar 14 15:26:41 2025, MaxMem=   104857600 cpu:               0.0 elap:               0.0
 (Enter /home/enzo/gaussian_versions/gdv.j21/gdv/l9999.exe)
 Unable to Open any file for archive entry.
 1\1\GINC-ORACLE\SP\UFF\ZDO\C5H9N1O3S1\ENZO\14-Mar-2025\0\\#p UFF GEOM=
 READALLGIC OUTPUT=PICKETT\\individuo_7629_opt.xyz\\0,1\C,0,2.893263,-0
 .959985,1.11297\C,0,1.894486,0.075933,0.597678\S,0,2.647786,1.252431,-
 0.623864\C,0,0.690912,-0.602459,-0.064213\O,0,0.826173,-1.522459,-0.86
 4349\N,0,-0.530136,-0.123816,0.296048\C,0,-1.733226,-0.606357,-0.34094
 3\C,0,-2.905615,0.235463,0.113561\O,0,-2.829076,1.17947,0.870394\O,0,-
 4.060557,-0.19339,-0.430758\H,0,3.779287,-0.469459,1.524234\H,0,2.4331
 22,-1.573287,1.898045\H,0,3.194846,-1.625689,0.300064\H,0,1.565999,0.7
 28071,1.414345\H,0,2.818243,0.326364,-1.592295\H,0,-0.632254,0.699956,
 0.876013\H,0,-1.654281,-0.561127,-1.43522\H,0,-1.926646,-1.658123,-0.0
 94404\H,0,-4.763184,0.396577,-0.097927\\Version=ES64L-GDVRevJ.21\HF=0.
 0412091\RMSD=0.000e+00\Dipole=0.,0.,0.\PG=C01 [X(C5H9N1O3S1)]\\@
 The archive entry for this job was punched.
 DoSRE=F DoSRN=F DoDH=F DoFC=F DoNQ=F DoQCD=F DoSCD=F
 Inertia tensor (amu-bohr**2): 
                 1             2             3 
      1   0.769357D+03 -0.247338D+02  0.409660D+02
      2  -0.247338D+02  0.379610D+04 -0.784870D+01
      3   0.409660D+02 -0.784870D+01  0.403042D+04
 Principal inertia moments (amu-bohr**2):
 Iaa = 0.768642D+03 Ibb= 0.379602D+04 Icc= 0.403122D+04
 Rotation matrix to Principal Axis frame: 
                 1             2             3 
      1   0.999888D+00 -0.769566D-02  0.128137D-01
      2   0.813639D-02  0.999364D+00 -0.347065D-01
      3  -0.125384D-01  0.348069D-01  0.999315D+00
                Principal axis orientation:                
 ---------------------------------------------------------------------
 Center     Atomic                     Coordinates (Angstroms)
 Number     Number                        X           Y           Z
 ---------------------------------------------------------------------
      1          6                    2.900354   -0.965068    1.200620
      2          6                    1.916579    0.059942    0.636930
      3         16                    2.694683    1.187377   -0.614955
      4          6                    0.715918   -0.631795   -0.016386
      5          8                    0.853711   -1.580102   -0.782311
      6          7                   -0.505616   -0.131520    0.311371
      7          6                   -1.704511   -0.626667   -0.323853
      8          6                   -2.875618    0.239460    0.086101
      9          8                   -2.800896    1.208621    0.810633
     10          8                   -4.027096   -0.199179   -0.457761
     11          1                    3.785114   -0.467358    1.605931
     12          1                    2.425431   -1.547114    2.000547
     13          1                    3.206680   -1.660965    0.415239
     14          1                    1.583195    0.742619    1.426195
     15          1                    2.869729    0.226879   -1.548399
     16          1                   -0.608292    0.712701    0.861040
     17          1                   -1.611486   -0.620162   -1.417939
     18          1                   -1.909558   -1.667695   -0.043458
     19          1                   -4.729017    0.407405   -0.154636
 ---------------------------------------------------------------------
 Rotational constants (MHZ):
   2347.9593356    475.4301983    447.6908345
 Dipole moment (Debye):
      0.0000000      0.0000000      0.0000000  Tot=      0.0000000

 Atoms with significant hyperfine tensors: 

--------------------------------------------------------------------------------
 individuo_7629_opt.xyz                                  
   99  1000  50  0.1760E-11  0.1000E+07  0.1000E+01 1.0000000000
a   1  0  0  0  1  1   1  0  1  0
     10000   0.23479593E+04    0.0000E+00   /  A  /
     20000   0.47543020E+03    0.0000E+00   /  B  /
     30000   0.44769083E+03    0.0000E+00   /  C  /
--------------------------------------------------------------------------------



 Not by the face shall a man be known, but by the mask.
                               -- Karen Blixen
 Job cpu time:       0 days  0 hours  0 minutes  0.2 seconds.
 Elapsed time:       0 days  0 hours  0 minutes  0.2 seconds.
 File lengths (MBytes):  RWF=     14 Int=      0 D2E=      0 Chk=      9 Scr=      1
 Normal termination of Gaussian DV at Fri Mar 14 15:26:41 2025.
