 Entering Gaussian System, Link 0=gdv
 Input=joint_population/temp_processing/individuo_8160_opt.gjf
 Output=joint_population/temp_processing/individuo_8160_opt.log
 Initial command:
 /home/enzo/gaussian_versions/gdv.j21/gdv/l1.exe "/local/home/enzo/scratch/Gau-2409197.inp" -scrdir="/local/home/enzo/scratch/"
 Entering Link 1 = /home/enzo/gaussian_versions/gdv.j21/gdv/l1.exe PID=   2409198.
  
 Copyright (c) 1988-2022, Gaussian, Inc.  All Rights Reserved.
  
 This is the private, development version of
 the Gaussian(R) DV system of programs. It is based on
 the Gaussian(R) 16 system (copyright 2016, Gaussian, Inc.),
 the Gaussian(R) 09 system (copyright 2009, Gaussian, Inc.),
 the Gaussian(R) 03 system (copyright 2003, Gaussian, Inc.),
 the Gaussian(R) 98 system (copyright 1998, Gaussian, Inc.),
 the Gaussian(R) 94 system (copyright 1995, Gaussian, Inc.),
 the Gaussian 92(TM) system (copyright 1992, Gaussian, Inc.),
 the Gaussian 90(TM) system (copyright 1990, Gaussian, Inc.),
 the Gaussian 88(TM) system (copyright 1988, Gaussian, Inc.),
 the Gaussian 86(TM) system (copyright 1986, Carnegie Mellon
 University), and the Gaussian 82(TM) system (copyright 1983,
 Carnegie Mellon University). Gaussian is a federally registered
 trademark of Gaussian, Inc.
  
 This software contains proprietary and confidential information,
 including trade secrets, belonging to Gaussian, Inc.
  
 This software is provided under written license and may be
 used, copied, transmitted, or stored only in accord with that
 written license.
  
 The following legend is applicable only to US Government
 contracts under FAR:
  
                    RESTRICTED RIGHTS LEGEND
  
 Use, reproduction and disclosure by the US Government is
 subject to restrictions as set forth in subparagraphs (a)
 and (c) of the Commercial Computer Software - Restricted
 Rights clause in FAR 52.227-19.
  
 Gaussian, Inc.
 340 Quinnipiac St., Bldg. 40, Wallingford CT 06492
  
  
 ---------------------------------------------------------------
 Warning -- This program may not be used in any manner that
 competes with the business of Gaussian, Inc. or will provide
 assistance to any competitor of Gaussian, Inc.  The licensee
 of this program is prohibited from giving any competitor of
 Gaussian, Inc. access to this program.  By using this program,
 the user acknowledges that Gaussian, Inc. is engaged in the
 business of creating and licensing software in the field of
 computational chemistry and represents and warrants to the
 licensee that it is not a competitor of Gaussian, Inc. and that
 it will not use this program in any manner prohibited above.
 ---------------------------------------------------------------
  

 Cite this work as:
 Gaussian Development Version, Revision J.21,
 M. J. Frisch, G. W. Trucks, H. B. Schlegel, G. E. Scuseria, 
 M. A. Robb, J. R. Cheeseman, G. Scalmani, V. Barone, 
 G. A. Petersson, H. Nakatsuji, X. Li, A. V. Marenich, M. Caricato, 
 J. Bloino, B. G. Janesko, J. Zheng, R. Gomperts, B. Mennucci, 
 H. P. Hratchian, J. V. Ortiz, A. F. Izmaylov, J. L. Sonnenberg, 
 D. Williams-Young, F. Ding, F. Lipparini, F. Egidi, J. Goings, 
 B. Peng, A. Petrone, T. Henderson, D. Ranasinghe, V. G. Zakrzewski, 
 J. Gao, N. Rega, G. Zheng, W. Liang, M. Hada, M. Ehara, K. Toyota, 
 R. Fukuda, J. Hasegawa, M. Ishida, T. Nakajima, Y. Honda, O. Kitao, 
 H. Nakai, T. Vreven, K. Throssell, J. A. Montgomery, Jr., 
 J. E. Peralta, F. Ogliaro, M. J. Bearpark, J. J. Heyd, 
 E. N. Brothers, K. N. Kudin, V. N. Staroverov, T. A. Keith, 
 R. Kobayashi, J. Normand, K. Raghavachari, A. P. Rendell, 
 J. C. Burant, S. S. Iyengar, J. Tomasi, M. Cossi, J. M. Millam, 
 M. Klene, C. Adamo, R. Cammi, J. W. Ochterski, R. L. Martin, 
 K. Morokuma, O. Farkas, J. B. Foresman, and D. J. Fox, 
 Gaussian, Inc., Wallingford CT, 2020.
 
 ******************************************
 Gaussian DV:  ES64L-GDVRevJ.21 25-Jul-2022
                14-Mar-2025 
 ******************************************
 -------------------------------------
 #p UFF GEOM=READALLGIC OUTPUT=PICKETT
 -------------------------------------
 1/18=20,37=210000000,38=1,56=1,64=2,145=602,172=1/1;
 2/12=2/2;
 3/5=30,11=9,25=1,30=1,41=10020000,43=2/1;
 4/20=10,24=3/2;
 99/5=1,9=1,10=1024/99;
 Leave Link    1 at Fri Mar 14 15:26:45 2025, MaxMem=           0 cpu:               0.0 elap:               0.0
 (Enter /home/enzo/gaussian_versions/gdv.j21/gdv/l101.exe)
 ----------------------
 individuo_8160_opt.xyz
 ----------------------
 Symbolic Z-matrix:
 Charge =     0 Multiplicity =     1
 6                     2.76961   0.68632   1.18045 
 6                     2.14192   0.28238  -0.1631 
 16                    2.18511  -1.56562  -0.28608 
 6                     0.76058   0.94468  -0.30245 
 8                     0.69222   2.13555  -0.59278 
 7                    -0.33362   0.18964  -0.03958 
 6                    -1.65513   0.7657   -0.09968 
 6                    -2.68881  -0.31598   0.12428 
 8                    -2.44228  -1.48507   0.3245 
 8                    -3.93979   0.18547   0.07621 
 1                     3.80761   0.34683   1.24146 
 1                     2.74751   1.77645   1.26818 
 1                     2.21303   0.25946   2.02217 
 1                     2.74913   0.69235  -0.97351 
 1                     1.83125  -1.65514  -1.58676 
 1                    -0.25371  -0.80012   0.16778 
 1                    -1.78982   1.55303   0.65415 
 1                    -1.83567   1.24707  -1.06944 
 1                    -4.54591  -0.56377   0.22984 
 
 Initializing the GIC definitions file.

 CrInp1: Reading the GIC input below.
 Dihed1 = D( 15, 3, 2, 14)
 Dihed2 = D( 3, 2, 4, 5)
 Dihed3 = D( 4, 6, 7, 8)
 Dihed4 = D( 6, 7, 8, 9)
 Dihed5 = D( 9, 8, 10, 19)
 
 Warning:  Number of GICs=     5 3N-6=    51.
 ITRead=  0  0  0  0  0  0  0  0  0  0  0  0  0  0  0  0  0  0  0
 MicOpt= -1 -1 -1 -1 -1 -1 -1 -1 -1 -1 -1 -1 -1 -1 -1 -1 -1 -1 -1
                           ----------------------------
                           !    Current Parameters    !
                           ! (Angstroms and Degrees)  !
 --------------------------                            --------------------------
 ! Name   Definition             Value                                          !
 --------------------------------------------------------------------------------
 ! Dihed1 D(15,3,2,14)         -51.8423                                         !
 ! Dihed2 D(3,2,4,5)          -160.3525                                         !
 ! Dihed3 D(4,6,7,8)           175.4142                                         !
 ! Dihed4 D(6,7,8,9)             0.0714                                         !
 ! Dihed5 D(9,8,10,19)           0.0058                                         !
 --------------------------------------------------------------------------------
 NAtoms=     19 NQM=       19 NQMF=       0 NMMI=      0 NMMIF=      0
                NMic=       0 NMicF=      0.
                    Isotopes and Nuclear Properties:
 (Nuclear quadrupole moments (NQMom) in fm**2, nuclear magnetic moments (NMagM)
  in nuclear magnetons)

  Atom         1           2           3           4           5           6           7           8           9          10
 IAtWgt=          12          12          32          12          16          14          12          12          16          16
 AtmWgt=  12.0000000  12.0000000  31.9720718  12.0000000  15.9949146  14.0030740  12.0000000  12.0000000  15.9949146  15.9949146
 NucSpn=           0           0           0           0           0           2           0           0           0           0
 AtZEff=  -0.0000000  -0.0000000  -0.0000000  -0.0000000  -0.0000000  -0.0000000  -0.0000000  -0.0000000  -0.0000000  -0.0000000
 NQMom=    0.0000000   0.0000000   0.0000000   0.0000000   0.0000000   2.0440000   0.0000000   0.0000000   0.0000000   0.0000000
 NMagM=    0.0000000   0.0000000   0.0000000   0.0000000   0.0000000   0.4037610   0.0000000   0.0000000   0.0000000   0.0000000
 AtZNuc=   6.0000000   6.0000000  16.0000000   6.0000000   8.0000000   7.0000000   6.0000000   6.0000000   8.0000000   8.0000000

  Atom        11          12          13          14          15          16          17          18          19
 IAtWgt=           1           1           1           1           1           1           1           1           1
 AtmWgt=   1.0078250   1.0078250   1.0078250   1.0078250   1.0078250   1.0078250   1.0078250   1.0078250   1.0078250
 NucSpn=           1           1           1           1           1           1           1           1           1
 AtZEff=  -0.0000000  -0.0000000  -0.0000000  -0.0000000  -0.0000000  -0.0000000  -0.0000000  -0.0000000  -0.0000000
 NQMom=    0.0000000   0.0000000   0.0000000   0.0000000   0.0000000   0.0000000   0.0000000   0.0000000   0.0000000
 NMagM=    2.7928460   2.7928460   2.7928460   2.7928460   2.7928460   2.7928460   2.7928460   2.7928460   2.7928460
 AtZNuc=   1.0000000   1.0000000   1.0000000   1.0000000   1.0000000   1.0000000   1.0000000   1.0000000   1.0000000
 Generating MM parameters.
 Include all MM classes

 MM sanity checks:
 All charges sum to:                0.00000000
 Charges of atoms sum to:           0.00000000
 MMInit generated parameter data with length LenPar=        2803.
 Leave Link  101 at Fri Mar 14 15:26:45 2025, MaxMem=   104857600 cpu:               0.1 elap:               0.1
 (Enter /home/enzo/gaussian_versions/gdv.j21/gdv/l202.exe)
                          Input orientation:                          
 ---------------------------------------------------------------------
 Center     Atomic      Atomic             Coordinates (Angstroms)
 Number     Number       Type             X           Y           Z
 ---------------------------------------------------------------------
      1          6    10061003        2.769611    0.686315    1.180446
      2          6    10061003        2.141921    0.282383   -0.163096
      3         16    10161003        2.185106   -1.565620   -0.286081
      4          6    10061000        0.760579    0.944679   -0.302446
      5          8    10081002        0.692216    2.135554   -0.592775
      6          7    10071000       -0.333622    0.189643   -0.039579
      7          6    10061003       -1.655133    0.765703   -0.099681
      8          6    10061000       -2.688808   -0.315976    0.124284
      9          8    10081002       -2.442279   -1.485072    0.324496
     10          8    10081000       -3.939786    0.185473    0.076211
     11          1    10011000        3.807611    0.346825    1.241459
     12          1    10011000        2.747510    1.776454    1.268180
     13          1    10011000        2.213031    0.259459    2.022171
     14          1    10011000        2.749129    0.692353   -0.973514
     15          1    10011000        1.831247   -1.655141   -1.586763
     16          1    10011000       -0.253705   -0.800120    0.167781
     17          1    10011000       -1.789815    1.553025    0.654154
     18          1    10011000       -1.835666    1.247069   -1.069445
     19          1    10011000       -4.545914   -0.563769    0.229839
 ---------------------------------------------------------------------
                    Distance matrix (angstroms):
                    1          2          3          4          5
     1  C    0.000000
     2  C    1.536965   0.000000
     3  S    2.750192   1.852594   0.000000
     4  C    2.510365   1.538233   2.886372   0.000000
     5  O    3.091953   2.391759   4.002683   1.227659   0.000000
     6  N    3.371231   2.480357   3.079887   1.355158   2.268246
     7  C    4.606885   3.828216   4.496359   2.430805   2.762188
     8  C    5.649283   4.876122   5.048272   3.697245   4.237393
     9  O    5.710637   4.937260   4.668189   4.068789   4.876000
    10  O    6.818078   6.087185   6.380587   4.776317   5.070089
    11  H    1.093810   2.179782   2.936554   3.467777   4.033566
    12  H    1.093887   2.155815   3.728469   2.665823   2.795772
    13  H    1.095668   2.186544   2.942740   2.825418   3.559572
    14  H    2.154066   1.092499   2.426753   2.113843   2.541394
    15  H    3.744381   2.424324   1.350927   3.091094   4.081026
    16  H    3.517871   2.649588   2.596109   2.072247   3.176695
    17  H    4.670817   4.212004   5.139065   2.790999   2.838072
    18  H    5.156067   4.192050   4.969053   2.724007   2.721545
    19  H    7.482197   6.752593   6.824698   5.542347   5.949878
                    6          7          8          9         10
     6  N    0.000000
     7  C    1.442861   0.000000
     8  C    2.414416   1.512836   0.000000
     9  O    2.717288   2.421882   1.211465   0.000000
    10  O    3.608025   2.363735   1.348595   2.257187   0.000000
    11  H    4.337692   5.640540   6.625017   6.577066   7.836198
    12  H    3.704265   4.719738   5.936355   6.201774   6.976528
    13  H    3.277366   4.440859   5.287828   5.253323   6.453634
    14  H    3.260108   4.490711   5.638532   5.777259   6.789730
    15  H    3.237849   4.497415   5.015171   4.684534   6.281573
    16  H    1.014404   2.118334   2.483146   2.298603   3.816670
    17  H    2.112007   1.098309   2.140588   3.124807   2.612775
    18  H    2.105923   1.097610   2.143817   3.126603   2.620465
    19  H    4.287612   3.198858   1.876536   2.298486   0.975887
                   11         12         13         14         15
    11  H    0.000000
    12  H    1.779991   0.000000
    13  H    1.777591   1.776357   0.000000
    14  H    2.479088   2.490074   3.073911   0.000000
    15  H    3.989075   4.556982   4.103152   2.594091   0.000000
    16  H    4.354602   4.105716   3.262860   3.542180   2.855961
    17  H    5.755955   4.584132   4.423523   4.898170   5.331616
    18  H    6.164194   5.172064   5.188970   4.619227   4.704965
    19  H    8.463683   7.729737   7.040845   7.499570   6.720068
                   16         17         18         19
    16  H    0.000000
    17  H    2.851926   0.000000
    18  H    2.867806   1.751144   0.000000
    19  H    4.299159   3.500992   3.508948   0.000000
 Stoichiometry    C5H9NO3S
 Framework group  C1[X(C5H9NO3S)]
 Deg. of freedom    51
 Full point group                 C1      NOp   1
 Largest Abelian subgroup         C1      NOp   1
 Largest concise Abelian subgroup C1      NOp   1
                         Standard orientation:                         
 ---------------------------------------------------------------------
 Center     Atomic      Atomic             Coordinates (Angstroms)
 Number     Number       Type             X           Y           Z
 ---------------------------------------------------------------------
      1          6    10061003        2.769611    0.686315    1.180446
      2          6    10061003        2.141921    0.282383   -0.163096
      3         16    10161003        2.185106   -1.565620   -0.286081
      4          6    10061000        0.760579    0.944679   -0.302446
      5          8    10081002        0.692216    2.135554   -0.592775
      6          7    10071000       -0.333622    0.189643   -0.039579
      7          6    10061003       -1.655133    0.765703   -0.099681
      8          6    10061000       -2.688808   -0.315976    0.124284
      9          8    10081002       -2.442279   -1.485072    0.324496
     10          8    10081000       -3.939786    0.185473    0.076211
     11          1    10011000        3.807611    0.346825    1.241459
     12          1    10011000        2.747510    1.776454    1.268180
     13          1    10011000        2.213031    0.259459    2.022171
     14          1    10011000        2.749129    0.692353   -0.973514
     15          1    10011000        1.831247   -1.655141   -1.586763
     16          1    10011000       -0.253705   -0.800120    0.167781
     17          1    10011000       -1.789815    1.553025    0.654154
     18          1    10011000       -1.835666    1.247069   -1.069445
     19          1    10011000       -4.545914   -0.563769    0.229839
 ---------------------------------------------------------------------
 Rotational constants (GHZ):           1.9030625           0.5706871           0.4724717
 Leave Link  202 at Fri Mar 14 15:26:46 2025, MaxMem=   104857600 cpu:               0.0 elap:               0.0
 (Enter /home/enzo/gaussian_versions/gdv.j21/gdv/l301.exe)
 Standard basis: Dummy (5D, 7F)
 There are    19 symmetry adapted cartesian basis functions of A   symmetry.
 There are    19 symmetry adapted basis functions of A   symmetry.
    19 basis functions,    19 primitive gaussians,    19 cartesian basis functions
    14 alpha electrons       14 beta electrons
       nuclear repulsion energy        68.6127357006 Hartrees.
 IExCor=         0 DFT=F Ex=HF Corr=None N6=None ScaHFX=  1.000000
 ScaDFX=  1.000000  1.000000  1.000000  1.000000  1.000000  0.000000
 ScaDFX=  0.000000  0.000000  0.000000  0.000000  0.000000  0.000000
 IRadAn=      5 IRanWt=     -1 IRanGd=            0 ICorTp=0 IEmpDi=  4
 NAtoms=   19 NActive=   19 NUniq=   19 SFac= 1.00D+00 NAtFMM=   60 NAOKFM=F Big=F
 Integral buffers will be    131072 words long.
 Raffenetti 1 integral format.
 Two-electron integral symmetry is turned on.
 Leave Link  301 at Fri Mar 14 15:26:46 2025, MaxMem=   104857600 cpu:               0.0 elap:               0.0
 (Enter /home/enzo/gaussian_versions/gdv.j21/gdv/l402.exe)
 UFF calculation of energy.
 Energy per function type:
 Direct Coulomb + vdW (small)                           0.036480897
 Direct Coulomb (large)                                 0.000000000
 Direct vdW (large)                                   877.605878938
 Non-direct Coulomb + vdW (small)                      -0.019113483
 Non-direct Coulomb (large)                             0.000000000
 Non-direct vdW (large)                              -877.605878938
 Harmonic stretch III                                   0.008252265
 UFF 3-term bend                                        0.005025716
 UFF 2-term bend                                        0.009059953
 UFF torsion fixed V                                    0.002845618
 UFF torsion w/ bond order V                            0.000104437
 UFF torsion w/ sp3 V                                   0.000133002
 Three term Wilson angle                                0.000075230
 Energy per function class:
        Coulomb               0.000000000
    Vanderwaals               0.017367414
     Stretching               0.008252265
        Bending               0.014085670
        Torsion               0.003083056
   Out-of-plane               0.000075230
 Energy=    4.286363571E-02 NIter=   0.
 Dipole moment=       0.000000       0.000000       0.000000
 Leave Link  402 at Fri Mar 14 15:26:46 2025, MaxMem=   104857600 cpu:               0.0 elap:               0.0
 (Enter /home/enzo/gaussian_versions/gdv.j21/gdv/l9999.exe)
 Unable to Open any file for archive entry.
 1\1\GINC-ORACLE\SP\UFF\ZDO\C5H9N1O3S1\ENZO\14-Mar-2025\0\\#p UFF GEOM=
 READALLGIC OUTPUT=PICKETT\\individuo_8160_opt.xyz\\0,1\C,0,2.769611,0.
 686315,1.180446\C,0,2.141921,0.282383,-0.163096\S,0,2.185106,-1.56562,
 -0.286081\C,0,0.760579,0.944679,-0.302446\O,0,0.692216,2.135554,-0.592
 775\N,0,-0.333622,0.189643,-0.039579\C,0,-1.655133,0.765703,-0.099681\
 C,0,-2.688808,-0.315976,0.124284\O,0,-2.442279,-1.485072,0.324496\O,0,
 -3.939786,0.185473,0.076211\H,0,3.807611,0.346825,1.241459\H,0,2.74751
 ,1.776454,1.26818\H,0,2.213031,0.259459,2.022171\H,0,2.749129,0.692353
 ,-0.973514\H,0,1.831247,-1.655141,-1.586763\H,0,-0.253705,-0.80012,0.1
 67781\H,0,-1.789815,1.553025,0.654154\H,0,-1.835666,1.247069,-1.069445
 \H,0,-4.545914,-0.563769,0.229839\\Version=ES64L-GDVRevJ.21\HF=0.04286
 36\RMSD=0.000e+00\Dipole=0.,0.,0.\PG=C01 [X(C5H9N1O3S1)]\\@
 The archive entry for this job was punched.
 DoSRE=F DoSRN=F DoDH=F DoFC=F DoNQ=F DoQCD=F DoSCD=F
 Inertia tensor (amu-bohr**2): 
                 1             2             3 
      1   0.948602D+03  0.118919D+02  0.242443D+02
      2   0.118919D+02  0.316275D+04  0.163547D+02
      3   0.242443D+02  0.163547D+02  0.381917D+04
 Principal inertia moments (amu-bohr**2):
 Iaa = 0.948335D+03 Ibb= 0.316240D+04 Icc= 0.381979D+04
 Rotation matrix to Principal Axis frame: 
                 1             2             3 
      1   0.999951D+00  0.509527D-02  0.854475D-02
      2  -0.530780D-02  0.999672D+00  0.250376D-01
      3  -0.841437D-02 -0.250817D-01  0.999650D+00
                Principal axis orientation:                
 ---------------------------------------------------------------------
 Center     Atomic                     Coordinates (Angstroms)
 Number     Number                        X           Y           Z
 ---------------------------------------------------------------------
      1          6                    2.785873    0.687582    1.233401
      2          6                    2.171663    0.314282   -0.125147
      3         16                    2.225689   -1.529810   -0.293990
      4          6                    0.788046    0.972818   -0.259670
      5          8                    0.715809    2.170237   -0.520664
      6          7                   -0.304305    0.205861   -0.025149
      7          6                   -1.628302    0.776507   -0.082098
      8          6                   -2.658069   -0.315702    0.105873
      9          8                   -2.407032   -1.488181    0.278850
     10          8                   -3.911242    0.180414    0.059683
     11          1                    3.825110    0.351962    1.294762
     12          1                    2.757248    1.775051    1.348210
     13          1                    2.224503    0.236918    2.059388
     14          1                    2.783484    0.747539   -0.919829
     15          1                    1.883267   -1.588482   -1.599482
     16          1                   -0.220883   -0.788371    0.158041
     17          1                   -1.773500    1.543977    0.690035
     18          1                   -1.803221    1.281118   -1.041013
     19          1                   -4.514656   -0.575524    0.189319
 ---------------------------------------------------------------------
 Rotational constants (MHZ):
   1903.0625057    570.6871273    472.4716503
 Dipole moment (Debye):
      0.0000000      0.0000000      0.0000000  Tot=      0.0000000

 Atoms with significant hyperfine tensors: 

--------------------------------------------------------------------------------
 individuo_8160_opt.xyz                                  
   99  1000  50  0.1760E-11  0.1000E+07  0.1000E+01 1.0000000000
a   1  0  0  0  1  1   1  0  1  0
     10000   0.19030625E+04    0.0000E+00   /  A  /
     20000   0.57068713E+03    0.0000E+00   /  B  /
     30000   0.47247165E+03    0.0000E+00   /  C  /
--------------------------------------------------------------------------------



 You can't act like a skunk without someone's getting wind of it.
 -- Lorene Workman
 Job cpu time:       0 days  0 hours  0 minutes  0.2 seconds.
 Elapsed time:       0 days  0 hours  0 minutes  0.2 seconds.
 File lengths (MBytes):  RWF=     14 Int=      0 D2E=      0 Chk=      9 Scr=      1
 Normal termination of Gaussian DV at Fri Mar 14 15:26:46 2025.
