#p UFF GEOM=READALLGIC OUTPUT=PICKETT

individuo_5272_opt.xyz

0 1
6 2.892474 -0.960003 1.113937
6 1.894380 0.076119 0.597789
16 2.648690 1.251718 -0.624055
6 0.690826 -0.602041 -0.064335
8 0.826084 -1.522211 -0.864288
7 -0.530220 -0.123123 0.295555
6 -1.733188 -0.605737 -0.341575
6 -2.905786 0.235468 0.113518
8 -2.829399 1.179382 0.870484
8 -4.060725 -0.193761 -0.430508
1 3.778542 -0.469710 1.525386
1 2.431732 -1.572789 1.899070
1 3.194132 -1.626177 0.301440
1 1.565823 0.728799 1.413994
1 2.818883 0.325124 -1.592033
1 -0.632418 0.700691 0.875438
1 -1.654473 -0.559849 -1.435853
1 -1.926176 -1.657709 -0.095618
1 -4.763466 0.395877 -0.097334

Dihed1 = D( 15, 3, 2, 14)
Dihed2 = D(  3, 2, 4, 5)
Dihed3 = D(  4, 6, 7, 8)
Dihed4 = D(  6, 7, 8, 9)
Dihed5 = D(  9, 8, 10, 19)

