#p UFF GEOM=READALLGIC OUTPUT=PICKETT

individuo_5047_opt.xyz

0 1
6 -2.896035 1.313663 0.411061
6 -1.839241 0.214868 0.484831
16 -2.432712 -1.402180 -0.228803
6 -0.528808 0.650086 -0.200471
8 -0.306816 1.826574 -0.450237
7 0.366345 -0.348686 -0.468574
6 1.697313 -0.057014 -0.943352
6 2.811987 -0.156566 0.091852
8 3.986666 -0.098515 -0.188797
8 2.355036 -0.309428 1.356054
1 -3.789478 1.023882 0.972739
1 -2.495516 2.239927 0.832402
1 -3.183343 1.507215 -0.625780
1 -1.580922 0.012292 1.531679
1 -3.301893 -1.682395 0.765300
1 0.147249 -1.287876 -0.163514
1 1.973456 -0.709841 -1.778103
1 1.690231 0.971591 -1.317073
1 3.148814 -0.338397 1.923531

Dihed1 = D( 15, 3, 2, 14)
Dihed2 = D(  3, 2, 4, 5)
Dihed3 = D(  4, 6, 7, 8)
Dihed4 = D(  6, 7, 8, 9)
Dihed5 = D(  9, 8, 10, 19)

