#p UFF GEOM=READALLGIC OUTPUT=PICKETT

individuo_9399_opt.xyz

0 1
6 2.896589 1.313036 -0.411681
6 1.839487 0.214484 -0.484973
16 2.432421 -1.402296 0.229748
6 0.529068 0.650481 0.199834
8 0.307382 1.827200 0.448839
7 -0.366418 -0.347835 0.468403
6 -1.697267 -0.055535 0.943151
6 -2.812210 -0.156553 -0.091634
8 -3.986802 -0.097758 0.189210
8 -2.355629 -0.311694 -1.355682
1 3.790099 1.022586 -0.972903
1 2.496441 2.239105 -0.833796
1 3.183632 1.507233 0.625109
1 1.581338 0.011320 -1.531745
1 3.301359 -1.683599 -0.764259
1 -0.147458 -1.287353 0.164266
1 -1.973194 -0.707244 1.778851
1 -1.690086 0.973570 1.315486
1 -3.149560 -0.341491 -1.922903

Dihed1 = D( 15, 3, 2, 14)
Dihed2 = D(  3, 2, 4, 5)
Dihed3 = D(  4, 6, 7, 8)
Dihed4 = D(  6, 7, 8, 9)
Dihed5 = D(  9, 8, 10, 19)

