 Entering Gaussian System, Link 0=gdv
 Input=joint_population/temp_processing/individuo_2543_opt.gjf
 Output=joint_population/temp_processing/individuo_2543_opt.log
 Initial command:
 /home/enzo/gaussian_versions/gdv.j21/gdv/l1.exe "/local/home/enzo/scratch/Gau-2409135.inp" -scrdir="/local/home/enzo/scratch/"
 Entering Link 1 = /home/enzo/gaussian_versions/gdv.j21/gdv/l1.exe PID=   2409136.
  
 Copyright (c) 1988-2022, Gaussian, Inc.  All Rights Reserved.
  
 This is the private, development version of
 the Gaussian(R) DV system of programs. It is based on
 the Gaussian(R) 16 system (copyright 2016, Gaussian, Inc.),
 the Gaussian(R) 09 system (copyright 2009, Gaussian, Inc.),
 the Gaussian(R) 03 system (copyright 2003, Gaussian, Inc.),
 the Gaussian(R) 98 system (copyright 1998, Gaussian, Inc.),
 the Gaussian(R) 94 system (copyright 1995, Gaussian, Inc.),
 the Gaussian 92(TM) system (copyright 1992, Gaussian, Inc.),
 the Gaussian 90(TM) system (copyright 1990, Gaussian, Inc.),
 the Gaussian 88(TM) system (copyright 1988, Gaussian, Inc.),
 the Gaussian 86(TM) system (copyright 1986, Carnegie Mellon
 University), and the Gaussian 82(TM) system (copyright 1983,
 Carnegie Mellon University). Gaussian is a federally registered
 trademark of Gaussian, Inc.
  
 This software contains proprietary and confidential information,
 including trade secrets, belonging to Gaussian, Inc.
  
 This software is provided under written license and may be
 used, copied, transmitted, or stored only in accord with that
 written license.
  
 The following legend is applicable only to US Government
 contracts under FAR:
  
                    RESTRICTED RIGHTS LEGEND
  
 Use, reproduction and disclosure by the US Government is
 subject to restrictions as set forth in subparagraphs (a)
 and (c) of the Commercial Computer Software - Restricted
 Rights clause in FAR 52.227-19.
  
 Gaussian, Inc.
 340 Quinnipiac St., Bldg. 40, Wallingford CT 06492
  
  
 ---------------------------------------------------------------
 Warning -- This program may not be used in any manner that
 competes with the business of Gaussian, Inc. or will provide
 assistance to any competitor of Gaussian, Inc.  The licensee
 of this program is prohibited from giving any competitor of
 Gaussian, Inc. access to this program.  By using this program,
 the user acknowledges that Gaussian, Inc. is engaged in the
 business of creating and licensing software in the field of
 computational chemistry and represents and warrants to the
 licensee that it is not a competitor of Gaussian, Inc. and that
 it will not use this program in any manner prohibited above.
 ---------------------------------------------------------------
  

 Cite this work as:
 Gaussian Development Version, Revision J.21,
 M. J. Frisch, G. W. Trucks, H. B. Schlegel, G. E. Scuseria, 
 M. A. Robb, J. R. Cheeseman, G. Scalmani, V. Barone, 
 G. A. Petersson, H. Nakatsuji, X. Li, A. V. Marenich, M. Caricato, 
 J. Bloino, B. G. Janesko, J. Zheng, R. Gomperts, B. Mennucci, 
 H. P. Hratchian, J. V. Ortiz, A. F. Izmaylov, J. L. Sonnenberg, 
 D. Williams-Young, F. Ding, F. Lipparini, F. Egidi, J. Goings, 
 B. Peng, A. Petrone, T. Henderson, D. Ranasinghe, V. G. Zakrzewski, 
 J. Gao, N. Rega, G. Zheng, W. Liang, M. Hada, M. Ehara, K. Toyota, 
 R. Fukuda, J. Hasegawa, M. Ishida, T. Nakajima, Y. Honda, O. Kitao, 
 H. Nakai, T. Vreven, K. Throssell, J. A. Montgomery, Jr., 
 J. E. Peralta, F. Ogliaro, M. J. Bearpark, J. J. Heyd, 
 E. N. Brothers, K. N. Kudin, V. N. Staroverov, T. A. Keith, 
 R. Kobayashi, J. Normand, K. Raghavachari, A. P. Rendell, 
 J. C. Burant, S. S. Iyengar, J. Tomasi, M. Cossi, J. M. Millam, 
 M. Klene, C. Adamo, R. Cammi, J. W. Ochterski, R. L. Martin, 
 K. Morokuma, O. Farkas, J. B. Foresman, and D. J. Fox, 
 Gaussian, Inc., Wallingford CT, 2020.
 
 ******************************************
 Gaussian DV:  ES64L-GDVRevJ.21 25-Jul-2022
                14-Mar-2025 
 ******************************************
 -------------------------------------
 #p UFF GEOM=READALLGIC OUTPUT=PICKETT
 -------------------------------------
 1/18=20,37=210000000,38=1,56=1,64=2,145=602,172=1/1;
 2/12=2/2;
 3/5=30,11=9,25=1,30=1,41=10020000,43=2/1;
 4/20=10,24=3/2;
 99/5=1,9=1,10=1024/99;
 Leave Link    1 at Fri Mar 14 15:26:38 2025, MaxMem=           0 cpu:               0.0 elap:               0.0
 (Enter /home/enzo/gaussian_versions/gdv.j21/gdv/l101.exe)
 ----------------------
 individuo_2543_opt.xyz
 ----------------------
 Symbolic Z-matrix:
 Charge =     0 Multiplicity =     1
 6                    -2.98344  -0.92579   0.66534 
 6                    -2.00359  -0.27728  -0.30765 
 16                   -1.91292   1.57593  -0.10985 
 6                    -0.59153  -0.88166  -0.16913 
 8                    -0.39384  -1.88976   0.4937 
 7                     0.38932  -0.26646  -0.90126 
 6                     1.77021  -0.67219  -0.78287 
 6                     2.64621   0.18843   0.12154 
 8                     3.848     0.07094   0.18907 
 8                     1.9416    1.08796   0.84275 
 1                    -3.99305  -0.53293   0.51032 
 1                    -2.99659  -2.00881   0.5118 
 1                    -2.68765  -0.73348   1.69968 
 1                    -2.32137  -0.45844  -1.34145 
 1                    -3.12428   1.83029  -0.64843 
 1                     0.1855    0.6447   -1.29227 
 1                     1.7773   -1.68653  -0.37247 
 1                     2.25648  -0.70861  -1.76323 
 1                     2.59197   1.56203   1.39492 
 
 Initializing the GIC definitions file.

 CrInp1: Reading the GIC input below.
 Dihed1 = D( 15, 3, 2, 14)
 Dihed2 = D( 3, 2, 4, 5)
 Dihed3 = D( 4, 6, 7, 8)
 Dihed4 = D( 6, 7, 8, 9)
 Dihed5 = D( 9, 8, 10, 19)
 
 Warning:  Number of GICs=     5 3N-6=    51.
 ITRead=  0  0  0  0  0  0  0  0  0  0  0  0  0  0  0  0  0  0  0
 MicOpt= -1 -1 -1 -1 -1 -1 -1 -1 -1 -1 -1 -1 -1 -1 -1 -1 -1 -1 -1
                           ----------------------------
                           !    Current Parameters    !
                           ! (Angstroms and Degrees)  !
 --------------------------                            --------------------------
 ! Name   Definition             Value                                          !
 --------------------------------------------------------------------------------
 ! Dihed1 D(15,3,2,14)          48.5005                                         !
 ! Dihed2 D(3,2,4,5)           136.0423                                         !
 ! Dihed3 D(4,6,7,8)           -99.0875                                         !
 ! Dihed4 D(6,7,8,9)          -170.6576                                         !
 ! Dihed5 D(9,8,10,19)          -1.0392                                         !
 --------------------------------------------------------------------------------
 NAtoms=     19 NQM=       19 NQMF=       0 NMMI=      0 NMMIF=      0
                NMic=       0 NMicF=      0.
                    Isotopes and Nuclear Properties:
 (Nuclear quadrupole moments (NQMom) in fm**2, nuclear magnetic moments (NMagM)
  in nuclear magnetons)

  Atom         1           2           3           4           5           6           7           8           9          10
 IAtWgt=          12          12          32          12          16          14          12          12          16          16
 AtmWgt=  12.0000000  12.0000000  31.9720718  12.0000000  15.9949146  14.0030740  12.0000000  12.0000000  15.9949146  15.9949146
 NucSpn=           0           0           0           0           0           2           0           0           0           0
 AtZEff=  -0.0000000  -0.0000000  -0.0000000  -0.0000000  -0.0000000  -0.0000000  -0.0000000  -0.0000000  -0.0000000  -0.0000000
 NQMom=    0.0000000   0.0000000   0.0000000   0.0000000   0.0000000   2.0440000   0.0000000   0.0000000   0.0000000   0.0000000
 NMagM=    0.0000000   0.0000000   0.0000000   0.0000000   0.0000000   0.4037610   0.0000000   0.0000000   0.0000000   0.0000000
 AtZNuc=   6.0000000   6.0000000  16.0000000   6.0000000   8.0000000   7.0000000   6.0000000   6.0000000   8.0000000   8.0000000

  Atom        11          12          13          14          15          16          17          18          19
 IAtWgt=           1           1           1           1           1           1           1           1           1
 AtmWgt=   1.0078250   1.0078250   1.0078250   1.0078250   1.0078250   1.0078250   1.0078250   1.0078250   1.0078250
 NucSpn=           1           1           1           1           1           1           1           1           1
 AtZEff=  -0.0000000  -0.0000000  -0.0000000  -0.0000000  -0.0000000  -0.0000000  -0.0000000  -0.0000000  -0.0000000
 NQMom=    0.0000000   0.0000000   0.0000000   0.0000000   0.0000000   0.0000000   0.0000000   0.0000000   0.0000000
 NMagM=    2.7928460   2.7928460   2.7928460   2.7928460   2.7928460   2.7928460   2.7928460   2.7928460   2.7928460
 AtZNuc=   1.0000000   1.0000000   1.0000000   1.0000000   1.0000000   1.0000000   1.0000000   1.0000000   1.0000000
 Generating MM parameters.
 Include all MM classes

 MM sanity checks:
 All charges sum to:                0.00000000
 Charges of atoms sum to:           0.00000000
 MMInit generated parameter data with length LenPar=        2803.
 Leave Link  101 at Fri Mar 14 15:26:38 2025, MaxMem=   104857600 cpu:               0.1 elap:               0.1
 (Enter /home/enzo/gaussian_versions/gdv.j21/gdv/l202.exe)
                          Input orientation:                          
 ---------------------------------------------------------------------
 Center     Atomic      Atomic             Coordinates (Angstroms)
 Number     Number       Type             X           Y           Z
 ---------------------------------------------------------------------
      1          6    10061003       -2.983436   -0.925786    0.665338
      2          6    10061003       -2.003592   -0.277275   -0.307647
      3         16    10161003       -1.912921    1.575928   -0.109852
      4          6    10061000       -0.591528   -0.881663   -0.169127
      5          8    10081002       -0.393839   -1.889759    0.493702
      6          7    10071000        0.389317   -0.266460   -0.901261
      7          6    10061003        1.770205   -0.672190   -0.782866
      8          6    10061000        2.646205    0.188425    0.121543
      9          8    10081002        3.848002    0.070936    0.189066
     10          8    10081000        1.941596    1.087957    0.842750
     11          1    10011000       -3.993052   -0.532925    0.510318
     12          1    10011000       -2.996591   -2.008811    0.511798
     13          1    10011000       -2.687649   -0.733478    1.699683
     14          1    10011000       -2.321369   -0.458436   -1.341449
     15          1    10011000       -3.124282    1.830291   -0.648432
     16          1    10011000        0.185502    0.644697   -1.292267
     17          1    10011000        1.777303   -1.686528   -0.372474
     18          1    10011000        2.256481   -0.708608   -1.763233
     19          1    10011000        2.591974    1.562027    1.394921
 ---------------------------------------------------------------------
                    Distance matrix (angstroms):
                    1          2          3          4          5
     1  C    0.000000
     2  C    1.525569   0.000000
     3  S    2.829398   1.865933   0.000000
     4  C    2.533674   1.542205   2.790940   0.000000
     5  O    2.768522   2.415278   3.831824   1.222571   0.000000
     6  N    3.776825   2.465463   3.053035   1.369873   2.279113
     7  C    4.975812   3.824047   4.367196   2.449150   2.791986
     8  C    5.764550   4.692728   4.771199   3.422352   3.701246
     9  O    6.920176   5.882952   5.961760   4.554687   4.682984
    10  O    5.323775   4.330333   4.000358   3.364523   3.800379
    11  H    1.094393   2.166189   3.026354   3.486206   3.846506
    12  H    1.093934   2.157720   3.796201   2.741979   2.605536
    13  H    1.092860   2.169200   3.034465   2.812140   2.837770
    14  H    2.164242   1.096608   2.412944   2.132090   3.021893
    15  H    3.056434   2.411206   1.349876   3.741560   4.753794
    16  H    4.042376   2.571311   2.582378   2.048168   3.154170
    17  H    4.931574   4.035513   4.932580   2.510083   2.346363
    18  H    5.779434   4.522499   5.033556   3.268375   3.676013
    19  H    6.148715   5.234596   4.749591   4.307267   4.652107
                    6          7          8          9         10
     6  N    0.000000
     7  C    1.444121   0.000000
     8  C    2.519244   1.525120   0.000000
     9  O    3.642135   2.411250   1.209413   0.000000
    10  O    2.699183   2.402107   1.351211   2.257436   0.000000
    11  H    4.611802   5.908202   6.689636   7.870831   6.160992
    12  H    4.061637   5.117133   6.068055   7.160863   5.838252
    13  H    4.055951   5.102869   5.638300   6.756018   5.047957
    14  H    2.752896   4.135055   5.218771   6.378389   5.033381
    15  H    4.099471   5.498771   6.048728   7.239439   5.332711
    16  H    1.012242   2.122490   2.874387   3.992174   2.799758
    17  H    2.054924   1.094237   2.124733   2.773410   3.033402
    18  H    2.103519   1.094948   2.123425   2.636683   3.180872
    19  H    3.669811   3.226420   1.873824   2.292388   0.976026
                   11         12         13         14         15
    11  H    0.000000
    12  H    1.780780   0.000000
    13  H    1.777326   1.770025   0.000000
    14  H    2.495819   2.508807   3.075434   0.000000
    15  H    2.771688   4.012623   3.503884   2.522541   0.000000
    16  H    4.700683   4.519012   4.371056   2.739293   3.574189
    17  H    5.950388   4.865785   5.013775   4.387053   6.039015
    18  H    6.652561   5.870354   6.036293   4.604042   6.053214
    19  H    6.966629   6.690504   5.765123   5.975862   6.076417
                   16         17         18         19
    16  H    0.000000
    17  H    2.968916   0.000000
    18  H    2.518372   1.766395   0.000000
    19  H    3.722040   3.786883   3.904136   0.000000
 Stoichiometry    C5H9NO3S
 Framework group  C1[X(C5H9NO3S)]
 Deg. of freedom    51
 Full point group                 C1      NOp   1
 Largest Abelian subgroup         C1      NOp   1
 Largest concise Abelian subgroup C1      NOp   1
                         Standard orientation:                         
 ---------------------------------------------------------------------
 Center     Atomic      Atomic             Coordinates (Angstroms)
 Number     Number       Type             X           Y           Z
 ---------------------------------------------------------------------
      1          6    10061003        2.983436   -0.925786   -0.665338
      2          6    10061003        2.003592   -0.277275    0.307647
      3         16    10161003        1.912921    1.575928    0.109852
      4          6    10061000        0.591528   -0.881663    0.169127
      5          8    10081002        0.393839   -1.889759   -0.493702
      6          7    10071000       -0.389317   -0.266460    0.901261
      7          6    10061003       -1.770205   -0.672190    0.782866
      8          6    10061000       -2.646205    0.188425   -0.121543
      9          8    10081002       -3.848002    0.070936   -0.189066
     10          8    10081000       -1.941596    1.087957   -0.842750
     11          1    10011000        3.993052   -0.532925   -0.510318
     12          1    10011000        2.996591   -2.008811   -0.511798
     13          1    10011000        2.687649   -0.733478   -1.699683
     14          1    10011000        2.321369   -0.458436    1.341449
     15          1    10011000        3.124282    1.830291    0.648432
     16          1    10011000       -0.185502    0.644697    1.292267
     17          1    10011000       -1.777303   -1.686528    0.372474
     18          1    10011000       -2.256481   -0.708608    1.763233
     19          1    10011000       -2.591974    1.562027   -1.394921
 ---------------------------------------------------------------------
 Rotational constants (GHZ):           2.0050669           0.6189902           0.5266750
 Leave Link  202 at Fri Mar 14 15:26:38 2025, MaxMem=   104857600 cpu:               0.0 elap:               0.0
 (Enter /home/enzo/gaussian_versions/gdv.j21/gdv/l301.exe)
 Standard basis: Dummy (5D, 7F)
 There are    19 symmetry adapted cartesian basis functions of A   symmetry.
 There are    19 symmetry adapted basis functions of A   symmetry.
    19 basis functions,    19 primitive gaussians,    19 cartesian basis functions
    14 alpha electrons       14 beta electrons
       nuclear repulsion energy        69.1018250480 Hartrees.
 IExCor=         0 DFT=F Ex=HF Corr=None N6=None ScaHFX=  1.000000
 ScaDFX=  1.000000  1.000000  1.000000  1.000000  1.000000  0.000000
 ScaDFX=  0.000000  0.000000  0.000000  0.000000  0.000000  0.000000
 IRadAn=      5 IRanWt=     -1 IRanGd=            0 ICorTp=0 IEmpDi=  4
 NAtoms=   19 NActive=   19 NUniq=   19 SFac= 1.00D+00 NAtFMM=   60 NAOKFM=F Big=F
 Integral buffers will be    131072 words long.
 Raffenetti 1 integral format.
 Two-electron integral symmetry is turned on.
 Leave Link  301 at Fri Mar 14 15:26:38 2025, MaxMem=   104857600 cpu:               0.0 elap:               0.0
 (Enter /home/enzo/gaussian_versions/gdv.j21/gdv/l402.exe)
 UFF calculation of energy.
 Energy per function type:
 Direct Coulomb + vdW (small)                           0.029657423
 Direct Coulomb (large)                                 0.000000000
 Direct vdW (large)                                   883.909844154
 Non-direct Coulomb + vdW (small)                      -0.012173427
 Non-direct Coulomb (large)                             0.000000000
 Non-direct vdW (large)                              -883.909844154
 Harmonic stretch III                                   0.010292226
 UFF 3-term bend                                        0.006248244
 UFF 2-term bend                                        0.007557241
 UFF torsion fixed V                                    0.001535181
 UFF torsion w/ bond order V                            0.001331578
 UFF torsion w/ sp3 V                                   0.000209316
 Three term Wilson angle                                0.000157689
 Energy per function class:
        Coulomb               0.000000000
    Vanderwaals               0.017483997
     Stretching               0.010292226
        Bending               0.013805485
        Torsion               0.003076076
   Out-of-plane               0.000157689
 Energy=    4.481547304E-02 NIter=   0.
 Dipole moment=       0.000000       0.000000       0.000000
 Leave Link  402 at Fri Mar 14 15:26:39 2025, MaxMem=   104857600 cpu:               0.0 elap:               0.0
 (Enter /home/enzo/gaussian_versions/gdv.j21/gdv/l9999.exe)
 Unable to Open any file for archive entry.
 1\1\GINC-ORACLE\SP\UFF\ZDO\C5H9N1O3S1\ENZO\14-Mar-2025\0\\#p UFF GEOM=
 READALLGIC OUTPUT=PICKETT\\individuo_2543_opt.xyz\\0,1\C,0,-2.983436,-
 0.925786,0.665338\C,0,-2.003592,-0.277275,-0.307647\S,0,-1.912921,1.57
 5928,-0.109852\C,0,-0.591528,-0.881663,-0.169127\O,0,-0.393839,-1.8897
 59,0.493702\N,0,0.389317,-0.26646,-0.901261\C,0,1.770205,-0.67219,-0.7
 82866\C,0,2.646205,0.188425,0.121543\O,0,3.848002,0.070936,0.189066\O,
 0,1.941596,1.087957,0.84275\H,0,-3.993052,-0.532925,0.510318\H,0,-2.99
 6591,-2.008811,0.511798\H,0,-2.687649,-0.733478,1.699683\H,0,-2.321369
 ,-0.458436,-1.341449\H,0,-3.124282,1.830291,-0.648432\H,0,0.185502,0.6
 44697,-1.292267\H,0,1.777303,-1.686528,-0.372474\H,0,2.256481,-0.70860
 8,-1.763233\H,0,2.591974,1.562027,1.394921\\Version=ES64L-GDVRevJ.21\H
 F=0.0448155\RMSD=0.000e+00\Dipole=0.,0.,0.\PG=C01 [X(C5H9N1O3S1)]\\@
 The archive entry for this job was punched.
 DoSRE=F DoSRN=F DoDH=F DoFC=F DoNQ=F DoQCD=F DoSCD=F
 Inertia tensor (amu-bohr**2): 
                 1             2             3 
      1   0.900337D+03  0.179713D+02 -0.148128D+02
      2   0.179713D+02  0.291546D+04  0.408685D+00
      3  -0.148128D+02  0.408685D+00  0.342658D+04
 Principal inertia moments (amu-bohr**2):
 Iaa = 0.900090D+03 Ibb= 0.291562D+04 Icc= 0.342667D+04
 Rotation matrix to Principal Axis frame: 
                 1             2             3 
      1   0.999943D+00  0.892115D-02 -0.585903D-02
      2  -0.891782D-02  0.999960D+00  0.593462D-03
      3   0.586409D-02 -0.541179D-03  0.999983D+00
                Principal axis orientation:                
 ---------------------------------------------------------------------
 Center     Atomic                     Coordinates (Angstroms)
 Number     Number                        X           Y           Z
 ---------------------------------------------------------------------
      1          6                   -3.021791   -0.965651    0.674674
      2          6                   -2.053491   -0.307898   -0.303650
      3         16                   -1.978192    1.545933   -0.105290
      4          6                   -0.635306   -0.899739   -0.173764
      5          8                   -0.424751   -1.906390    0.487297
      6          7                    0.335704   -0.275414   -0.911267
      7          6                    1.720826   -0.668873   -0.801206
      8          6                    2.594404    0.199033    0.098566
      9          8                    3.797577    0.092234    0.158977
     10          8                    1.886043    1.091853    0.824423
     11          1                   -4.035762   -0.581728    0.525806
     12          1                   -3.026187   -2.048667    0.520571
     13          1                   -2.721670   -0.771271    1.707383
     14          1                   -2.375697   -0.491327   -1.335679
     15          1                   -3.194911    1.789771   -0.636612
     16          1                    0.121482    0.634100   -1.300531
     17          1                    1.739376   -1.683329   -0.391464
     18          1                    2.201650   -0.700421   -1.784426
     19          1                    2.535394    1.571407    1.373055
 ---------------------------------------------------------------------
 Rotational constants (MHZ):
   2005.0668740    618.9901912    526.6749917
 Dipole moment (Debye):
      0.0000000      0.0000000      0.0000000  Tot=      0.0000000

 Atoms with significant hyperfine tensors: 

--------------------------------------------------------------------------------
 individuo_2543_opt.xyz                                  
   99  1000  50  0.1760E-11  0.1000E+07  0.1000E+01 1.0000000000
a   1  0  0  0  1  1   1  0  1  0
     10000   0.20050669E+04    0.0000E+00   /  A  /
     20000   0.61899019E+03    0.0000E+00   /  B  /
     30000   0.52667499E+03    0.0000E+00   /  C  /
--------------------------------------------------------------------------------



 THE REASON MAN'S BEST FRIEND IS A DOG IS BECAUSE
 HE WAGS HIS TAIL INSTEAD OF HIS TONGUE.
 Job cpu time:       0 days  0 hours  0 minutes  0.2 seconds.
 Elapsed time:       0 days  0 hours  0 minutes  0.2 seconds.
 File lengths (MBytes):  RWF=     14 Int=      0 D2E=      0 Chk=      9 Scr=      1
 Normal termination of Gaussian DV at Fri Mar 14 15:26:39 2025.
