 Entering Gaussian System, Link 0=gdv
 Input=joint_population/temp_processing/individuo_4108_opt.gjf
 Output=joint_population/temp_processing/individuo_4108_opt.log
 Initial command:
 /home/enzo/gaussian_versions/gdv.j21/gdv/l1.exe "/local/home/enzo/scratch/Gau-2409185.inp" -scrdir="/local/home/enzo/scratch/"
 Entering Link 1 = /home/enzo/gaussian_versions/gdv.j21/gdv/l1.exe PID=   2409186.
  
 Copyright (c) 1988-2022, Gaussian, Inc.  All Rights Reserved.
  
 This is the private, development version of
 the Gaussian(R) DV system of programs. It is based on
 the Gaussian(R) 16 system (copyright 2016, Gaussian, Inc.),
 the Gaussian(R) 09 system (copyright 2009, Gaussian, Inc.),
 the Gaussian(R) 03 system (copyright 2003, Gaussian, Inc.),
 the Gaussian(R) 98 system (copyright 1998, Gaussian, Inc.),
 the Gaussian(R) 94 system (copyright 1995, Gaussian, Inc.),
 the Gaussian 92(TM) system (copyright 1992, Gaussian, Inc.),
 the Gaussian 90(TM) system (copyright 1990, Gaussian, Inc.),
 the Gaussian 88(TM) system (copyright 1988, Gaussian, Inc.),
 the Gaussian 86(TM) system (copyright 1986, Carnegie Mellon
 University), and the Gaussian 82(TM) system (copyright 1983,
 Carnegie Mellon University). Gaussian is a federally registered
 trademark of Gaussian, Inc.
  
 This software contains proprietary and confidential information,
 including trade secrets, belonging to Gaussian, Inc.
  
 This software is provided under written license and may be
 used, copied, transmitted, or stored only in accord with that
 written license.
  
 The following legend is applicable only to US Government
 contracts under FAR:
  
                    RESTRICTED RIGHTS LEGEND
  
 Use, reproduction and disclosure by the US Government is
 subject to restrictions as set forth in subparagraphs (a)
 and (c) of the Commercial Computer Software - Restricted
 Rights clause in FAR 52.227-19.
  
 Gaussian, Inc.
 340 Quinnipiac St., Bldg. 40, Wallingford CT 06492
  
  
 ---------------------------------------------------------------
 Warning -- This program may not be used in any manner that
 competes with the business of Gaussian, Inc. or will provide
 assistance to any competitor of Gaussian, Inc.  The licensee
 of this program is prohibited from giving any competitor of
 Gaussian, Inc. access to this program.  By using this program,
 the user acknowledges that Gaussian, Inc. is engaged in the
 business of creating and licensing software in the field of
 computational chemistry and represents and warrants to the
 licensee that it is not a competitor of Gaussian, Inc. and that
 it will not use this program in any manner prohibited above.
 ---------------------------------------------------------------
  

 Cite this work as:
 Gaussian Development Version, Revision J.21,
 M. J. Frisch, G. W. Trucks, H. B. Schlegel, G. E. Scuseria, 
 M. A. Robb, J. R. Cheeseman, G. Scalmani, V. Barone, 
 G. A. Petersson, H. Nakatsuji, X. Li, A. V. Marenich, M. Caricato, 
 J. Bloino, B. G. Janesko, J. Zheng, R. Gomperts, B. Mennucci, 
 H. P. Hratchian, J. V. Ortiz, A. F. Izmaylov, J. L. Sonnenberg, 
 D. Williams-Young, F. Ding, F. Lipparini, F. Egidi, J. Goings, 
 B. Peng, A. Petrone, T. Henderson, D. Ranasinghe, V. G. Zakrzewski, 
 J. Gao, N. Rega, G. Zheng, W. Liang, M. Hada, M. Ehara, K. Toyota, 
 R. Fukuda, J. Hasegawa, M. Ishida, T. Nakajima, Y. Honda, O. Kitao, 
 H. Nakai, T. Vreven, K. Throssell, J. A. Montgomery, Jr., 
 J. E. Peralta, F. Ogliaro, M. J. Bearpark, J. J. Heyd, 
 E. N. Brothers, K. N. Kudin, V. N. Staroverov, T. A. Keith, 
 R. Kobayashi, J. Normand, K. Raghavachari, A. P. Rendell, 
 J. C. Burant, S. S. Iyengar, J. Tomasi, M. Cossi, J. M. Millam, 
 M. Klene, C. Adamo, R. Cammi, J. W. Ochterski, R. L. Martin, 
 K. Morokuma, O. Farkas, J. B. Foresman, and D. J. Fox, 
 Gaussian, Inc., Wallingford CT, 2020.
 
 ******************************************
 Gaussian DV:  ES64L-GDVRevJ.21 25-Jul-2022
                14-Mar-2025 
 ******************************************
 -------------------------------------
 #p UFF GEOM=READALLGIC OUTPUT=PICKETT
 -------------------------------------
 1/18=20,37=210000000,38=1,56=1,64=2,145=602,172=1/1;
 2/12=2/2;
 3/5=30,11=9,25=1,30=1,41=10020000,43=2/1;
 4/20=10,24=3/2;
 99/5=1,9=1,10=1024/99;
 Leave Link    1 at Fri Mar 14 15:26:44 2025, MaxMem=           0 cpu:               0.0 elap:               0.0
 (Enter /home/enzo/gaussian_versions/gdv.j21/gdv/l101.exe)
 ----------------------
 individuo_4108_opt.xyz
 ----------------------
 Symbolic Z-matrix:
 Charge =     0 Multiplicity =     1
 6                     1.81464   1.71253  -0.78038 
 6                     1.99732   0.20771  -0.57484 
 16                    2.96139  -0.05849   0.99131 
 6                     0.72633  -0.64751  -0.51482 
 8                     0.78224  -1.86544  -0.65724 
 7                    -0.44718  -0.00039  -0.28969 
 6                    -1.67859  -0.7382   -0.13671 
 6                    -2.79527   0.22737   0.19421 
 8                    -2.66013   1.42519   0.32535 
 8                    -3.97432  -0.40964   0.32943 
 1                     2.78721   2.19923  -0.89939 
 1                     1.22712   1.90756  -1.68426 
 1                     1.31473   2.1868    0.07225 
 1                     2.59108  -0.20731  -1.39355 
 1                     2.92802  -1.40644   0.93032 
 1                    -0.49599   0.99499  -0.11635 
 1                    -1.93424  -1.28962  -1.0505 
 1                    -1.60065  -1.49153   0.65837 
 1                    -4.63817   0.27256   0.54486 
 
 Initializing the GIC definitions file.

 CrInp1: Reading the GIC input below.
 Dihed1 = D( 15, 3, 2, 14)
 Dihed2 = D( 3, 2, 4, 5)
 Dihed3 = D( 4, 6, 7, 8)
 Dihed4 = D( 6, 7, 8, 9)
 Dihed5 = D( 9, 8, 10, 19)
 
 Warning:  Number of GICs=     5 3N-6=    51.
 ITRead=  0  0  0  0  0  0  0  0  0  0  0  0  0  0  0  0  0  0  0
 MicOpt= -1 -1 -1 -1 -1 -1 -1 -1 -1 -1 -1 -1 -1 -1 -1 -1 -1 -1 -1
                           ----------------------------
                           !    Current Parameters    !
                           ! (Angstroms and Degrees)  !
 --------------------------                            --------------------------
 ! Name   Definition             Value                                          !
 --------------------------------------------------------------------------------
 ! Dihed1 D(15,3,2,14)         -63.3517                                         !
 ! Dihed2 D(3,2,4,5)           -73.6006                                         !
 ! Dihed3 D(4,6,7,8)           176.1996                                         !
 ! Dihed4 D(6,7,8,9)            -0.933                                          !
 ! Dihed5 D(9,8,10,19)          -0.2148                                         !
 --------------------------------------------------------------------------------
 NAtoms=     19 NQM=       19 NQMF=       0 NMMI=      0 NMMIF=      0
                NMic=       0 NMicF=      0.
                    Isotopes and Nuclear Properties:
 (Nuclear quadrupole moments (NQMom) in fm**2, nuclear magnetic moments (NMagM)
  in nuclear magnetons)

  Atom         1           2           3           4           5           6           7           8           9          10
 IAtWgt=          12          12          32          12          16          14          12          12          16          16
 AtmWgt=  12.0000000  12.0000000  31.9720718  12.0000000  15.9949146  14.0030740  12.0000000  12.0000000  15.9949146  15.9949146
 NucSpn=           0           0           0           0           0           2           0           0           0           0
 AtZEff=  -0.0000000  -0.0000000  -0.0000000  -0.0000000  -0.0000000  -0.0000000  -0.0000000  -0.0000000  -0.0000000  -0.0000000
 NQMom=    0.0000000   0.0000000   0.0000000   0.0000000   0.0000000   2.0440000   0.0000000   0.0000000   0.0000000   0.0000000
 NMagM=    0.0000000   0.0000000   0.0000000   0.0000000   0.0000000   0.4037610   0.0000000   0.0000000   0.0000000   0.0000000
 AtZNuc=   6.0000000   6.0000000  16.0000000   6.0000000   8.0000000   7.0000000   6.0000000   6.0000000   8.0000000   8.0000000

  Atom        11          12          13          14          15          16          17          18          19
 IAtWgt=           1           1           1           1           1           1           1           1           1
 AtmWgt=   1.0078250   1.0078250   1.0078250   1.0078250   1.0078250   1.0078250   1.0078250   1.0078250   1.0078250
 NucSpn=           1           1           1           1           1           1           1           1           1
 AtZEff=  -0.0000000  -0.0000000  -0.0000000  -0.0000000  -0.0000000  -0.0000000  -0.0000000  -0.0000000  -0.0000000
 NQMom=    0.0000000   0.0000000   0.0000000   0.0000000   0.0000000   0.0000000   0.0000000   0.0000000   0.0000000
 NMagM=    2.7928460   2.7928460   2.7928460   2.7928460   2.7928460   2.7928460   2.7928460   2.7928460   2.7928460
 AtZNuc=   1.0000000   1.0000000   1.0000000   1.0000000   1.0000000   1.0000000   1.0000000   1.0000000   1.0000000
 Generating MM parameters.
 Include all MM classes

 MM sanity checks:
 All charges sum to:                0.00000000
 Charges of atoms sum to:           0.00000000
 MMInit generated parameter data with length LenPar=        2803.
 Leave Link  101 at Fri Mar 14 15:26:44 2025, MaxMem=   104857600 cpu:               0.1 elap:               0.1
 (Enter /home/enzo/gaussian_versions/gdv.j21/gdv/l202.exe)
                          Input orientation:                          
 ---------------------------------------------------------------------
 Center     Atomic      Atomic             Coordinates (Angstroms)
 Number     Number       Type             X           Y           Z
 ---------------------------------------------------------------------
      1          6    10061003        1.814644    1.712526   -0.780383
      2          6    10061003        1.997315    0.207711   -0.574835
      3         16    10161003        2.961391   -0.058488    0.991305
      4          6    10061000        0.726329   -0.647510   -0.514815
      5          8    10081002        0.782243   -1.865438   -0.657239
      6          7    10071000       -0.447179   -0.000389   -0.289685
      7          6    10061003       -1.678590   -0.738198   -0.136705
      8          6    10061000       -2.795274    0.227371    0.194212
      9          8    10081002       -2.660132    1.425191    0.325345
     10          8    10081000       -3.974318   -0.409643    0.329434
     11          1    10011000        2.787214    2.199225   -0.899392
     12          1    10011000        1.227121    1.907563   -1.684258
     13          1    10011000        1.314726    2.186797    0.072246
     14          1    10011000        2.591081   -0.207307   -1.393545
     15          1    10011000        2.928015   -1.406437    0.930317
     16          1    10011000       -0.495993    0.994988   -0.116345
     17          1    10011000       -1.934241   -1.289617   -1.050501
     18          1    10011000       -1.600650   -1.491530    0.658372
     19          1    10011000       -4.638174    0.272561    0.544855
 ---------------------------------------------------------------------
                    Distance matrix (angstroms):
                    1          2          3          4          5
     1  C    0.000000
     2  C    1.529734   0.000000
     3  S    2.755068   1.858252   0.000000
     4  C    2.612418   1.533105   2.758776   0.000000
     5  O    3.725969   2.404400   3.275889   1.227501   0.000000
     6  N    2.879359   2.469852   3.641794   1.358886   2.263842
     7  C    4.315444   3.820861   4.823260   2.436150   2.756324
     8  C    4.940330   4.853940   5.818614   3.697272   4.231246
     9  O    4.618313   4.897386   5.852036   4.058334   4.862474
    10  O    6.264773   6.071180   6.976062   4.781780   5.071266
    11  H    1.094044   2.166888   2.949973   3.535399   4.538726
    12  H    1.095542   2.171063   3.745889   2.854258   3.935508
    13  H    1.096279   2.191215   2.932146   2.953667   4.151662
    14  H    2.159764   1.093199   2.418013   2.107901   2.561921
    15  H    3.727468   2.395237   1.349741   2.740766   2.708386
    16  H    2.508954   2.654544   3.780239   2.085821   3.179385
    17  H    4.810402   4.233838   5.445352   2.788888   2.804552
    18  H    4.899002   4.165762   4.793399   2.739264   2.747511
    19  H    6.743042   6.729608   7.619862   5.545027   5.949537
                    6          7          8          9         10
     6  N    0.000000
     7  C    1.443654   0.000000
     8  C    2.408232   1.512882   0.000000
     9  O    2.703276   2.420158   1.212531   0.000000
    10  O    3.604373   2.365502   1.346929   2.256927   0.000000
    11  H    3.958705   5.399403   6.020660   5.636727   7.350818
    12  H    2.896273   4.223521   4.746721   4.402491   6.039815
    13  H    2.831799   4.190370   4.554813   4.055071   5.897596
    14  H    3.239189   4.482363   5.632294   5.761499   6.790733
    15  H    3.854518   4.775551   5.997267   6.293766   6.999776
    16  H    1.011536   2.098305   2.443844   2.250258   3.777625
    17  H    2.110048   1.097471   2.142881   3.128906   2.615433
    18  H    2.110168   1.098058   2.144106   3.121005   2.629255
    19  H    4.281985   3.200827   1.876506   2.299868   0.975968
                   11         12         13         14         15
    11  H    0.000000
    12  H    1.770585   0.000000
    13  H    1.764215   1.780717   0.000000
    14  H    2.464559   2.533294   3.083725   0.000000
    15  H    4.045795   4.551004   4.031168   2.636621   0.000000
    16  H    3.583685   2.502052   2.175932   3.550603   4.311169
    17  H    5.872562   4.540685   4.888947   4.665577   5.251554
    18  H    5.941519   5.003802   4.730016   4.840475   4.537621
    19  H    7.806041   6.484124   6.270939   7.499986   7.759822
                   16         17         18         19
    16  H    0.000000
    17  H    2.856681   0.000000
    18  H    2.828997   1.752797   0.000000
    19  H    4.256378   3.506681   3.514464   0.000000
 Stoichiometry    C5H9NO3S
 Framework group  C1[X(C5H9NO3S)]
 Deg. of freedom    51
 Full point group                 C1      NOp   1
 Largest Abelian subgroup         C1      NOp   1
 Largest concise Abelian subgroup C1      NOp   1
                         Standard orientation:                         
 ---------------------------------------------------------------------
 Center     Atomic      Atomic             Coordinates (Angstroms)
 Number     Number       Type             X           Y           Z
 ---------------------------------------------------------------------
      1          6    10061003        1.814644    1.712526   -0.780383
      2          6    10061003        1.997315    0.207711   -0.574835
      3         16    10161003        2.961391   -0.058488    0.991305
      4          6    10061000        0.726329   -0.647510   -0.514815
      5          8    10081002        0.782243   -1.865438   -0.657239
      6          7    10071000       -0.447179   -0.000389   -0.289685
      7          6    10061003       -1.678590   -0.738198   -0.136705
      8          6    10061000       -2.795274    0.227371    0.194212
      9          8    10081002       -2.660132    1.425191    0.325345
     10          8    10081000       -3.974318   -0.409643    0.329434
     11          1    10011000        2.787214    2.199225   -0.899392
     12          1    10011000        1.227121    1.907563   -1.684258
     13          1    10011000        1.314726    2.186797    0.072246
     14          1    10011000        2.591081   -0.207307   -1.393545
     15          1    10011000        2.928015   -1.406437    0.930317
     16          1    10011000       -0.495993    0.994988   -0.116345
     17          1    10011000       -1.934241   -1.289617   -1.050501
     18          1    10011000       -1.600650   -1.491530    0.658372
     19          1    10011000       -4.638174    0.272561    0.544855
 ---------------------------------------------------------------------
 Rotational constants (GHZ):           2.2423486           0.5048767           0.4617774
 Leave Link  202 at Fri Mar 14 15:26:44 2025, MaxMem=   104857600 cpu:               0.0 elap:               0.0
 (Enter /home/enzo/gaussian_versions/gdv.j21/gdv/l301.exe)
 Standard basis: Dummy (5D, 7F)
 There are    19 symmetry adapted cartesian basis functions of A   symmetry.
 There are    19 symmetry adapted basis functions of A   symmetry.
    19 basis functions,    19 primitive gaussians,    19 cartesian basis functions
    14 alpha electrons       14 beta electrons
       nuclear repulsion energy        69.0101449127 Hartrees.
 IExCor=         0 DFT=F Ex=HF Corr=None N6=None ScaHFX=  1.000000
 ScaDFX=  1.000000  1.000000  1.000000  1.000000  1.000000  0.000000
 ScaDFX=  0.000000  0.000000  0.000000  0.000000  0.000000  0.000000
 IRadAn=      5 IRanWt=     -1 IRanGd=            0 ICorTp=0 IEmpDi=  4
 NAtoms=   19 NActive=   19 NUniq=   19 SFac= 1.00D+00 NAtFMM=   60 NAOKFM=F Big=F
 Integral buffers will be    131072 words long.
 Raffenetti 1 integral format.
 Two-electron integral symmetry is turned on.
 Leave Link  301 at Fri Mar 14 15:26:44 2025, MaxMem=   104857600 cpu:               0.0 elap:               0.0
 (Enter /home/enzo/gaussian_versions/gdv.j21/gdv/l402.exe)
 UFF calculation of energy.
 Energy per function type:
 Direct Coulomb + vdW (small)                           0.032246875
 Direct Coulomb (large)                                 0.000000000
 Direct vdW (large)                                   878.585017587
 Non-direct Coulomb + vdW (small)                      -0.012307106
 Non-direct Coulomb (large)                             0.000000000
 Non-direct vdW (large)                              -878.585017587
 Harmonic stretch III                                   0.008011503
 UFF 3-term bend                                        0.005335129
 UFF 2-term bend                                        0.008966997
 UFF torsion fixed V                                    0.002564547
 UFF torsion w/ bond order V                            0.000150930
 UFF torsion w/ sp3 V                                   0.000087174
 Three term Wilson angle                                0.000002018
 Energy per function class:
        Coulomb               0.000000000
    Vanderwaals               0.019939769
     Stretching               0.008011503
        Bending               0.014302126
        Torsion               0.002802651
   Out-of-plane               0.000002018
 Energy=    4.505806709E-02 NIter=   0.
 Dipole moment=       0.000000       0.000000       0.000000
 Leave Link  402 at Fri Mar 14 15:26:44 2025, MaxMem=   104857600 cpu:               0.0 elap:               0.0
 (Enter /home/enzo/gaussian_versions/gdv.j21/gdv/l9999.exe)
 Unable to Open any file for archive entry.
 1\1\GINC-ORACLE\SP\UFF\ZDO\C5H9N1O3S1\ENZO\14-Mar-2025\0\\#p UFF GEOM=
 READALLGIC OUTPUT=PICKETT\\individuo_4108_opt.xyz\\0,1\C,0,1.814644,1.
 712526,-0.780383\C,0,1.997315,0.207711,-0.574835\S,0,2.961391,-0.05848
 8,0.991305\C,0,0.726329,-0.64751,-0.514815\O,0,0.782243,-1.865438,-0.6
 57239\N,0,-0.447179,-0.000389,-0.289685\C,0,-1.67859,-0.738198,-0.1367
 05\C,0,-2.795274,0.227371,0.194212\O,0,-2.660132,1.425191,0.325345\O,0
 ,-3.974318,-0.409643,0.329434\H,0,2.787214,2.199225,-0.899392\H,0,1.22
 7121,1.907563,-1.684258\H,0,1.314726,2.186797,0.072246\H,0,2.591081,-0
 .207307,-1.393545\H,0,2.928015,-1.406437,0.930317\H,0,-0.495993,0.9949
 88,-0.116345\H,0,-1.934241,-1.289617,-1.050501\H,0,-1.60065,-1.49153,0
 .658372\H,0,-4.638174,0.272561,0.544855\\Version=ES64L-GDVRevJ.21\HF=0
 .0450581\RMSD=0.000e+00\Dipole=0.,0.,0.\PG=C01 [X(C5H9N1O3S1)]\\@
 The archive entry for this job was punched.
 DoSRE=F DoSRN=F DoDH=F DoFC=F DoNQ=F DoQCD=F DoSCD=F
 Inertia tensor (amu-bohr**2): 
                 1             2             3 
      1   0.805467D+03  0.348434D+02 -0.241921D+02
      2   0.348434D+02  0.357544D+04 -0.201832D+02
      3  -0.241921D+02 -0.201832D+02  0.390680D+04
 Principal inertia moments (amu-bohr**2):
 Iaa = 0.804844D+03 Ibb= 0.357462D+04 Icc= 0.390825D+04
 Rotation matrix to Principal Axis frame: 
                 1             2             3 
      1   0.999892D+00  0.120205D-01 -0.847157D-02
      2  -0.125185D-01  0.998034D+00 -0.614155D-01
      3   0.771667D-02  0.615150D-01  0.998076D+00
                Principal axis orientation:                
 ---------------------------------------------------------------------
 Center     Atomic                     Coordinates (Angstroms)
 Number     Number                        X           Y           Z
 ---------------------------------------------------------------------
      1          6                    1.800204    1.701236   -0.918399
      2          6                    2.003279    0.214220   -0.622375
      3         16                    2.982669    0.056474    0.948934
      4          6                    0.743600   -0.650906   -0.499179
      5          8                    0.813655   -1.874528   -0.567003
      6          7                   -0.436145   -0.005314   -0.304284
      7          6                   -1.657006   -0.747064   -0.095854
      8          6                   -2.783103    0.223539    0.184586
      9          8                   -2.661959    1.428695    0.240757
     10          8                   -3.953002   -0.418077    0.368659
     11          1                    2.765657    2.191348   -1.075309
     12          1                    1.203328    1.833225   -1.827536
     13          1                    1.300982    2.221014   -0.092303
     14          1                    2.595859   -0.243208   -1.419052
     15          1                    2.965700   -1.292978    0.971131
     16          1                   -0.496077    0.998182   -0.191996
     17          1                   -1.912778   -1.356684   -0.971860
     18          1                   -1.563509   -1.449069    0.743300
     19          1                   -4.623664    0.268058    0.547391
 ---------------------------------------------------------------------
 Rotational constants (MHZ):
   2242.3485569    504.8766975    461.7774431
 Dipole moment (Debye):
      0.0000000      0.0000000      0.0000000  Tot=      0.0000000

 Atoms with significant hyperfine tensors: 

--------------------------------------------------------------------------------
 individuo_4108_opt.xyz                                  
   99  1000  50  0.1760E-11  0.1000E+07  0.1000E+01 1.0000000000
a   1  0  0  0  1  1   1  0  1  0
     10000   0.22423486E+04    0.0000E+00   /  A  /
     20000   0.50487670E+03    0.0000E+00   /  B  /
     30000   0.46177744E+03    0.0000E+00   /  C  /
--------------------------------------------------------------------------------



 COMMON SENSE IS NOT SO COMMON.   -- VOLTAIRE
 Job cpu time:       0 days  0 hours  0 minutes  0.2 seconds.
 Elapsed time:       0 days  0 hours  0 minutes  0.2 seconds.
 File lengths (MBytes):  RWF=     14 Int=      0 D2E=      0 Chk=      9 Scr=      1
 Normal termination of Gaussian DV at Fri Mar 14 15:26:44 2025.
