#p UFF GEOM=READALLGIC OUTPUT=PICKETT

individuo_9179_opt.xyz

0 1
6 2.892582 -0.959852 1.113894
6 1.894366 0.076179 0.597739
16 2.648543 1.251844 -0.624115
6 0.690883 -0.602132 -0.064383
8 0.826275 -1.522041 -0.864593
7 -0.530231 -0.123586 0.295879
6 -1.733309 -0.606141 -0.341128
6 -2.905792 0.235439 0.113574
8 -2.829413 1.179088 0.870864
8 -4.060634 -0.193200 -0.431137
1 3.778620 -0.469460 1.525288
1 2.431910 -1.572634 1.899069
1 3.194257 -1.626012 0.301396
1 1.565772 0.728822 1.413951
1 2.818829 0.325246 -1.592067
1 -0.632342 0.700096 0.875970
1 -1.654411 -0.560771 -1.435396
1 -1.926570 -1.657964 -0.094683
1 -4.763347 0.396536 -0.098080

Dihed1 = D( 15, 3, 2, 14)
Dihed2 = D(  3, 2, 4, 5)
Dihed3 = D(  4, 6, 7, 8)
Dihed4 = D(  6, 7, 8, 9)
Dihed5 = D(  9, 8, 10, 19)

