#p UFF GEOM=READALLGIC OUTPUT=PICKETT

individuo_3436_opt.xyz

0 1
6 2.743059 1.187538 0.680816
6 1.907543 0.395165 -0.338643
16 2.486377 -1.363606 -0.328388
6 0.417005 0.605980 -0.048225
8 -0.112040 1.673863 -0.389156
7 -0.251621 -0.354428 0.619565
6 -1.620699 -0.170902 1.098257
6 -2.695449 -0.234483 -0.006569
8 -3.603041 -1.030191 0.027614
8 -2.566071 0.671450 -0.986009
1 3.801638 1.163410 0.408504
1 2.403577 2.227301 0.691190
1 2.632501 0.776285 1.690158
1 2.080881 0.806682 -1.335514
1 1.871449 -1.747771 -1.468198
1 0.227881 -1.227929 0.803680
1 -1.842445 -0.957703 1.818479
1 -1.688180 0.802238 1.600675
1 -1.767519 1.235403 -0.825132

Dihed1 = D( 15, 3, 2, 14)
Dihed2 = D(  3, 2, 4, 5)
Dihed3 = D(  4, 6, 7, 8)
Dihed4 = D(  6, 7, 8, 9)
Dihed5 = D(  9, 8, 10, 19)

