 Entering Gaussian System, Link 0=gdv
 Input=joint_population/temp_processing/individuo_7643_opt.gjf
 Output=joint_population/temp_processing/individuo_7643_opt.log
 Initial command:
 /home/enzo/gaussian_versions/gdv.j21/gdv/l1.exe "/local/home/enzo/scratch/Gau-2409193.inp" -scrdir="/local/home/enzo/scratch/"
 Entering Link 1 = /home/enzo/gaussian_versions/gdv.j21/gdv/l1.exe PID=   2409194.
  
 Copyright (c) 1988-2022, Gaussian, Inc.  All Rights Reserved.
  
 This is the private, development version of
 the Gaussian(R) DV system of programs. It is based on
 the Gaussian(R) 16 system (copyright 2016, Gaussian, Inc.),
 the Gaussian(R) 09 system (copyright 2009, Gaussian, Inc.),
 the Gaussian(R) 03 system (copyright 2003, Gaussian, Inc.),
 the Gaussian(R) 98 system (copyright 1998, Gaussian, Inc.),
 the Gaussian(R) 94 system (copyright 1995, Gaussian, Inc.),
 the Gaussian 92(TM) system (copyright 1992, Gaussian, Inc.),
 the Gaussian 90(TM) system (copyright 1990, Gaussian, Inc.),
 the Gaussian 88(TM) system (copyright 1988, Gaussian, Inc.),
 the Gaussian 86(TM) system (copyright 1986, Carnegie Mellon
 University), and the Gaussian 82(TM) system (copyright 1983,
 Carnegie Mellon University). Gaussian is a federally registered
 trademark of Gaussian, Inc.
  
 This software contains proprietary and confidential information,
 including trade secrets, belonging to Gaussian, Inc.
  
 This software is provided under written license and may be
 used, copied, transmitted, or stored only in accord with that
 written license.
  
 The following legend is applicable only to US Government
 contracts under FAR:
  
                    RESTRICTED RIGHTS LEGEND
  
 Use, reproduction and disclosure by the US Government is
 subject to restrictions as set forth in subparagraphs (a)
 and (c) of the Commercial Computer Software - Restricted
 Rights clause in FAR 52.227-19.
  
 Gaussian, Inc.
 340 Quinnipiac St., Bldg. 40, Wallingford CT 06492
  
  
 ---------------------------------------------------------------
 Warning -- This program may not be used in any manner that
 competes with the business of Gaussian, Inc. or will provide
 assistance to any competitor of Gaussian, Inc.  The licensee
 of this program is prohibited from giving any competitor of
 Gaussian, Inc. access to this program.  By using this program,
 the user acknowledges that Gaussian, Inc. is engaged in the
 business of creating and licensing software in the field of
 computational chemistry and represents and warrants to the
 licensee that it is not a competitor of Gaussian, Inc. and that
 it will not use this program in any manner prohibited above.
 ---------------------------------------------------------------
  

 Cite this work as:
 Gaussian Development Version, Revision J.21,
 M. J. Frisch, G. W. Trucks, H. B. Schlegel, G. E. Scuseria, 
 M. A. Robb, J. R. Cheeseman, G. Scalmani, V. Barone, 
 G. A. Petersson, H. Nakatsuji, X. Li, A. V. Marenich, M. Caricato, 
 J. Bloino, B. G. Janesko, J. Zheng, R. Gomperts, B. Mennucci, 
 H. P. Hratchian, J. V. Ortiz, A. F. Izmaylov, J. L. Sonnenberg, 
 D. Williams-Young, F. Ding, F. Lipparini, F. Egidi, J. Goings, 
 B. Peng, A. Petrone, T. Henderson, D. Ranasinghe, V. G. Zakrzewski, 
 J. Gao, N. Rega, G. Zheng, W. Liang, M. Hada, M. Ehara, K. Toyota, 
 R. Fukuda, J. Hasegawa, M. Ishida, T. Nakajima, Y. Honda, O. Kitao, 
 H. Nakai, T. Vreven, K. Throssell, J. A. Montgomery, Jr., 
 J. E. Peralta, F. Ogliaro, M. J. Bearpark, J. J. Heyd, 
 E. N. Brothers, K. N. Kudin, V. N. Staroverov, T. A. Keith, 
 R. Kobayashi, J. Normand, K. Raghavachari, A. P. Rendell, 
 J. C. Burant, S. S. Iyengar, J. Tomasi, M. Cossi, J. M. Millam, 
 M. Klene, C. Adamo, R. Cammi, J. W. Ochterski, R. L. Martin, 
 K. Morokuma, O. Farkas, J. B. Foresman, and D. J. Fox, 
 Gaussian, Inc., Wallingford CT, 2020.
 
 ******************************************
 Gaussian DV:  ES64L-GDVRevJ.21 25-Jul-2022
                14-Mar-2025 
 ******************************************
 -------------------------------------
 #p UFF GEOM=READALLGIC OUTPUT=PICKETT
 -------------------------------------
 1/18=20,37=210000000,38=1,56=1,64=2,145=602,172=1/1;
 2/12=2/2;
 3/5=30,11=9,25=1,30=1,41=10020000,43=2/1;
 4/20=10,24=3/2;
 99/5=1,9=1,10=1024/99;
 Leave Link    1 at Fri Mar 14 15:26:45 2025, MaxMem=           0 cpu:               0.0 elap:               0.0
 (Enter /home/enzo/gaussian_versions/gdv.j21/gdv/l101.exe)
 ----------------------
 individuo_7643_opt.xyz
 ----------------------
 Symbolic Z-matrix:
 Charge =     0 Multiplicity =     1
 6                     3.2288   -0.84944  -0.38634 
 6                     2.09228  -0.14567   0.36003 
 16                    2.05372   1.67835   0.03637 
 6                     0.75531  -0.89395   0.15762 
 8                     0.74512  -2.11804   0.06189 
 7                    -0.38184  -0.15718   0.14611 
 6                    -1.66799  -0.79922   0.02164 
 6                    -2.75362   0.25245  -0.04017 
 8                    -2.56927   1.44886   0.00663 
 8                    -3.97387  -0.31061  -0.15426 
 1                     4.19211  -0.40615  -0.12151 
 1                     3.22911  -1.91137  -0.1295 
 1                     3.09489  -0.76707  -1.47091 
 1                     2.29643  -0.19033   1.43768 
 1                     2.0135    1.59586  -1.31196 
 1                    -0.35642   0.85512   0.20077 
 1                    -1.71658  -1.42534  -0.87863 
 1                    -1.86779  -1.47389   0.86491 
 1                    -4.61657   0.42305  -0.18646 
 
 Initializing the GIC definitions file.

 CrInp1: Reading the GIC input below.
 Dihed1 = D( 15, 3, 2, 14)
 Dihed2 = D( 3, 2, 4, 5)
 Dihed3 = D( 4, 6, 7, 8)
 Dihed4 = D( 6, 7, 8, 9)
 Dihed5 = D( 9, 8, 10, 19)
 
 Warning:  Number of GICs=     5 3N-6=    51.
 ITRead=  0  0  0  0  0  0  0  0  0  0  0  0  0  0  0  0  0  0  0
 MicOpt= -1 -1 -1 -1 -1 -1 -1 -1 -1 -1 -1 -1 -1 -1 -1 -1 -1 -1 -1
                           ----------------------------
                           !    Current Parameters    !
                           ! (Angstroms and Degrees)  !
 --------------------------                            --------------------------
 ! Name   Definition             Value                                          !
 --------------------------------------------------------------------------------
 ! Dihed1 D(15,3,2,14)         170.8655                                         !
 ! Dihed2 D(3,2,4,5)           164.1149                                         !
 ! Dihed3 D(4,6,7,8)          -176.9133                                         !
 ! Dihed4 D(6,7,8,9)             0.0583                                         !
 ! Dihed5 D(9,8,10,19)          -0.0286                                         !
 --------------------------------------------------------------------------------
 NAtoms=     19 NQM=       19 NQMF=       0 NMMI=      0 NMMIF=      0
                NMic=       0 NMicF=      0.
                    Isotopes and Nuclear Properties:
 (Nuclear quadrupole moments (NQMom) in fm**2, nuclear magnetic moments (NMagM)
  in nuclear magnetons)

  Atom         1           2           3           4           5           6           7           8           9          10
 IAtWgt=          12          12          32          12          16          14          12          12          16          16
 AtmWgt=  12.0000000  12.0000000  31.9720718  12.0000000  15.9949146  14.0030740  12.0000000  12.0000000  15.9949146  15.9949146
 NucSpn=           0           0           0           0           0           2           0           0           0           0
 AtZEff=  -0.0000000  -0.0000000  -0.0000000  -0.0000000  -0.0000000  -0.0000000  -0.0000000  -0.0000000  -0.0000000  -0.0000000
 NQMom=    0.0000000   0.0000000   0.0000000   0.0000000   0.0000000   2.0440000   0.0000000   0.0000000   0.0000000   0.0000000
 NMagM=    0.0000000   0.0000000   0.0000000   0.0000000   0.0000000   0.4037610   0.0000000   0.0000000   0.0000000   0.0000000
 AtZNuc=   6.0000000   6.0000000  16.0000000   6.0000000   8.0000000   7.0000000   6.0000000   6.0000000   8.0000000   8.0000000

  Atom        11          12          13          14          15          16          17          18          19
 IAtWgt=           1           1           1           1           1           1           1           1           1
 AtmWgt=   1.0078250   1.0078250   1.0078250   1.0078250   1.0078250   1.0078250   1.0078250   1.0078250   1.0078250
 NucSpn=           1           1           1           1           1           1           1           1           1
 AtZEff=  -0.0000000  -0.0000000  -0.0000000  -0.0000000  -0.0000000  -0.0000000  -0.0000000  -0.0000000  -0.0000000
 NQMom=    0.0000000   0.0000000   0.0000000   0.0000000   0.0000000   0.0000000   0.0000000   0.0000000   0.0000000
 NMagM=    2.7928460   2.7928460   2.7928460   2.7928460   2.7928460   2.7928460   2.7928460   2.7928460   2.7928460
 AtZNuc=   1.0000000   1.0000000   1.0000000   1.0000000   1.0000000   1.0000000   1.0000000   1.0000000   1.0000000
 Generating MM parameters.
 Include all MM classes

 MM sanity checks:
 All charges sum to:                0.00000000
 Charges of atoms sum to:           0.00000000
 MMInit generated parameter data with length LenPar=        2803.
 Leave Link  101 at Fri Mar 14 15:26:45 2025, MaxMem=   104857600 cpu:               0.1 elap:               0.1
 (Enter /home/enzo/gaussian_versions/gdv.j21/gdv/l202.exe)
                          Input orientation:                          
 ---------------------------------------------------------------------
 Center     Atomic      Atomic             Coordinates (Angstroms)
 Number     Number       Type             X           Y           Z
 ---------------------------------------------------------------------
      1          6    10061003        3.228803   -0.849435   -0.386339
      2          6    10061003        2.092277   -0.145668    0.360029
      3         16    10161003        2.053724    1.678353    0.036374
      4          6    10061000        0.755309   -0.893951    0.157622
      5          8    10081002        0.745119   -2.118043    0.061893
      6          7    10071000       -0.381836   -0.157183    0.146113
      7          6    10061003       -1.667985   -0.799215    0.021638
      8          6    10061000       -2.753617    0.252447   -0.040173
      9          8    10081002       -2.569272    1.448860    0.006634
     10          8    10081000       -3.973868   -0.310607   -0.154256
     11          1    10011000        4.192112   -0.406152   -0.121511
     12          1    10011000        3.229107   -1.911373   -0.129504
     13          1    10011000        3.094894   -0.767066   -1.470905
     14          1    10011000        2.296434   -0.190325    1.437680
     15          1    10011000        2.013505    1.595861   -1.311961
     16          1    10011000       -0.356415    0.855122    0.200774
     17          1    10011000       -1.716577   -1.425341   -0.878634
     18          1    10011000       -1.867785   -1.473887    0.864907
     19          1    10011000       -4.616566    0.423052   -0.186461
 ---------------------------------------------------------------------
                    Distance matrix (angstroms):
                    1          2          3          4          5
     1  C    0.000000
     2  C    1.531027   0.000000
     3  S    2.819434   1.852914   0.000000
     4  C    2.532992   1.545438   2.883978   0.000000
     5  O    2.824706   2.407069   4.015684   1.227872   0.000000
     6  N    3.714759   2.483370   3.051752   1.355012   2.263204
     7  C    4.914011   3.831606   4.470982   2.428955   2.750272
     8  C    6.092891   4.878662   5.014937   3.696744   4.227386
     9  O    6.249341   4.939377   4.628784   4.069939   4.869398
    10  O    7.226525   6.090140   6.350131   4.775214   5.057903
    11  H    1.092977   2.170032   2.990450   3.482453   3.853047
    12  H    1.092555   2.156325   3.780896   2.690217   2.499908
    13  H    1.095901   2.178003   3.055487   2.853394   3.113848
    14  H    2.151925   1.097728   2.348302   2.123371   2.831160
    15  H    2.883262   2.415508   1.351455   3.153077   4.158048
    16  H    4.012979   2.650101   2.552157   2.072932   3.173701
    17  H    5.003080   4.204666   4.968433   2.732475   2.724771
    18  H    5.284957   4.207274   5.099149   2.777985   2.808387
    19  H    7.950408   6.755048   6.791039   5.541654   5.938561
                    6          7          8          9         10
     6  N    0.000000
     7  C    1.442872   0.000000
     8  C    2.414093   1.512749   0.000000
     9  O    2.717297   2.422062   1.211436   0.000000
    10  O    3.607832   2.363636   1.348724   2.257100   0.000000
    11  H    4.588530   5.875009   6.977358   7.012404   8.166605
    12  H    4.023935   5.024067   6.362632   6.703051   7.378747
    13  H    3.882571   4.991366   6.106675   6.259091   7.204812
    14  H    2.973613   4.253533   5.280446   5.330095   6.470349
    15  H    3.307084   4.590016   5.113478   4.770969   6.389330
    16  H    1.014098   2.118758   2.483516   2.299337   3.817190
    17  H    2.107099   1.097672   2.143232   3.125991   2.619679
    18  H    2.111497   1.098274   2.141050   3.125887   2.612948
    19  H    4.287215   3.198652   1.876455   2.298038   0.975886
                   11         12         13         14         15
    11  H    0.000000
    12  H    1.786934   0.000000
    13  H    1.776235   1.768278   0.000000
    14  H    2.463991   2.507579   3.070836   0.000000
    15  H    3.189288   3.895713   2.603476   3.291054   0.000000
    16  H    4.731150   4.540765   4.163837   3.108135   2.907504
    17  H    6.043557   5.025655   4.892276   4.795293   4.819642
    18  H    6.231808   5.211387   5.530262   4.395034   5.406156
    19  H    8.847859   8.185803   7.907768   7.127667   6.826425
                   16         17         18         19
    16  H    0.000000
    17  H    2.866300   0.000000
    18  H    2.854750   1.750759   0.000000
    19  H    4.299479   3.507933   3.501364   0.000000
 Stoichiometry    C5H9NO3S
 Framework group  C1[X(C5H9NO3S)]
 Deg. of freedom    51
 Full point group                 C1      NOp   1
 Largest Abelian subgroup         C1      NOp   1
 Largest concise Abelian subgroup C1      NOp   1
                         Standard orientation:                         
 ---------------------------------------------------------------------
 Center     Atomic      Atomic             Coordinates (Angstroms)
 Number     Number       Type             X           Y           Z
 ---------------------------------------------------------------------
      1          6    10061003       -3.228803   -0.849435    0.386339
      2          6    10061003       -2.092277   -0.145668   -0.360029
      3         16    10161003       -2.053724    1.678353   -0.036374
      4          6    10061000       -0.755309   -0.893951   -0.157622
      5          8    10081002       -0.745119   -2.118043   -0.061893
      6          7    10071000        0.381836   -0.157183   -0.146113
      7          6    10061003        1.667985   -0.799215   -0.021638
      8          6    10061000        2.753617    0.252447    0.040173
      9          8    10081002        2.569272    1.448860   -0.006634
     10          8    10081000        3.973868   -0.310607    0.154256
     11          1    10011000       -4.192112   -0.406152    0.121511
     12          1    10011000       -3.229107   -1.911373    0.129504
     13          1    10011000       -3.094894   -0.767066    1.470905
     14          1    10011000       -2.296434   -0.190325   -1.437680
     15          1    10011000       -2.013505    1.595861    1.311961
     16          1    10011000        0.356415    0.855122   -0.200774
     17          1    10011000        1.716577   -1.425341    0.878634
     18          1    10011000        1.867785   -1.473887   -0.864907
     19          1    10011000        4.616566    0.423052    0.186461
 ---------------------------------------------------------------------
 Rotational constants (GHZ):           2.0347586           0.5615131           0.4495065
 Leave Link  202 at Fri Mar 14 15:26:45 2025, MaxMem=   104857600 cpu:               0.0 elap:               0.0
 (Enter /home/enzo/gaussian_versions/gdv.j21/gdv/l301.exe)
 Standard basis: Dummy (5D, 7F)
 There are    19 symmetry adapted cartesian basis functions of A   symmetry.
 There are    19 symmetry adapted basis functions of A   symmetry.
    19 basis functions,    19 primitive gaussians,    19 cartesian basis functions
    14 alpha electrons       14 beta electrons
       nuclear repulsion energy        68.4141631860 Hartrees.
 IExCor=         0 DFT=F Ex=HF Corr=None N6=None ScaHFX=  1.000000
 ScaDFX=  1.000000  1.000000  1.000000  1.000000  1.000000  0.000000
 ScaDFX=  0.000000  0.000000  0.000000  0.000000  0.000000  0.000000
 IRadAn=      5 IRanWt=     -1 IRanGd=            0 ICorTp=0 IEmpDi=  4
 NAtoms=   19 NActive=   19 NUniq=   19 SFac= 1.00D+00 NAtFMM=   60 NAOKFM=F Big=F
 Integral buffers will be    131072 words long.
 Raffenetti 1 integral format.
 Two-electron integral symmetry is turned on.
 Leave Link  301 at Fri Mar 14 15:26:45 2025, MaxMem=   104857600 cpu:               0.0 elap:               0.0
 (Enter /home/enzo/gaussian_versions/gdv.j21/gdv/l402.exe)
 UFF calculation of energy.
 Energy per function type:
 Direct Coulomb + vdW (small)                           0.031635970
 Direct Coulomb (large)                                 0.000000000
 Direct vdW (large)                                   875.306917785
 Non-direct Coulomb + vdW (small)                      -0.011644899
 Non-direct Coulomb (large)                             0.000000000
 Non-direct vdW (large)                              -875.306917785
 Harmonic stretch III                                   0.008567359
 UFF 3-term bend                                        0.006369426
 UFF 2-term bend                                        0.008853115
 UFF torsion fixed V                                    0.002956748
 UFF torsion w/ bond order V                            0.000086658
 UFF torsion w/ sp3 V                                   0.000195313
 Three term Wilson angle                                0.000063491
 Energy per function class:
        Coulomb               0.000000000
    Vanderwaals               0.019991071
     Stretching               0.008567359
        Bending               0.015222540
        Torsion               0.003238720
   Out-of-plane               0.000063491
 Energy=    4.708318070E-02 NIter=   0.
 Dipole moment=       0.000000       0.000000       0.000000
 Leave Link  402 at Fri Mar 14 15:26:45 2025, MaxMem=   104857600 cpu:               0.0 elap:               0.0
 (Enter /home/enzo/gaussian_versions/gdv.j21/gdv/l9999.exe)
 Unable to Open any file for archive entry.
 1\1\GINC-ORACLE\SP\UFF\ZDO\C5H9N1O3S1\ENZO\14-Mar-2025\0\\#p UFF GEOM=
 READALLGIC OUTPUT=PICKETT\\individuo_7643_opt.xyz\\0,1\C,0,3.228803,-0
 .849435,-0.386339\C,0,2.092277,-0.145668,0.360029\S,0,2.053724,1.67835
 3,0.036374\C,0,0.755309,-0.893951,0.157622\O,0,0.745119,-2.118043,0.06
 1893\N,0,-0.381836,-0.157183,0.146113\C,0,-1.667985,-0.799215,0.021638
 \C,0,-2.753617,0.252447,-0.040173\O,0,-2.569272,1.44886,0.006634\O,0,-
 3.973868,-0.310607,-0.154256\H,0,4.192112,-0.406152,-0.121511\H,0,3.22
 9107,-1.911373,-0.129504\H,0,3.094894,-0.767066,-1.470905\H,0,2.296434
 ,-0.190325,1.43768\H,0,2.013505,1.595861,-1.311961\H,0,-0.356415,0.855
 122,0.200774\H,0,-1.716577,-1.425341,-0.878634\H,0,-1.867785,-1.473887
 ,0.864907\H,0,-4.616566,0.423052,-0.186461\\Version=ES64L-GDVRevJ.21\H
 F=0.0470832\RMSD=0.000e+00\Dipole=0.,0.,0.\PG=C01 [X(C5H9N1O3S1)]\\@
 The archive entry for this job was punched.
 DoSRE=F DoSRN=F DoDH=F DoFC=F DoNQ=F DoQCD=F DoSCD=F
 Inertia tensor (amu-bohr**2): 
                 1             2             3 
      1   0.887140D+03 -0.162258D+02 -0.148581D+02
      2  -0.162258D+02  0.321397D+04 -0.297168D+01
      3  -0.148581D+02 -0.297168D+01  0.401486D+04
 Principal inertia moments (amu-bohr**2):
 Iaa = 0.886956D+03 Ibb= 0.321407D+04 Icc= 0.401494D+04
 Rotation matrix to Principal Axis frame: 
                 1             2             3 
      1   0.999964D+00 -0.699572D-02 -0.473150D-02
      2   0.697865D-02  0.999969D+00 -0.361417D-02
      3   0.475664D-02  0.358102D-02  0.999982D+00
                Principal axis orientation:                
 ---------------------------------------------------------------------
 Center     Atomic                     Coordinates (Angstroms)
 Number     Number                        X           Y           Z
 ---------------------------------------------------------------------
      1          6                    3.259065   -0.893506   -0.408358
      2          6                    2.131041   -0.179138    0.340830
      3         16                    2.103679    1.643938    0.010771
      4          6                    0.787936   -0.918769    0.147457
      5          8                    0.768748   -2.143095    0.056202
      6          7                   -0.344082   -0.174110    0.138666
      7          6                   -1.635257   -0.807570    0.022599
      8          6                   -2.713806    0.251433   -0.037875
      9          8                   -2.520895    1.446687    0.003735
     10          8                   -3.938485   -0.303476   -0.144148
     11          1                    4.226693   -0.456028   -0.149695
     12          1                    3.253180   -1.954494   -0.147691
     13          1                    3.120577   -0.814087   -1.492569
     14          1                    2.340005   -0.221362    1.417658
     15          1                    2.056472    1.556901   -1.337052
     16          1                   -0.311337    0.838182    0.189547
     17          1                   -1.692499   -1.436561   -0.875164
     18          1                   -1.835747   -1.477804    0.869237
     19          1                   -4.576193    0.434541   -0.175963
 ---------------------------------------------------------------------
 Rotational constants (MHZ):
   2034.7586198    561.5130587    449.5065092
 Dipole moment (Debye):
      0.0000000      0.0000000      0.0000000  Tot=      0.0000000

 Atoms with significant hyperfine tensors: 

--------------------------------------------------------------------------------
 individuo_7643_opt.xyz                                  
   99  1000  50  0.1760E-11  0.1000E+07  0.1000E+01 1.0000000000
a   1  0  0  0  1  1   1  0  1  0
     10000   0.20347586E+04    0.0000E+00   /  A  /
     20000   0.56151306E+03    0.0000E+00   /  B  /
     30000   0.44950651E+03    0.0000E+00   /  C  /
--------------------------------------------------------------------------------



 WE HAVE LEFT UNDONE THOSE THINGS WHICH WE OUGHT TO HAVE DONE,
 AND WE HAVE DONE THOSE THINGS WHICH WE OUGHT NOT TO HAVE DONE.
                   BOOK OF COMMON PRAYER                      
 Job cpu time:       0 days  0 hours  0 minutes  0.2 seconds.
 Elapsed time:       0 days  0 hours  0 minutes  0.2 seconds.
 File lengths (MBytes):  RWF=     14 Int=      0 D2E=      0 Chk=      9 Scr=      1
 Normal termination of Gaussian DV at Fri Mar 14 15:26:45 2025.
