#p UFF GEOM=READALLGIC OUTPUT=PICKETT

individuo_6407_opt.xyz

0 1
6 -3.017166 -1.176466 -0.266447
6 -1.877838 -0.172724 -0.461023
16 -2.318748 1.523275 0.146135
6 -0.538593 -0.748758 0.051852
8 -0.310966 -1.947583 -0.059841
7 0.353637 0.132797 0.584368
6 1.696281 -0.270829 0.922614
6 2.788899 0.168972 -0.045074
8 3.969632 0.078500 0.200378
8 2.305384 0.658706 -1.209136
1 -3.925394 -0.824614 -0.762239
1 -2.723419 -2.143707 -0.680776
1 -3.235038 -1.319913 0.797890
1 -1.730390 -0.006459 -1.536095
1 -2.671435 1.154203 1.397472
1 0.110582 1.115284 0.574355
1 1.983774 0.089011 1.916180
1 1.706673 -1.365391 0.951228
1 3.087250 0.881445 -1.749488

Dihed1 = D( 15, 3, 2, 14)
Dihed2 = D(  3, 2, 4, 5)
Dihed3 = D(  4, 6, 7, 8)
Dihed4 = D(  6, 7, 8, 9)
Dihed5 = D(  9, 8, 10, 19)

