%Nprocshared=12
%Mem=64GB
#P geom=readallgic Output=Pickett

 thiopronine                                                                    

  0  1
  6   -3.022712   -0.573199   -0.865800
  6   -2.136385   -0.174810    0.276876
 16   -1.745782    1.567416    0.149683
  6   -0.869186   -0.976042    0.229623
  8   -0.912553   -2.155175    0.299554
  7    0.271629   -0.074888    0.095218
  6    1.505036   -0.854755    0.049225
  6    2.677105    0.071088   -0.088862
  8    3.773351   -0.367444   -0.144157
  8    2.226869    1.385495   -0.130376
  1   -2.641538   -0.360599    1.201648
  1   -3.256201   -1.614642   -0.789769
  1   -3.926647   -0.001653   -0.832093
  1   -2.517559   -0.387410   -1.790572
  1   -0.942179    1.928623    1.185710
  1    0.074779    0.621166   -0.638034
  1    1.602548   -1.421432    0.951593
  1    1.475310   -1.520058   -0.788265
  1    2.976993    1.978034   -0.218751
 
 Stre0001(Frozen,Value= 1.5000)=R(  1,  2)
 Stre0002(Frozen,Value= 1.0700)=R(  1, 12)
 Stre0003(Frozen,Value= 1.0700)=R(  1, 13)
 Stre0004(Frozen,Value= 1.0700)=R(  1, 14)
 Stre0005(Frozen,Value= 1.7900)=R(  2,  3)
 Stre0006(Frozen,Value= 1.5000)=R(  2,  4)
 Stre0007(Frozen,Value= 1.0700)=R(  2, 11)
 Stre0008(Frozen,Value= 1.3600)=R(  3, 15)
 Stre0009(Frozen,Value= 1.1820)=R(  4,  5)
 Stre0010(Frozen,Value= 1.4600)=R(  4,  6)
 Stre0011(Frozen,Value= 1.4600)=R(  6,  7)
 Stre0012(Frozen,Value= 1.0300)=R(  6, 16)
 Stre0013(Frozen,Value= 1.5000)=R(  7,  8)
 Stre0014(Frozen,Value= 1.0700)=R(  7, 17)
 Stre0015(Frozen,Value= 1.0700)=R(  7, 18)
 Stre0016(Frozen,Value= 1.1820)=R(  8,  9)
 Stre0017(Frozen,Value= 1.3900)=R(  8, 10)
 Stre0018(Frozen,Value= 0.9600)=R( 10, 19)
 Rock0001(Frozen,Value=-0.00003)=[ 0.50000*A( 12,  1, 13)- 0.25000*A( 12,  1, 14)- 0.25000*A( 12,  1,  2)]
 Rock0002(Frozen,Value= 0.00009)=[ 0.70711*A( 12,  1, 14)- 0.70711*A( 12,  1,  2)]
 Bend0003(Frozen,Value= 109.47000) = A( 14,  1,  2)
 Bend0004(Frozen,Value= 109.47000) = A( 13,  1, 14)
 Bend0005(Frozen,Value= 109.47000) = A( 13,  1,  2)
 SymD0006(Frozen,Value= 0.00000)=[ 0.81650*A(  4,  2, 11)- 0.40825*A(  1,  2,  4)- 0.40825*A(  1,  2, 11)]
 Rock0007(Frozen,Value= 0.00000)=[ 0.70711*A(  1,  2,  4)- 0.70711*A(  1,  2, 11)]
 SymD0008(Frozen,Value=-0.00005)=[ 0.81650*A(  4,  2, 11)- 0.40825*A(  3,  2,  4)- 0.40825*A(  3,  2, 11)]
 Rock0009(Frozen,Value=-0.00009)=[ 0.70711*A(  3,  2,  4)- 0.70711*A(  3,  2, 11)]
 Bend0010(Frozen,Value= 109.47000) = A(  1,  2,  3)
 Bend0011(Frozen,Value= 109.47000) = A(  2,  3, 15)
 SymD0012(Frozen,Value=-0.22509)=[ 0.81650*A(  2,  4,  6)- 0.40825*A(  5,  4,  2)- 0.40825*A(  5,  4,  6)]
 Rock0013(Frozen,Value=-0.12995)=[ 0.70711*A(  5,  4,  2)- 0.70711*A(  5,  4,  6)]
 SymD0014(Frozen,Value=-0.07503)=[ 0.81650*A(  7,  6,  4)- 0.40825*A( 16,  6,  7)- 0.40825*A( 16,  6,  4)]
 Rock0015(Frozen,Value= 0.12995)=[ 0.70711*A( 16,  6,  7)- 0.70711*A( 16,  6,  4)]
 SymD0016(Frozen,Value= 0.00000)=[ 0.81650*A(  6,  7,  8)- 0.40825*A( 17,  7,  6)- 0.40825*A( 17,  7,  8)]
 Rock0017(Frozen,Value= 0.00000)=[ 0.70711*A( 17,  7,  6)- 0.70711*A( 17,  7,  8)]
 SymD0018(Frozen,Value=-0.00005)=[ 0.81650*A(  6,  7,  8)- 0.40825*A( 18,  7,  6)- 0.40825*A( 18,  7,  8)]
 Rock0019(Frozen,Value=-0.00009)=[ 0.70711*A( 18,  7,  6)- 0.70711*A( 18,  7,  8)]
 Bend0020(Frozen,Value= 109.47000) = A( 17,  7, 18)
 SymD0021(Frozen,Value=-0.22509)=[ 0.81650*A(  7,  8, 10)- 0.40825*A(  9,  8,  7)- 0.40825*A(  9,  8, 10)]
 Rock0022(Frozen,Value=-0.12995)=[ 0.70711*A(  9,  8,  7)- 0.70711*A(  9,  8, 10)]
 Bend0023(Frozen,Value= 109.47000) = A(  8, 10, 19)
 Dihe0001(Frozen,Value= 180.00000) = D( 12,  1,  2,  3)
 Dihe0002(Frozen,Value= -60.00299) = D(  4,  2,  3, 15)
 Dihe0003(Frozen,Value= 180.00000) = D(  3,  2,  4,  5)
 Dihe0004(Frozen,Value=   0.00000) = D(  5,  4,  6,  7)
 Dihe0005(Frozen,Value= 180.00000) = D(  4,  6,  7,  8)
 Dihe0006(Frozen,Value= 180.00000) = D(  6,  7,  8,  9)
 Dihe0007(Frozen,Value=   0.00000) = D(  9,  8, 10, 19)
 ImpD0001(Frozen,Value= 180.00000) = D(  2,  4,  6,  5)
 ImpD0002(Frozen,Value=-127.75824) = D(  4,  6, 16,  7)
 ImpD0003(Frozen,Value= 180.00000) = D(  7,  8, 10,  9)

