#p UFF GEOM=READALLGIC OUTPUT=PICKETT

individuo_8866.xyz

0 1
6 -3.112932 -0.461191 -0.899038
6 -2.180556 -0.112807 0.282360
16 -1.646105 1.640227 0.160176
6 -0.965560 -1.002132 0.232625
8 -1.099706 -2.233110 0.300293
7 0.252738 -0.106512 0.099143
6 1.435335 -0.972120 0.050734
6 2.730949 0.018081 -0.092984
8 3.870229 -0.457969 -0.156361
8 2.326099 1.432866 -0.128732
1 -2.701614 -0.277888 1.233528
1 -3.432408 -1.509094 -0.826000
1 -3.979627 0.173197 -0.863561
1 -2.591873 -0.296110 -1.850205
1 -0.619812 2.017278 1.405287
1 0.102372 0.636288 -0.670843
1 1.466953 -1.591819 1.053429
1 1.346134 -1.693149 -0.884830
1 3.150124 2.082008 -0.221043

Dihed1 = D(15, 3, 2, 11)
Dihed2 = D(3, 2, 4, 5)
Dihed3 = D(4, 6, 7, 8)
Dihed4 = D(6, 7, 8, 9)
Dihed5 = D(9, 8, 10, 19)

