#p UFF GEOM=READALLGIC OUTPUT=PICKETT

individuo_5164.xyz

0 1
6 -3.082573 -0.513293 -0.889487
6 -2.166075 -0.134576 0.284381
16 -1.658925 1.618111 0.159429
6 -0.927130 -0.994128 0.232996
8 -1.027154 -2.260220 0.303087
7 0.265742 -0.025856 0.094847
6 1.471649 -0.862486 0.044832
6 2.690921 0.027045 -0.091428
8 3.786996 -0.496019 -0.148609
8 2.279295 1.420146 -0.129042
1 -2.699222 -0.299048 1.233008
1 -3.385728 -1.560989 -0.814794
1 -3.966351 0.099857 -0.852833
1 -2.549424 -0.348821 -1.838114
1 -0.792507 1.924456 1.264939
1 0.095682 0.726772 -0.695516
1 1.545903 -1.439014 0.957693
1 1.411354 -1.533635 -0.807402
1 3.271614 2.160224 -0.240733

Dihed1 = D(15, 3, 2, 11)
Dihed2 = D(3, 2, 4, 5)
Dihed3 = D(4, 6, 7, 8)
Dihed4 = D(6, 7, 8, 9)
Dihed5 = D(9, 8, 10, 19)

