#p UFF GEOM=READALLGIC OUTPUT=PICKETT

individuo_8415.xyz

0 1
6 -3.080568 -0.528197 -0.889262
6 -2.149907 -0.162878 0.285873
16 -1.666412 1.588360 0.157152
6 -0.897008 -1.006805 0.234157
8 -0.962150 -2.222731 0.302819
7 0.260876 -0.092643 0.097648
6 1.480364 -0.914064 0.047311
6 2.680356 0.067964 -0.095975
8 3.901267 -0.445751 -0.162535
8 2.093228 1.524322 -0.127295
1 -2.668764 -0.347188 1.237893
1 -3.369584 -1.575027 -0.812316
1 -3.974300 0.073806 -0.852373
1 -2.561709 -0.343889 -1.841282
1 -0.648833 1.977208 1.412622
1 0.073205 0.630632 -0.656572
1 1.572908 -1.518265 1.002852
1 1.425488 -1.612377 -0.842824
1 2.942799 2.062832 -0.220529

Dihed1 = D(15, 3, 2, 11)
Dihed2 = D(3, 2, 4, 5)
Dihed3 = D(4, 6, 7, 8)
Dihed4 = D(6, 7, 8, 9)
Dihed5 = D(9, 8, 10, 19)

