#p UFF GEOM=READALLGIC OUTPUT=PICKETT

individuo_6730.xyz

0 1
6 -3.117857 -0.455120 -0.902701
6 -2.181933 -0.110443 0.283176
16 -1.639181 1.644652 0.161555
6 -0.969600 -1.006358 0.233067
8 -1.107190 -2.240892 0.300221
7 0.251054 -0.111585 0.099959
6 1.431058 -0.983609 0.051186
6 2.735487 0.019161 -0.093200
8 3.907598 -0.439333 -0.160402
8 2.295772 1.421691 -0.124594
1 -2.703524 -0.274700 1.237467
1 -3.442294 -1.504255 -0.830000
1 -3.982652 0.183969 -0.866958
1 -2.596264 -0.290863 -1.856992
1 -0.629464 2.003393 1.384005
1 0.103836 0.633908 -0.671940
1 1.457978 -1.609577 1.065972
1 1.338369 -1.712034 -0.896258
1 3.125038 2.119872 -0.219175

Dihed1 = D(15, 3, 2, 11)
Dihed2 = D(3, 2, 4, 5)
Dihed3 = D(4, 6, 7, 8)
Dihed4 = D(6, 7, 8, 9)
Dihed5 = D(9, 8, 10, 19)

