#p UFF GEOM=READALLGIC OUTPUT=PICKETT

individuo_2646.xyz

0 1
6 -3.053044 -0.597023 -0.933617
6 -2.163420 -0.151649 0.302237
16 -1.621801 1.708895 0.155257
6 -0.911727 -1.042916 0.250905
8 -0.980290 -2.337833 0.328355
7 0.249729 -0.062975 0.102904
6 1.468045 -0.930474 0.052940
6 2.667900 0.052900 -0.098344
8 3.900769 -0.409803 -0.171966
8 2.065351 1.445045 -0.127128
1 -2.745432 -0.310430 1.308208
1 -3.376805 -1.709192 -0.845756
1 -3.945917 0.038751 -0.897001
1 -2.471031 -0.438243 -1.939586
1 -0.739775 1.909132 1.377430
1 0.052476 0.704392 -0.703333
1 1.568813 -1.546308 1.034837
1 1.404184 -1.651881 -0.857569
1 2.825990 2.120407 -0.225918

Dihed1 = D(15, 3, 2, 11)
Dihed2 = D(3, 2, 4, 5)
Dihed3 = D(4, 6, 7, 8)
Dihed4 = D(6, 7, 8, 9)
Dihed5 = D(9, 8, 10, 19)

