12
	Energy:      34.4969152
C         -3.24501       -1.31183        0.03866
N         -1.90537       -1.37899       -0.09200
C         -3.66519       -0.03792       -0.27224
C         -1.53527       -0.14205       -0.48076
N         -2.58576        0.68999       -0.59721
H         -2.56556        1.69409       -0.88166
H         -3.87321       -2.13895        0.34086
H         -4.68216        0.33130       -0.26266
H         -0.51106        0.14667       -0.67645
O         -1.99481        2.35221        2.55533
H         -1.91302        1.37872        2.71734
H         -2.27701        2.72643        3.42774
