12
	Energy:       2.6737979
C         -3.27162       -1.25416       -1.22002
O         -4.45481       -1.08004       -1.46001
O         -2.35005       -1.12739       -2.19706
H         -2.95674       -1.50820       -0.21356
H         -2.60382       -0.89464       -3.10126
O         -0.55460        0.82888       -0.55394
H         -0.30251        1.65675       -1.03483
H         -0.53776        1.08283        0.40289
N         -3.91908        1.64458        0.72536
H         -2.87746        1.59536        0.76017
H         -4.22460        1.27572       -0.20156
H         -4.19117        2.65133        0.76832
