 Entering Gaussian System, Link 0=gdv
 Input=icluster_centers_population_40_gaussian/individuo_2543.gjf
 Output=icluster_centers_population_40_gaussian/individuo_2543.log
 Initial command:
 /home/enzo/gaussian_versions/gdv.j21/gdv/l1.exe "/local/home/enzo/scratch/Gau-2337635.inp" -scrdir="/local/home/enzo/scratch/"
 Entering Link 1 = /home/enzo/gaussian_versions/gdv.j21/gdv/l1.exe PID=   2337652.
  
 Copyright (c) 1988-2022, Gaussian, Inc.  All Rights Reserved.
  
 This is the private, development version of
 the Gaussian(R) DV system of programs. It is based on
 the Gaussian(R) 16 system (copyright 2016, Gaussian, Inc.),
 the Gaussian(R) 09 system (copyright 2009, Gaussian, Inc.),
 the Gaussian(R) 03 system (copyright 2003, Gaussian, Inc.),
 the Gaussian(R) 98 system (copyright 1998, Gaussian, Inc.),
 the Gaussian(R) 94 system (copyright 1995, Gaussian, Inc.),
 the Gaussian 92(TM) system (copyright 1992, Gaussian, Inc.),
 the Gaussian 90(TM) system (copyright 1990, Gaussian, Inc.),
 the Gaussian 88(TM) system (copyright 1988, Gaussian, Inc.),
 the Gaussian 86(TM) system (copyright 1986, Carnegie Mellon
 University), and the Gaussian 82(TM) system (copyright 1983,
 Carnegie Mellon University). Gaussian is a federally registered
 trademark of Gaussian, Inc.
  
 This software contains proprietary and confidential information,
 including trade secrets, belonging to Gaussian, Inc.
  
 This software is provided under written license and may be
 used, copied, transmitted, or stored only in accord with that
 written license.
  
 The following legend is applicable only to US Government
 contracts under FAR:
  
                    RESTRICTED RIGHTS LEGEND
  
 Use, reproduction and disclosure by the US Government is
 subject to restrictions as set forth in subparagraphs (a)
 and (c) of the Commercial Computer Software - Restricted
 Rights clause in FAR 52.227-19.
  
 Gaussian, Inc.
 340 Quinnipiac St., Bldg. 40, Wallingford CT 06492
  
  
 ---------------------------------------------------------------
 Warning -- This program may not be used in any manner that
 competes with the business of Gaussian, Inc. or will provide
 assistance to any competitor of Gaussian, Inc.  The licensee
 of this program is prohibited from giving any competitor of
 Gaussian, Inc. access to this program.  By using this program,
 the user acknowledges that Gaussian, Inc. is engaged in the
 business of creating and licensing software in the field of
 computational chemistry and represents and warrants to the
 licensee that it is not a competitor of Gaussian, Inc. and that
 it will not use this program in any manner prohibited above.
 ---------------------------------------------------------------
  

 Cite this work as:
 Gaussian Development Version, Revision J.21,
 M. J. Frisch, G. W. Trucks, H. B. Schlegel, G. E. Scuseria, 
 M. A. Robb, J. R. Cheeseman, G. Scalmani, V. Barone, 
 G. A. Petersson, H. Nakatsuji, X. Li, A. V. Marenich, M. Caricato, 
 J. Bloino, B. G. Janesko, J. Zheng, R. Gomperts, B. Mennucci, 
 H. P. Hratchian, J. V. Ortiz, A. F. Izmaylov, J. L. Sonnenberg, 
 D. Williams-Young, F. Ding, F. Lipparini, F. Egidi, J. Goings, 
 B. Peng, A. Petrone, T. Henderson, D. Ranasinghe, V. G. Zakrzewski, 
 J. Gao, N. Rega, G. Zheng, W. Liang, M. Hada, M. Ehara, K. Toyota, 
 R. Fukuda, J. Hasegawa, M. Ishida, T. Nakajima, Y. Honda, O. Kitao, 
 H. Nakai, T. Vreven, K. Throssell, J. A. Montgomery, Jr., 
 J. E. Peralta, F. Ogliaro, M. J. Bearpark, J. J. Heyd, 
 E. N. Brothers, K. N. Kudin, V. N. Staroverov, T. A. Keith, 
 R. Kobayashi, J. Normand, K. Raghavachari, A. P. Rendell, 
 J. C. Burant, S. S. Iyengar, J. Tomasi, M. Cossi, J. M. Millam, 
 M. Klene, C. Adamo, R. Cammi, J. W. Ochterski, R. L. Martin, 
 K. Morokuma, O. Farkas, J. B. Foresman, and D. J. Fox, 
 Gaussian, Inc., Wallingford CT, 2020.
 
 ******************************************
 Gaussian DV:  ES64L-GDVRevJ.21 25-Jul-2022
                14-Mar-2025 
 ******************************************
 %Nprocshared=12
 Will use up to   12 processors via shared memory.
 %Mem=64GB
 ----------------------------------
 #p B3LYP/6-31G* OPT OUTPUT=PICKETT
 ----------------------------------
 1/18=20,19=15,26=3,37=210000000,38=1/1,3;
 2/9=110,12=2/2;
 3/5=1,6=6,7=1,11=2,25=1,30=1,71=1,74=-5/1,2,3;
 4//1;
 5/5=2,38=5/2;
 6/7=2,8=2,9=2,10=2,28=1/1;
 7//1,2,3,16;
 1/18=20,19=15,26=3/3(2);
 2/9=110/2;
 99/10=1024/99;
 2/9=110/2;
 3/5=1,6=6,7=1,11=2,25=1,30=1,71=1,74=-5/1,2,3;
 4/5=5,16=3,69=1/1;
 5/5=2,38=5/2;
 7//1,2,3,16;
 1/18=20,19=15,26=3/3(-5);
 2/9=110/2;
 6/7=2,8=2,9=2,10=2,19=2,28=1/1;
 99/9=1,10=1024/99;
 Leave Link    1 at Fri Mar 14 15:11:16 2025, MaxMem=  8589934592 cpu:               0.2 elap:               0.0
 (Enter /home/enzo/gaussian_versions/gdv.j21/gdv/l101.exe)
 --------------
 individuo_2543
 --------------
 Symbolic Z-matrix:
 Charge =     0 Multiplicity =     1
 6                     3.06697   0.98874   0.39565 
 6                     2.08068   0.15444  -0.41277 
 16                    2.06058  -1.55519   0.20678 
 6                     0.70326   0.74738  -0.33859 
 8                     0.52986   1.85026   0.2441 
 7                    -0.40672   0.07068  -0.93775 
 6                    -1.7527    0.6322   -0.89094 
 6                    -2.60386  -0.12076   0.0773 
 8                    -3.33997  -1.05691  -0.32608 
 8                    -2.60118   0.23232   1.42019 
 1                     4.08626   0.55973   0.30636 
 1                     3.09108   2.02945   0.01066 
 1                     2.77959   1.00663   1.46773 
 1                     2.42594   0.12935  -1.46751 
 1                     3.38647  -1.484     0.66961 
 1                    -0.24117  -0.84285  -1.41685 
 1                    -1.69988   1.69883  -0.5869 
 1                    -2.21251   0.57633  -1.89955 
 1                    -3.24631  -0.1972    2.07087 
 
 ITRead=  0  0  0  0  0  0  0  0  0  0  0  0  0  0  0  0  0  0  0
 MicOpt= -1 -1 -1 -1 -1 -1 -1 -1 -1 -1 -1 -1 -1 -1 -1 -1 -1 -1 -1
 NAtoms=     19 NQM=       19 NQMF=       0 NMMI=      0 NMMIF=      0
                NMic=       0 NMicF=      0.
                    Isotopes and Nuclear Properties:
 (Nuclear quadrupole moments (NQMom) in fm**2, nuclear magnetic moments (NMagM)
  in nuclear magnetons)

  Atom         1           2           3           4           5           6           7           8           9          10
 IAtWgt=          12          12          32          12          16          14          12          12          16          16
 AtmWgt=  12.0000000  12.0000000  31.9720718  12.0000000  15.9949146  14.0030740  12.0000000  12.0000000  15.9949146  15.9949146
 NucSpn=           0           0           0           0           0           2           0           0           0           0
 AtZEff=  -0.0000000  -0.0000000  -0.0000000  -0.0000000  -0.0000000  -0.0000000  -0.0000000  -0.0000000  -0.0000000  -0.0000000
 NQMom=    0.0000000   0.0000000   0.0000000   0.0000000   0.0000000   2.0440000   0.0000000   0.0000000   0.0000000   0.0000000
 NMagM=    0.0000000   0.0000000   0.0000000   0.0000000   0.0000000   0.4037610   0.0000000   0.0000000   0.0000000   0.0000000
 AtZNuc=   6.0000000   6.0000000  16.0000000   6.0000000   8.0000000   7.0000000   6.0000000   6.0000000   8.0000000   8.0000000

  Atom        11          12          13          14          15          16          17          18          19
 IAtWgt=           1           1           1           1           1           1           1           1           1
 AtmWgt=   1.0078250   1.0078250   1.0078250   1.0078250   1.0078250   1.0078250   1.0078250   1.0078250   1.0078250
 NucSpn=           1           1           1           1           1           1           1           1           1
 AtZEff=  -0.0000000  -0.0000000  -0.0000000  -0.0000000  -0.0000000  -0.0000000  -0.0000000  -0.0000000  -0.0000000
 NQMom=    0.0000000   0.0000000   0.0000000   0.0000000   0.0000000   0.0000000   0.0000000   0.0000000   0.0000000
 NMagM=    2.7928460   2.7928460   2.7928460   2.7928460   2.7928460   2.7928460   2.7928460   2.7928460   2.7928460
 AtZNuc=   1.0000000   1.0000000   1.0000000   1.0000000   1.0000000   1.0000000   1.0000000   1.0000000   1.0000000
 Leave Link  101 at Fri Mar 14 15:11:16 2025, MaxMem=  8589934592 cpu:               1.7 elap:               0.3
 (Enter /home/enzo/gaussian_versions/gdv.j21/gdv/l103.exe)

 GradGradGradGradGradGradGradGradGradGradGradGradGradGradGradGradGradGrad
 Berny optimization.
 Initialization pass.
                           ----------------------------
                           !    Initial Parameters    !
                           ! (Angstroms and Degrees)  !
 --------------------------                            --------------------------
 ! Name  Definition              Value          Derivative Info.                !
 --------------------------------------------------------------------------------
 ! R1    R(1,2)                  1.5239         estimate D2E/DX2                !
 ! R2    R(1,11)                 1.1095         estimate D2E/DX2                !
 ! R3    R(1,12)                 1.1099         estimate D2E/DX2                !
 ! R4    R(1,13)                 1.1101         estimate D2E/DX2                !
 ! R5    R(2,3)                  1.8185         estimate D2E/DX2                !
 ! R6    R(2,4)                  1.5015         estimate D2E/DX2                !
 ! R7    R(2,14)                 1.1101         estimate D2E/DX2                !
 ! R8    R(3,15)                 1.4061         estimate D2E/DX2                !
 ! R9    R(4,5)                  1.2593         estimate D2E/DX2                !
 ! R10   R(4,6)                  1.4314         estimate D2E/DX2                !
 ! R11   R(6,7)                  1.4592         estimate D2E/DX2                !
 ! R12   R(6,16)                 1.0447         estimate D2E/DX2                !
 ! R13   R(7,8)                  1.493          estimate D2E/DX2                !
 ! R14   R(7,17)                 1.1104         estimate D2E/DX2                !
 ! R15   R(7,18)                 1.1099         estimate D2E/DX2                !
 ! R16   R(8,9)                  1.2574         estimate D2E/DX2                !
 ! R17   R(8,10)                 1.3885         estimate D2E/DX2                !
 ! R18   R(10,19)                1.012          estimate D2E/DX2                !
 ! A1    A(2,1,11)             109.8889         estimate D2E/DX2                !
 ! A2    A(2,1,12)             110.0837         estimate D2E/DX2                !
 ! A3    A(2,1,13)             110.7082         estimate D2E/DX2                !
 ! A4    A(11,1,12)            108.3419         estimate D2E/DX2                !
 ! A5    A(11,1,13)            108.7717         estimate D2E/DX2                !
 ! A6    A(12,1,13)            108.9959         estimate D2E/DX2                !
 ! A7    A(1,2,3)              109.944          estimate D2E/DX2                !
 ! A8    A(1,2,4)              110.5681         estimate D2E/DX2                !
 ! A9    A(1,2,14)             108.3679         estimate D2E/DX2                !
 ! A10   A(3,2,4)              110.1384         estimate D2E/DX2                !
 ! A11   A(3,2,14)             107.8122         estimate D2E/DX2                !
 ! A12   A(4,2,14)             109.9492         estimate D2E/DX2                !
 ! A13   A(2,3,15)              93.102          estimate D2E/DX2                !
 ! A14   A(2,4,5)              119.6714         estimate D2E/DX2                !
 ! A15   A(2,4,6)              120.2653         estimate D2E/DX2                !
 ! A16   A(5,4,6)              120.0605         estimate D2E/DX2                !
 ! A17   A(4,6,7)              121.3282         estimate D2E/DX2                !
 ! A18   A(4,6,16)             118.8456         estimate D2E/DX2                !
 ! A19   A(7,6,16)             119.8262         estimate D2E/DX2                !
 ! A20   A(6,7,8)              110.648          estimate D2E/DX2                !
 ! A21   A(6,7,17)             109.5465         estimate D2E/DX2                !
 ! A22   A(6,7,18)             109.4892         estimate D2E/DX2                !
 ! A23   A(8,7,17)             109.5122         estimate D2E/DX2                !
 ! A24   A(8,7,18)             109.1339         estimate D2E/DX2                !
 ! A25   A(17,7,18)            108.4751         estimate D2E/DX2                !
 ! A26   A(7,8,9)              120.0801         estimate D2E/DX2                !
 ! A27   A(7,8,10)             119.8596         estimate D2E/DX2                !
 ! A28   A(9,8,10)             120.0477         estimate D2E/DX2                !
 ! A29   A(8,10,19)            120.844          estimate D2E/DX2                !
 ! D1    D(11,1,2,3)            60.0            estimate D2E/DX2                !
 ! D2    D(11,1,2,4)          -178.1733         estimate D2E/DX2                !
 ! D3    D(11,1,2,14)          -57.6046         estimate D2E/DX2                !
 ! D4    D(12,1,2,3)           179.2479         estimate D2E/DX2                !
 ! D5    D(12,1,2,4)           -58.9254         estimate D2E/DX2                !
 ! D6    D(12,1,2,14)           61.6433         estimate D2E/DX2                !
 ! D7    D(13,1,2,3)           -60.1727         estimate D2E/DX2                !
 ! D8    D(13,1,2,4)            61.654          estimate D2E/DX2                !
 ! D9    D(13,1,2,14)         -177.7773         estimate D2E/DX2                !
 ! D10   D(1,2,3,15)           -27.7045         estimate D2E/DX2                !
 ! D11   D(4,2,3,15)          -149.7868         estimate D2E/DX2                !
 ! D12   D(14,2,3,15)           90.2447         estimate D2E/DX2                !
 ! D13   D(1,2,4,5)              5.5336         estimate D2E/DX2                !
 ! D14   D(1,2,4,6)           -175.0731         estimate D2E/DX2                !
 ! D15   D(3,2,4,5)            127.2458         estimate D2E/DX2                !
 ! D16   D(3,2,4,6)            -53.3608         estimate D2E/DX2                !
 ! D17   D(14,2,4,5)          -114.0872         estimate D2E/DX2                !
 ! D18   D(14,2,4,6)            65.3062         estimate D2E/DX2                !
 ! D19   D(2,4,6,7)           -179.3909         estimate D2E/DX2                !
 ! D20   D(2,4,6,16)             0.5656         estimate D2E/DX2                !
 ! D21   D(5,4,6,7)              0.0            estimate D2E/DX2                !
 ! D22   D(5,4,6,16)           179.9565         estimate D2E/DX2                !
 ! D23   D(4,6,7,8)           -106.4021         estimate D2E/DX2                !
 ! D24   D(4,6,7,17)            14.4318         estimate D2E/DX2                !
 ! D25   D(4,6,7,18)           133.2713         estimate D2E/DX2                !
 ! D26   D(16,6,7,8)            73.6418         estimate D2E/DX2                !
 ! D27   D(16,6,7,17)         -165.5243         estimate D2E/DX2                !
 ! D28   D(16,6,7,18)          -46.6848         estimate D2E/DX2                !
 ! D29   D(6,7,8,9)            -94.7095         estimate D2E/DX2                !
 ! D30   D(6,7,8,10)            86.5763         estimate D2E/DX2                !
 ! D31   D(17,7,8,9)           144.4363         estimate D2E/DX2                !
 ! D32   D(17,7,8,10)          -34.278          estimate D2E/DX2                !
 ! D33   D(18,7,8,9)            25.8291         estimate D2E/DX2                !
 ! D34   D(18,7,8,10)         -152.8852         estimate D2E/DX2                !
 ! D35   D(7,8,10,19)          173.1399         estimate D2E/DX2                !
 ! D36   D(9,8,10,19)           -5.5747         estimate D2E/DX2                !
 --------------------------------------------------------------------------------
 Trust Radius=3.00D-01 FncErr=1.00D-07 GrdErr=1.00D-06 EigMax=2.50D+02 EigMin=1.00D-04
 Number of steps in this run=     93 maximum allowed number of steps=    114.
 GradGradGradGradGradGradGradGradGradGradGradGradGradGradGradGradGradGrad

 Leave Link  103 at Fri Mar 14 15:11:16 2025, MaxMem=  8589934592 cpu:               0.1 elap:               0.1
 (Enter /home/enzo/gaussian_versions/gdv.j21/gdv/l202.exe)
                          Input orientation:                          
 ---------------------------------------------------------------------
 Center     Atomic      Atomic             Coordinates (Angstroms)
 Number     Number       Type             X           Y           Z
 ---------------------------------------------------------------------
      1          6           0        3.066968    0.988737    0.395650
      2          6           0        2.080684    0.154436   -0.412773
      3         16           0        2.060584   -1.555193    0.206784
      4          6           0        0.703260    0.747381   -0.338588
      5          8           0        0.529861    1.850263    0.244096
      6          7           0       -0.406718    0.070684   -0.937748
      7          6           0       -1.752696    0.632199   -0.890935
      8          6           0       -2.603860   -0.120757    0.077299
      9          8           0       -3.339967   -1.056909   -0.326084
     10          8           0       -2.601181    0.232315    1.420188
     11          1           0        4.086256    0.559733    0.306355
     12          1           0        3.091082    2.029449    0.010663
     13          1           0        2.779591    1.006635    1.467728
     14          1           0        2.425936    0.129354   -1.467511
     15          1           0        3.386474   -1.483997    0.669606
     16          1           0       -0.241171   -0.842848   -1.416846
     17          1           0       -1.699884    1.698825   -0.586895
     18          1           0       -2.212512    0.576330   -1.899550
     19          1           0       -3.246313   -0.197197    2.070870
 ---------------------------------------------------------------------
                    Distance matrix (angstroms):
                    1          2          3          4          5
     1  C    0.000000
     2  C    1.523930   0.000000
     3  S    2.742273   1.818540   0.000000
     4  C    2.486860   1.501461   2.727931   0.000000
     5  O    2.683674   2.390054   3.733850   1.259340   0.000000
     6  N    3.832397   2.543577   3.168755   1.431420   2.332560
     7  C    5.001158   3.892518   4.531090   2.519935   2.825251
     8  C    5.787108   4.718141   4.881743   3.444368   3.705799
     9  O    6.764199   5.555027   5.449604   4.427562   4.873636
    10  O    5.809455   5.028486   5.138053   3.778613   3.715424
    11  H    1.109489   2.168808   2.930217   3.449032   3.783819
    12  H    1.109900   2.171607   3.734976   2.732649   2.578071
    13  H    1.110071   2.179678   2.944472   2.764261   2.696344
    14  H    2.149612   1.110090   2.403007   2.150357   3.079972
    15  H    2.508296   2.358197   1.406150   3.632512   4.411189
    16  H    4.193284   2.719145   2.905458   2.140892   3.256695
    17  H    4.918587   4.087560   5.035839   2.596537   2.384375
    18  H    5.771562   4.562897   5.219136   3.311735   3.706580
    19  H    6.638548   5.888041   5.786374   4.721953   4.667835
                    6          7          8          9         10
     6  N    0.000000
     7  C    1.459160   0.000000
     8  C    2.427839   1.492950   0.000000
     9  O    3.201492   2.385702   1.257359   0.000000
    10  O    3.225160   2.494218   1.388531   2.292895   0.000000
    11  H    4.687619   5.960882   6.728535   7.626421   6.787462
    12  H    4.119569   5.121267   6.087708   7.141246   6.133377
    13  H    4.100596   5.122999   5.673257   6.702609   5.436409
    14  H    2.882364   4.248089   5.267622   5.996308   5.798389
    15  H    4.403286   5.772750   6.171981   6.813135   6.273844
    16  H    1.044740   2.176477   2.887245   3.292130   3.843746
    17  H    2.108606   1.110370   2.137570   3.217447   2.644120
    18  H    2.107518   1.109890   2.132373   2.532670   3.360070
    19  H    4.145702   3.419222   2.095928   2.548188   1.011960
                   11         12         13         14         15
    11  H    0.000000
    12  H    1.799408   0.000000
    13  H    1.804406   1.807267   0.000000
    14  H    2.467486   2.497555   3.083881   0.000000
    15  H    2.190543   3.586888   2.684875   2.844785   0.000000
    16  H    4.864492   4.625125   4.567971   2.839226   4.233694
    17  H    5.964465   4.839395   4.976575   4.501235   6.130268
    18  H    6.673887   5.821390   6.036954   4.679919   6.495703
    19  H    7.579777   7.026022   6.174505   6.693369   6.900236
                   16         17         18         19
    16  H    0.000000
    17  H    3.045778   0.000000
    18  H    2.476541   1.801623   0.000000
    19  H    4.648861   3.612486   4.175084   0.000000
 Stoichiometry    C5H9NO3S
 Framework group  C1[X(C5H9NO3S)]
 Deg. of freedom    51
 Full point group                 C1      NOp   1
 Largest Abelian subgroup         C1      NOp   1
 Largest concise Abelian subgroup C1      NOp   1
                         Standard orientation:                         
 ---------------------------------------------------------------------
 Center     Atomic      Atomic             Coordinates (Angstroms)
 Number     Number       Type             X           Y           Z
 ---------------------------------------------------------------------
      1          6           0       -3.024475   -0.951816    0.396382
      2          6           0       -2.031261   -0.128407   -0.414720
      3         16           0       -2.005577    1.585893    0.191584
      4          6           0       -0.656898   -0.727104   -0.330637
      5          8           0       -0.490838   -1.826196    0.261274
      6          7           0        0.458481   -0.060231   -0.930783
      7          6           0        1.801649   -0.627569   -0.874436
      8          6           0        2.652614    0.128982    0.091167
      9          8           0        3.394588    1.058552   -0.316663
     10          8           0        2.643191   -0.213587    1.436743
     11          1           0       -4.041413   -0.518823    0.299840
     12          1           0       -3.051958   -1.995377    0.019417
     13          1           0       -2.741261   -0.962676    1.469661
     14          1           0       -2.372381   -0.109961   -1.470938
     15          1           0       -3.333533    1.524428    0.649855
     16          1           0        0.299000    0.850290   -1.417608
     17          1           0        1.742728   -1.691535   -0.562309
     18          1           0        2.265550   -0.581692   -1.881684
     19          1           0        3.287833    0.218006    2.086533
 ---------------------------------------------------------------------
 Rotational constants (GHZ):           1.9070235           0.5827935           0.5184653
 Leave Link  202 at Fri Mar 14 15:11:16 2025, MaxMem=  8589934592 cpu:               0.2 elap:               0.1
 (Enter /home/enzo/gaussian_versions/gdv.j21/gdv/l301.exe)
 Standard basis: 6-31G(d) (6D, 7F)
 Ernie: Thresh=  0.10000D-02 Tol=  0.10000D-05 Strict=F.
 There are   172 symmetry adapted cartesian basis functions of A   symmetry.
 There are   172 symmetry adapted basis functions of A   symmetry.
   172 basis functions,   340 primitive gaussians,   172 cartesian basis functions
    43 alpha electrons       43 beta electrons
       nuclear repulsion energy       616.5685881201 Hartrees.
 IExCor=      4002 DFT=T Ex+Corr=B3LYP ScaHFX=  0.200000
 ScaDFX=  0.800000  0.720000  1.000000  0.810000  1.000000  0.000000
 ScaDFX=  0.000000  0.000000  0.000000  0.000000  0.000000  0.000000
 IRadAn=      5 IRanWt=     -1 IRanGd=            0 ICorTp=0 IEmpDi=  4
 NAtoms=   19 NActive=   19 NUniq=   19 SFac= 1.00D+00 NAtFMM=   60 NAOKFM=F Big=F
 Integral buffers will be    131072 words long.
 Raffenetti 2 integral format.
 Two-electron integral symmetry is turned on.
 Leave Link  301 at Fri Mar 14 15:11:17 2025, MaxMem=  8589934592 cpu:               0.7 elap:               0.2
 (Enter /home/enzo/gaussian_versions/gdv.j21/gdv/l302.exe)
 NPDir=0 NMtPBC=     1 NCelOv=     1 NCel=       1 NClECP=     1 NCelD=      1
         NCelK=      1 NCelE2=     1 NClLst=     1 CellRange=     0.0.
 One-electron integrals computed using PRISM.
 One-electron integral symmetry used in STVInt
 NBasis=   172 RedAO= T EigKep=  3.23D-03  NBF=   172
 NBsUse=   172 1.00D-06 EigRej= -1.00D+00 NBFU=   172
 Precomputing XC quadrature grid using
 IXCGrd= 4 IRadAn=           5 IRanWt=          -1 IRanGd=           0 AccXCQ= 0.00D+00.
 Generated NRdTot=       0 NPtTot=      408432 NUsed=           0 NTot=          64
 NSgBfM=   172   172   172   172   172 MxSgAt=    19 MxSgA2=    19 SizInc=   0.000
 NMBTot=     3500 MaxBatPerAtom=       85 MaxMicBPerAtom=      207 NBfPt=            50579901.
 Leave Link  302 at Fri Mar 14 15:11:17 2025, MaxMem=  8589934592 cpu:               1.5 elap:               0.3
 (Enter /home/enzo/gaussian_versions/gdv.j21/gdv/l303.exe)
 DipDrv:  MaxL=1.
 Leave Link  303 at Fri Mar 14 15:11:17 2025, MaxMem=  8589934592 cpu:               0.8 elap:               0.2
 (Enter /home/enzo/gaussian_versions/gdv.j21/gdv/l401.exe)
 ExpMin= 1.17D-01 ExpMax= 2.19D+04 ExpMxC= 3.30D+03 IAcc=3 IRadAn=         5 AccDes= 0.00D+00
 Harris functional with IExCor= 4002 and IRadAn=       5 diagonalized for initial guess.
 HarFok:  IExCor=    4002 AccDes= 0.00D+00 IRadAn=         5 IDoV= 1 UseB2=F ITyADJ=14 ICtDFT=  3500011
 FoFCou: FMM=F IPFlag=           0 FMFlag=      100000 FMFlg1=           0
         NFxFlg=           0 DoJE=T BraDBF=F KetDBF=T FulRan=T
         wScrn=  0.000000 ICntrl=       500 IOpCl=  0 I1Cent=   200000004 NGrid=           0
         NMat0=    1 NMatS0=      1 NMatT0=    0 NMatD0=    1 NMtDS0=    0 NMtDT0=    0
 Petite list used in FoFCou.
 Harris En= -874.515437945539    
 JPrj=0 DoOrth=F DoCkMO=F.
 Leave Link  401 at Fri Mar 14 15:11:18 2025, MaxMem=  8589934592 cpu:               5.1 elap:               0.9
 (Enter /home/enzo/gaussian_versions/gdv.j21/gdv/l502.exe)
 Integral symmetry usage will be decided dynamically.
 Closed shell SCF:
 Using DIIS extrapolation, IDIIS=  1040.
 NGot=  8589934592 LenX=  8589843591 LenY=  8589813566
 Requested convergence on RMS density matrix=1.00D-08 within 128 cycles.
 Requested convergence on MAX density matrix=1.00D-06.
 Requested convergence on             energy=1.00D-06.
 No special actions if energy rises.
 Fock matrices will be formed incrementally for  20 cycles.
 Integral accuracy reduced to 1.0D-05 until final iterations.

 Cycle   1  Pass 0  IDiag  1:
 FoFJK:  IHMeth= 1 ICntrl=       0 DoSepK=F KAlg= 0 I1Cent=           0 FoldK=F
 IRaf= 900000000 NMat=       1 IRICut=       1 DoRegI=T DoRafI=F ISym2E= 0 IDoP0=0 IntGTp=1.
 FoFCou: FMM=F IPFlag=           0 FMFlag=      100000 FMFlg1=           0
         NFxFlg=           0 DoJE=F BraDBF=F KetDBF=F FulRan=T
         wScrn=  0.000000 ICntrl=         0 IOpCl=  0 I1Cent=           0 NGrid=           0
         NMat0=    1 NMatS0=      1 NMatT0=    0 NMatD0=    1 NMtDS0=    0 NMtDT0=    0
 Symmetry not used in FoFCou.
 E= -874.258955427703    
 DIIS: error= 3.46D-02 at cycle   1 NSaved=   1.
 NSaved= 1 IEnMin= 1 EnMin= -874.258955427703     IErMin= 1 ErrMin= 3.46D-02
 ErrMax= 3.46D-02  0.00D+00 EMaxC= 1.00D-01 BMatC= 3.49D-01 BMatP= 3.49D-01
 IDIUse=3 WtCom= 6.54D-01 WtEn= 3.46D-01
 Coeff-Com:  0.100D+01
 Coeff-En:   0.100D+01
 Coeff:      0.100D+01
 Gap=     0.275 Goal=   None    Shift=    0.000
 GapD=    0.275 DampG=1.000 DampE=0.500 DampFc=0.5000 IDamp=-1.
 Damping current iteration by 5.00D-01
 RMSDP=9.13D-03 MaxDP=2.59D-01              OVMax= 4.02D-01

 Cycle   2  Pass 0  IDiag  1:
 RMSU=  4.56D-03    CP:  9.94D-01
 E= -874.273655035553     Delta-E=       -0.014699607849 Rises=F Damp=T
 DIIS: error= 1.94D-02 at cycle   2 NSaved=   2.
 NSaved= 2 IEnMin= 2 EnMin= -874.273655035553     IErMin= 2 ErrMin= 1.94D-02
 ErrMax= 1.94D-02  0.00D+00 EMaxC= 1.00D-01 BMatC= 9.73D-02 BMatP= 3.49D-01
 IDIUse=3 WtCom= 8.06D-01 WtEn= 1.94D-01
 Coeff-Com:  0.311D+00 0.689D+00
 Coeff-En:   0.480D+00 0.520D+00
 Coeff:      0.344D+00 0.656D+00
 Gap=     0.265 Goal=   None    Shift=    0.000
 RMSDP=3.11D-03 MaxDP=1.23D-01 DE=-1.47D-02 OVMax= 2.31D-01

 Cycle   3  Pass 0  IDiag  1:
 RMSU=  2.20D-03    CP:  9.87D-01  5.18D-01
 E= -874.498455460277     Delta-E=       -0.224800424724 Rises=F Damp=F
 DIIS: error= 1.41D-02 at cycle   3 NSaved=   3.
 NSaved= 3 IEnMin= 3 EnMin= -874.498455460277     IErMin= 3 ErrMin= 1.41D-02
 ErrMax= 1.41D-02  0.00D+00 EMaxC= 1.00D-01 BMatC= 5.80D-02 BMatP= 9.73D-02
 IDIUse=3 WtCom= 8.59D-01 WtEn= 1.41D-01
 Coeff-Com:  0.147D+00 0.426D+00 0.427D+00
 Coeff-En:   0.000D+00 0.000D+00 0.100D+01
 Coeff:      0.126D+00 0.366D+00 0.508D+00
 Gap=     0.244 Goal=   None    Shift=    0.000
 RMSDP=1.72D-03 MaxDP=4.44D-02 DE=-2.25D-01 OVMax= 9.33D-02

 Cycle   4  Pass 0  IDiag  1:
 RMSU=  9.47D-04    CP:  9.94D-01  6.37D-01  4.00D-01
 E= -874.540045109361     Delta-E=       -0.041589649084 Rises=F Damp=F
 DIIS: error= 6.59D-03 at cycle   4 NSaved=   4.
 NSaved= 4 IEnMin= 4 EnMin= -874.540045109361     IErMin= 4 ErrMin= 6.59D-03
 ErrMax= 6.59D-03  0.00D+00 EMaxC= 1.00D-01 BMatC= 1.18D-02 BMatP= 5.80D-02
 IDIUse=3 WtCom= 9.34D-01 WtEn= 6.59D-02
 Coeff-Com:  0.264D-01 0.650D-01 0.311D+00 0.597D+00
 Coeff-En:   0.000D+00 0.000D+00 0.191D+00 0.809D+00
 Coeff:      0.247D-01 0.608D-01 0.303D+00 0.611D+00
 Gap=     0.222 Goal=   None    Shift=    0.000
 RMSDP=5.97D-04 MaxDP=1.72D-02 DE=-4.16D-02 OVMax= 2.66D-02

 Cycle   5  Pass 0  IDiag  1:
 RMSU=  2.53D-04    CP:  9.92D-01  5.85D-01  5.60D-01  6.50D-01
 E= -874.549035180033     Delta-E=       -0.008990070673 Rises=F Damp=F
 DIIS: error= 1.15D-03 at cycle   5 NSaved=   5.
 NSaved= 5 IEnMin= 5 EnMin= -874.549035180033     IErMin= 5 ErrMin= 1.15D-03
 ErrMax= 1.15D-03  0.00D+00 EMaxC= 1.00D-01 BMatC= 5.59D-04 BMatP= 1.18D-02
 IDIUse=3 WtCom= 9.89D-01 WtEn= 1.15D-02
 Coeff-Com:  0.412D-02 0.193D-02 0.128D+00 0.331D+00 0.535D+00
 Coeff-En:   0.000D+00 0.000D+00 0.000D+00 0.000D+00 0.100D+01
 Coeff:      0.407D-02 0.190D-02 0.127D+00 0.327D+00 0.541D+00
 Gap=     0.224 Goal=   None    Shift=    0.000
 RMSDP=1.30D-04 MaxDP=3.02D-03 DE=-8.99D-03 OVMax= 4.72D-03

 Cycle   6  Pass 0  IDiag  1:
 RMSU=  6.97D-05    CP:  9.92D-01  5.95D-01  5.61D-01  6.92D-01  6.35D-01
 E= -874.549489772500     Delta-E=       -0.000454592467 Rises=F Damp=F
 DIIS: error= 3.34D-04 at cycle   6 NSaved=   6.
 NSaved= 6 IEnMin= 6 EnMin= -874.549489772500     IErMin= 6 ErrMin= 3.34D-04
 ErrMax= 3.34D-04  0.00D+00 EMaxC= 1.00D-01 BMatC= 3.82D-05 BMatP= 5.59D-04
 IDIUse=3 WtCom= 9.97D-01 WtEn= 3.34D-03
 Coeff-Com:  0.110D-02-0.329D-02 0.447D-01 0.119D+00 0.277D+00 0.562D+00
 Coeff-En:   0.000D+00 0.000D+00 0.000D+00 0.000D+00 0.000D+00 0.100D+01
 Coeff:      0.110D-02-0.328D-02 0.445D-01 0.119D+00 0.276D+00 0.563D+00
 Gap=     0.224 Goal=   None    Shift=    0.000
 RMSDP=4.23D-05 MaxDP=9.52D-04 DE=-4.55D-04 OVMax= 1.32D-03

 Cycle   7  Pass 0  IDiag  1:
 RMSU=  2.69D-05    CP:  9.92D-01  5.91D-01  5.63D-01  6.96D-01  6.31D-01
                    CP:  6.03D-01
 E= -874.549516149850     Delta-E=       -0.000026377350 Rises=F Damp=F
 DIIS: error= 1.76D-04 at cycle   7 NSaved=   7.
 NSaved= 7 IEnMin= 7 EnMin= -874.549516149850     IErMin= 7 ErrMin= 1.76D-04
 ErrMax= 1.76D-04  0.00D+00 EMaxC= 1.00D-01 BMatC= 7.90D-06 BMatP= 3.82D-05
 IDIUse=3 WtCom= 9.98D-01 WtEn= 1.76D-03
 Coeff-Com:  0.417D-03-0.287D-02 0.174D-01 0.454D-01 0.133D+00 0.367D+00
 Coeff-Com:  0.439D+00
 Coeff-En:   0.000D+00 0.000D+00 0.000D+00 0.000D+00 0.000D+00 0.903D-01
 Coeff-En:   0.910D+00
 Coeff:      0.416D-03-0.286D-02 0.174D-01 0.453D-01 0.133D+00 0.367D+00
 Coeff:      0.440D+00
 Gap=     0.224 Goal=   None    Shift=    0.000
 RMSDP=1.57D-05 MaxDP=5.47D-04 DE=-2.64D-05 OVMax= 1.13D-03

 Cycle   8  Pass 0  IDiag  1:
 RMSU=  1.02D-05    CP:  9.92D-01  5.91D-01  5.63D-01  6.95D-01  6.39D-01
                    CP:  6.61D-01  5.93D-01
 E= -874.549521748224     Delta-E=       -0.000005598374 Rises=F Damp=F
 DIIS: error= 5.75D-05 at cycle   8 NSaved=   8.
 NSaved= 8 IEnMin= 8 EnMin= -874.549521748224     IErMin= 8 ErrMin= 5.75D-05
 ErrMax= 5.75D-05  0.00D+00 EMaxC= 1.00D-01 BMatC= 9.27D-07 BMatP= 7.90D-06
 IDIUse=1 WtCom= 1.00D+00 WtEn= 0.00D+00
 Coeff-Com:  0.200D-03-0.144D-02 0.459D-02 0.103D-01 0.436D-01 0.146D+00
 Coeff-Com:  0.280D+00 0.516D+00
 Coeff:      0.200D-03-0.144D-02 0.459D-02 0.103D-01 0.436D-01 0.146D+00
 Coeff:      0.280D+00 0.516D+00
 Gap=     0.224 Goal=   None    Shift=    0.000
 RMSDP=5.98D-06 MaxDP=1.37D-04 DE=-5.60D-06 OVMax= 2.70D-04

 Initial convergence to 1.0D-05 achieved.  Increase integral accuracy.
 Cycle   9  Pass 1  IDiag  1:
 E= -874.549522075966     Delta-E=       -0.000000327741 Rises=F Damp=F
 DIIS: error= 1.46D-05 at cycle   1 NSaved=   1.
 NSaved= 1 IEnMin= 1 EnMin= -874.549522075966     IErMin= 1 ErrMin= 1.46D-05
 ErrMax= 1.46D-05  0.00D+00 EMaxC= 1.00D-01 BMatC= 9.04D-08 BMatP= 9.04D-08
 IDIUse=1 WtCom= 1.00D+00 WtEn= 0.00D+00
 Coeff-Com:  0.100D+01
 Coeff:      0.100D+01
 Gap=     0.224 Goal=   None    Shift=    0.000
 RMSDP=5.98D-06 MaxDP=1.37D-04 DE=-3.28D-07 OVMax= 2.14D-04

 Cycle  10  Pass 1  IDiag  1:
 RMSU=  5.51D-06    CP:  1.00D+00
 E= -874.549521953578     Delta-E=        0.000000122388 Rises=F Damp=F
 DIIS: error= 3.18D-05 at cycle   2 NSaved=   2.
 NSaved= 2 IEnMin= 1 EnMin= -874.549522075966     IErMin= 1 ErrMin= 1.46D-05
 ErrMax= 3.18D-05  0.00D+00 EMaxC= 1.00D-01 BMatC= 2.49D-07 BMatP= 9.04D-08
 IDIUse=1 WtCom= 1.00D+00 WtEn= 0.00D+00
 Coeff-Com:  0.634D+00 0.366D+00
 Coeff:      0.634D+00 0.366D+00
 Gap=     0.224 Goal=   None    Shift=    0.000
 RMSDP=2.60D-06 MaxDP=8.17D-05 DE= 1.22D-07 OVMax= 2.00D-04

 Cycle  11  Pass 1  IDiag  1:
 RMSU=  1.89D-06    CP:  1.00D+00  6.77D-01
 E= -874.549522143993     Delta-E=       -0.000000190415 Rises=F Damp=F
 DIIS: error= 7.01D-06 at cycle   3 NSaved=   3.
 NSaved= 3 IEnMin= 3 EnMin= -874.549522143993     IErMin= 3 ErrMin= 7.01D-06
 ErrMax= 7.01D-06  0.00D+00 EMaxC= 1.00D-01 BMatC= 1.28D-08 BMatP= 9.04D-08
 IDIUse=1 WtCom= 1.00D+00 WtEn= 0.00D+00
 Coeff-Com:  0.252D+00 0.213D+00 0.535D+00
 Coeff:      0.252D+00 0.213D+00 0.535D+00
 Gap=     0.224 Goal=   None    Shift=    0.000
 RMSDP=7.28D-07 MaxDP=2.76D-05 DE=-1.90D-07 OVMax= 4.94D-05

 Cycle  12  Pass 1  IDiag  1:
 RMSU=  6.36D-07    CP:  1.00D+00  7.06D-01  8.33D-01
 E= -874.549522151887     Delta-E=       -0.000000007894 Rises=F Damp=F
 DIIS: error= 3.24D-06 at cycle   4 NSaved=   4.
 NSaved= 4 IEnMin= 4 EnMin= -874.549522151887     IErMin= 4 ErrMin= 3.24D-06
 ErrMax= 3.24D-06  0.00D+00 EMaxC= 1.00D-01 BMatC= 2.44D-09 BMatP= 1.28D-08
 IDIUse=1 WtCom= 1.00D+00 WtEn= 0.00D+00
 Coeff-Com:  0.111D-01 0.508D-01 0.340D+00 0.598D+00
 Coeff:      0.111D-01 0.508D-01 0.340D+00 0.598D+00
 Gap=     0.224 Goal=   None    Shift=    0.000
 RMSDP=2.68D-07 MaxDP=8.56D-06 DE=-7.89D-09 OVMax= 1.20D-05

 Cycle  13  Pass 1  IDiag  1:
 RMSU=  1.24D-07    CP:  1.00D+00  7.15D-01  8.64D-01  6.47D-01
 E= -874.549522153850     Delta-E=       -0.000000001963 Rises=F Damp=F
 DIIS: error= 5.60D-07 at cycle   5 NSaved=   5.
 NSaved= 5 IEnMin= 5 EnMin= -874.549522153850     IErMin= 5 ErrMin= 5.60D-07
 ErrMax= 5.60D-07  0.00D+00 EMaxC= 1.00D-01 BMatC= 1.01D-10 BMatP= 2.44D-09
 IDIUse=1 WtCom= 1.00D+00 WtEn= 0.00D+00
 Coeff-Com: -0.301D-02 0.199D-01 0.159D+00 0.325D+00 0.499D+00
 Coeff:     -0.301D-02 0.199D-01 0.159D+00 0.325D+00 0.499D+00
 Gap=     0.224 Goal=   None    Shift=    0.000
 RMSDP=5.78D-08 MaxDP=1.56D-06 DE=-1.96D-09 OVMax= 2.09D-06

 Cycle  14  Pass 1  IDiag  1:
 RMSU=  3.44D-08    CP:  1.00D+00  7.17D-01  8.64D-01  6.42D-01  6.39D-01
 E= -874.549522153941     Delta-E=       -0.000000000090 Rises=F Damp=F
 DIIS: error= 1.03D-07 at cycle   6 NSaved=   6.
 NSaved= 6 IEnMin= 6 EnMin= -874.549522153941     IErMin= 6 ErrMin= 1.03D-07
 ErrMax= 1.03D-07  0.00D+00 EMaxC= 1.00D-01 BMatC= 4.41D-12 BMatP= 1.01D-10
 IDIUse=1 WtCom= 1.00D+00 WtEn= 0.00D+00
 Coeff-Com: -0.215D-02 0.675D-02 0.545D-01 0.121D+00 0.241D+00 0.578D+00
 Coeff:     -0.215D-02 0.675D-02 0.545D-01 0.121D+00 0.241D+00 0.578D+00
 Gap=     0.224 Goal=   None    Shift=    0.000
 RMSDP=1.45D-08 MaxDP=4.61D-07 DE=-9.00D-11 OVMax= 5.50D-07

 Cycle  15  Pass 1  IDiag  1:
 RMSU=  1.17D-08    CP:  1.00D+00  7.17D-01  8.64D-01  6.52D-01  6.30D-01
                    CP:  8.50D-01
 E= -874.549522153946     Delta-E=       -0.000000000005 Rises=F Damp=F
 DIIS: error= 3.98D-08 at cycle   7 NSaved=   7.
 NSaved= 7 IEnMin= 7 EnMin= -874.549522153946     IErMin= 7 ErrMin= 3.98D-08
 ErrMax= 3.98D-08  0.00D+00 EMaxC= 1.00D-01 BMatC= 5.00D-13 BMatP= 4.41D-12
 IDIUse=1 WtCom= 1.00D+00 WtEn= 0.00D+00
 Coeff-Com: -0.689D-03 0.114D-02 0.740D-02 0.219D-01 0.601D-01 0.281D+00
 Coeff-Com:  0.630D+00
 Coeff:     -0.689D-03 0.114D-02 0.740D-02 0.219D-01 0.601D-01 0.281D+00
 Coeff:      0.630D+00
 Gap=     0.224 Goal=   None    Shift=    0.000
 RMSDP=6.17D-09 MaxDP=1.77D-07 DE=-5.00D-12 OVMax= 1.87D-07

 SCF Done:  E(RB3LYP) =  -874.549522154     A.U. after   15 cycles
            NFock= 15  Conv=0.62D-08     -V/T= 2.0072
 KE= 8.683393885279D+02 PE=-3.292674868608D+03 EE= 9.332173698061D+02
 Leave Link  502 at Fri Mar 14 15:11:33 2025, MaxMem=  8589934592 cpu:             100.6 elap:              14.6
 (Enter /home/enzo/gaussian_versions/gdv.j21/gdv/l601.exe)
 Copying SCF densities to generalized density rwf, IOpCl= 0 IROHF=0.

 **********************************************************************

            Population analysis using the SCF Density.

 **********************************************************************

 Orbital symmetries:
       Occupied  (A) (A) (A) (A) (A) (A) (A) (A) (A) (A) (A) (A)
                 (A) (A) (A) (A) (A) (A) (A) (A) (A) (A) (A) (A)
                 (A) (A) (A) (A) (A) (A) (A) (A) (A) (A) (A) (A)
                 (A) (A) (A) (A) (A) (A) (A)
       Virtual   (A) (A) (A) (A) (A) (A) (A) (A) (A) (A) (A) (A)
                 (A) (A) (A) (A) (A) (A) (A) (A) (A) (A) (A) (A)
                 (A) (A) (A) (A) (A) (A) (A) (A) (A) (A) (A) (A)
                 (A) (A) (A) (A) (A) (A) (A) (A) (A) (A) (A) (A)
                 (A) (A) (A) (A) (A) (A) (A) (A) (A) (A) (A) (A)
                 (A) (A) (A) (A) (A) (A) (A) (A) (A) (A) (A) (A)
                 (A) (A) (A) (A) (A) (A) (A) (A) (A) (A) (A) (A)
                 (A) (A) (A) (A) (A) (A) (A) (A) (A) (A) (A) (A)
                 (A) (A) (A) (A) (A) (A) (A) (A) (A) (A) (A) (A)
                 (A) (A) (A) (A) (A) (A) (A) (A) (A) (A) (A) (A)
                 (A) (A) (A) (A) (A) (A) (A) (A) (A)
 The electronic state is 1-A.
 Alpha  occ. eigenvalues --      -88.88995     -19.19601     -19.13782     -19.13099     -14.38495
 Alpha  occ. eigenvalues --      -10.33158     -10.31164     -10.25206     -10.24629     -10.19712
 Alpha  occ. eigenvalues --       -7.95279      -5.91798      -5.91425      -5.90694      -1.07660
 Alpha  occ. eigenvalues --       -1.02937      -0.99210      -0.92307      -0.83247      -0.75085
 Alpha  occ. eigenvalues --       -0.70893      -0.65849      -0.61872      -0.57870      -0.53165
 Alpha  occ. eigenvalues --       -0.49890      -0.49552      -0.46821      -0.45760      -0.43891
 Alpha  occ. eigenvalues --       -0.42588      -0.41089      -0.40519      -0.39106      -0.38484
 Alpha  occ. eigenvalues --       -0.37350      -0.36243      -0.33260      -0.30952      -0.27801
 Alpha  occ. eigenvalues --       -0.27192      -0.25819      -0.24674
 Alpha virt. eigenvalues --       -0.02320      -0.00548      -0.00039       0.04823       0.06006
 Alpha virt. eigenvalues --        0.08487       0.10969       0.12575       0.13428       0.14178
 Alpha virt. eigenvalues --        0.15483       0.17489       0.18698       0.20535       0.21130
 Alpha virt. eigenvalues --        0.24613       0.29206       0.30273       0.31968       0.33038
 Alpha virt. eigenvalues --        0.35999       0.37580       0.39402       0.40354       0.49624
 Alpha virt. eigenvalues --        0.51223       0.51735       0.53804       0.55885       0.56354
 Alpha virt. eigenvalues --        0.57469       0.59153       0.60543       0.61616       0.63822
 Alpha virt. eigenvalues --        0.65203       0.67682       0.70596       0.71563       0.76296
 Alpha virt. eigenvalues --        0.77188       0.78249       0.79635       0.81745       0.83122
 Alpha virt. eigenvalues --        0.83517       0.85697       0.86504       0.86905       0.87951
 Alpha virt. eigenvalues --        0.88633       0.90001       0.91632       0.93019       0.93867
 Alpha virt. eigenvalues --        0.94995       0.98256       1.00660       1.03766       1.05123
 Alpha virt. eigenvalues --        1.05712       1.07546       1.09751       1.12656       1.14592
 Alpha virt. eigenvalues --        1.20313       1.24172       1.29453       1.31707       1.34462
 Alpha virt. eigenvalues --        1.38802       1.39930       1.44739       1.47190       1.56700
 Alpha virt. eigenvalues --        1.59167       1.60364       1.66244       1.68565       1.72756
 Alpha virt. eigenvalues --        1.76474       1.77043       1.80177       1.80579       1.82639
 Alpha virt. eigenvalues --        1.83690       1.85398       1.86712       1.87602       1.90018
 Alpha virt. eigenvalues --        1.92151       1.94723       1.98115       1.99285       2.06404
 Alpha virt. eigenvalues --        2.07986       2.11249       2.15452       2.17120       2.22393
 Alpha virt. eigenvalues --        2.25445       2.28312       2.29137       2.33874       2.39933
 Alpha virt. eigenvalues --        2.40570       2.44517       2.51766       2.57436       2.59718
 Alpha virt. eigenvalues --        2.63874       2.65423       2.69263       2.80895       2.85791
 Alpha virt. eigenvalues --        2.92578       2.96319       3.00086       3.05180       3.80100
 Alpha virt. eigenvalues --        3.88951       3.95779       3.97785       4.06849       4.14753
 Alpha virt. eigenvalues --        4.19992       4.35349       4.47873       4.52899
          Condensed to atoms (all electrons):
               1          2          3          4          5          6
     1  C    5.104180   0.342660  -0.053335  -0.023821   0.000963   0.004313
     2  C    0.342660   5.435080   0.245395   0.281713  -0.091541  -0.116652
     3  S   -0.053335   0.245395  15.697462  -0.049320   0.002086   0.009295
     4  C   -0.023821   0.281713  -0.049320   4.407578   0.563482   0.262965
     5  O    0.000963  -0.091541   0.002086   0.563482   8.082529  -0.090827
     6  N    0.004313  -0.116652   0.009295   0.262965  -0.090827   7.112631
     7  C   -0.000104   0.005698  -0.000838  -0.019564   0.000423   0.265838
     8  C    0.000004  -0.000170   0.000148  -0.001893  -0.000866  -0.047833
     9  O    0.000000  -0.000000  -0.000006   0.000009  -0.000002  -0.001750
    10  O    0.000000   0.000009   0.000015   0.001417  -0.000085   0.001421
    11  H    0.359641  -0.035200  -0.009868   0.006035   0.000933  -0.000026
    12  H    0.364108  -0.026313   0.006055  -0.005926   0.005540   0.000083
    13  H    0.382360  -0.037877   0.002809  -0.005757   0.002718   0.000100
    14  H   -0.039374   0.356586  -0.056686  -0.038224   0.000909   0.000441
    15  H   -0.006889  -0.020305   0.261661   0.002614  -0.000052   0.000029
    16  H   -0.000018   0.002922   0.003146  -0.018520   0.002568   0.294873
    17  H   -0.000021   0.001113  -0.000037  -0.000866   0.017816  -0.035088
    18  H    0.000000  -0.000092   0.000018   0.002977   0.000508  -0.036754
    19  H    0.000000  -0.000000  -0.000002  -0.000044   0.000016  -0.000253
               7          8          9         10         11         12
     1  C   -0.000104   0.000004   0.000000   0.000000   0.359641   0.364108
     2  C    0.005698  -0.000170  -0.000000   0.000009  -0.035200  -0.026313
     3  S   -0.000838   0.000148  -0.000006   0.000015  -0.009868   0.006055
     4  C   -0.019564  -0.001893   0.000009   0.001417   0.006035  -0.005926
     5  O    0.000423  -0.000866  -0.000002  -0.000085   0.000933   0.005540
     6  N    0.265838  -0.047833  -0.001750   0.001421  -0.000026   0.000083
     7  C    5.064152   0.325764  -0.074097  -0.072713   0.000001  -0.000004
     8  C    0.325764   4.398845   0.534589   0.270393   0.000000   0.000000
     9  O   -0.074097   0.534589   8.085901  -0.085842   0.000000  -0.000000
    10  O   -0.072713   0.270393  -0.085842   8.247392  -0.000000   0.000000
    11  H    0.000001   0.000000   0.000000  -0.000000   0.598585  -0.028957
    12  H   -0.000004   0.000000  -0.000000   0.000000  -0.028957   0.532628
    13  H   -0.000004   0.000000   0.000000  -0.000000  -0.030292  -0.022193
    14  H   -0.000192  -0.000000   0.000000  -0.000000  -0.003602  -0.001661
    15  H    0.000000  -0.000000  -0.000000   0.000000   0.004134   0.000478
    16  H   -0.027231   0.000824   0.001483   0.000005  -0.000008  -0.000018
    17  H    0.337432  -0.026489   0.002979   0.004794  -0.000000  -0.000003
    18  H    0.370201  -0.038042   0.000412   0.002320  -0.000000  -0.000000
    19  H    0.006010  -0.004663   0.005684   0.217420  -0.000000  -0.000000
              13         14         15         16         17         18
     1  C    0.382360  -0.039374  -0.006889  -0.000018  -0.000021   0.000000
     2  C   -0.037877   0.356586  -0.020305   0.002922   0.001113  -0.000092
     3  S    0.002809  -0.056686   0.261661   0.003146  -0.000037   0.000018
     4  C   -0.005757  -0.038224   0.002614  -0.018520  -0.000866   0.002977
     5  O    0.002718   0.000909  -0.000052   0.002568   0.017816   0.000508
     6  N    0.000100   0.000441   0.000029   0.294873  -0.035088  -0.036754
     7  C   -0.000004  -0.000192   0.000000  -0.027231   0.337432   0.370201
     8  C    0.000000  -0.000000  -0.000000   0.000824  -0.026489  -0.038042
     9  O    0.000000   0.000000  -0.000000   0.001483   0.002979   0.000412
    10  O   -0.000000  -0.000000   0.000000   0.000005   0.004794   0.002320
    11  H   -0.030292  -0.003602   0.004134  -0.000008  -0.000000  -0.000000
    12  H   -0.022193  -0.001661   0.000478  -0.000018  -0.000003  -0.000000
    13  H    0.522075   0.004947  -0.001229   0.000001  -0.000002   0.000000
    14  H    0.004947   0.583480  -0.000553   0.000191  -0.000031   0.000003
    15  H   -0.001229  -0.000553   0.659780  -0.000013   0.000000   0.000000
    16  H    0.000001   0.000191  -0.000013   0.391003   0.003722  -0.002447
    17  H   -0.000002  -0.000031   0.000000   0.003722   0.503601  -0.022244
    18  H    0.000000   0.000003   0.000000  -0.002447  -0.022244   0.532998
    19  H   -0.000000   0.000000  -0.000000   0.000000  -0.000404  -0.000166
              19
     1  C    0.000000
     2  C   -0.000000
     3  S   -0.000002
     4  C   -0.000044
     5  O    0.000016
     6  N   -0.000253
     7  C    0.006010
     8  C   -0.004663
     9  O    0.005684
    10  O    0.217420
    11  H   -0.000000
    12  H   -0.000000
    13  H   -0.000000
    14  H    0.000000
    15  H   -0.000000
    16  H    0.000000
    17  H   -0.000404
    18  H   -0.000166
    19  H    0.351454
 Mulliken charges:
               1
     1  C   -0.434669
     2  C   -0.343026
     3  S   -0.057998
     4  C    0.635145
     5  O   -0.497120
     6  N   -0.622803
     7  C   -0.180775
     8  C    0.589390
     9  O   -0.469361
    10  O   -0.586546
    11  H    0.138625
    12  H    0.176182
    13  H    0.182345
    14  H    0.193765
    15  H    0.100347
    16  H    0.347516
    17  H    0.213728
    18  H    0.190307
    19  H    0.424948
 Sum of Mulliken charges =  -0.00000
 Mulliken charges with hydrogens summed into heavy atoms:
               1
     1  C    0.062483
     2  C   -0.149261
     3  S    0.042349
     4  C    0.635145
     5  O   -0.497120
     6  N   -0.275287
     7  C    0.223260
     8  C    0.589390
     9  O   -0.469361
    10  O   -0.161598
 Electronic spatial extent (au):  <R**2>=           2195.5419
 Charge=              0.0000 electrons
 Dipole moment (field-independent basis, Debye):
    X=             -1.6044    Y=              0.0750    Z=             -0.8174  Tot=              1.8022
 Quadrupole moment (field-independent basis, Debye-Ang):
   XX=            -59.7860   YY=            -73.7982   ZZ=            -60.0718
   XY=             -5.0804   XZ=              4.9877   YZ=              3.8538
 Traceless Quadrupole moment (field-independent basis, Debye-Ang):
   XX=              4.7660   YY=             -9.2462   ZZ=              4.4802
   XY=             -5.0804   XZ=              4.9877   YZ=              3.8538
 Octapole moment (field-independent basis, Debye-Ang**2):
  XXX=            -17.8597  YYY=              0.8692  ZZZ=             10.6363  XYY=              4.2237
  XXY=            -19.7334  XXZ=             32.4211  XZZ=             24.5011  YZZ=              2.3014
  YYZ=              0.0480  XYZ=              4.4832
 Hexadecapole moment (field-independent basis, Debye-Ang**3):
 XXXX=          -1953.4204 YYYY=           -535.3630 ZZZZ=           -222.4124 XXXY=            -77.1559
 XXXZ=            104.0312 YYYX=              0.7769 YYYZ=             10.4518 ZZZX=             52.0027
 ZZZY=             -0.9428 XXYY=           -437.1689 XXZZ=           -307.8908 YYZZ=           -130.1388
 XXYZ=             40.7801 YYXZ=             -2.7081 ZZXY=             14.3908
 N-N= 6.165685881201D+02 E-N=-3.292674880147D+03  KE= 8.683393885279D+02
 No NMR shielding tensors so no spin-rotation constants.
 Leave Link  601 at Fri Mar 14 15:11:33 2025, MaxMem=  8589934592 cpu:               1.4 elap:               0.3
 (Enter /home/enzo/gaussian_versions/gdv.j21/gdv/l701.exe)
 ... and contract with generalized density number  0.
 Compute integral first derivatives.
 Leave Link  701 at Fri Mar 14 15:11:34 2025, MaxMem=  8589934592 cpu:               2.7 elap:               0.6
 (Enter /home/enzo/gaussian_versions/gdv.j21/gdv/l702.exe)
 L702 exits ... SP integral derivatives will be done elsewhere.
 Leave Link  702 at Fri Mar 14 15:11:34 2025, MaxMem=  8589934592 cpu:               0.3 elap:               0.4
 (Enter /home/enzo/gaussian_versions/gdv.j21/gdv/l703.exe)
 Integral derivatives from FoFJK, PRISM(SPDF).
 Compute integral first derivatives, UseDBF=F ICtDFT=           0.
 Calling FoFJK, ICntrl=      2127 FMM=F ISym2X=0 I1Cent= 0 IOpClX= 0 NMat=1 NMatS=1 NMatT=0.
 FoFJK:  IHMeth= 1 ICntrl=    2127 DoSepK=F KAlg= 0 I1Cent=           0 FoldK=F
 IRaf=         0 NMat=       1 IRICut=       1 DoRegI=T DoRafI=F ISym2E= 0 IDoP0=0 IntGTp=1.
 FoFCou: FMM=F IPFlag=           0 FMFlag=      100000 FMFlg1=         800
         NFxFlg=           0 DoJE=F BraDBF=F KetDBF=F FulRan=T
         wScrn=  0.000000 ICntrl=      2127 IOpCl=  0 I1Cent=           0 NGrid=           0
         NMat0=    1 NMatS0=      1 NMatT0=    0 NMatD0=    1 NMtDS0=    0 NMtDT0=    0
 Symmetry not used in FoFCou.
 Leave Link  703 at Fri Mar 14 15:11:35 2025, MaxMem=  8589934592 cpu:              12.7 elap:               1.3
 (Enter /home/enzo/gaussian_versions/gdv.j21/gdv/l716.exe)
 Dipole        =-6.31209760D-01 2.95201204D-02-3.21597693D-01
 ***** Axes restored to original set *****
 -------------------------------------------------------------------
 Center     Atomic                   Forces (Hartrees/Bohr)
 Number     Number              X              Y              Z
 -------------------------------------------------------------------
      1        6           0.008315687    0.011201515    0.005466416
      2        6           0.013056910    0.002044266   -0.014374625
      3       16           0.022283164   -0.014667751    0.014309095
      4        6          -0.053009930    0.042193514    0.014133955
      5        8           0.003397727   -0.045382737   -0.026242659
      6        7           0.044433611    0.000731095    0.004019313
      7        6           0.013022694    0.020595445   -0.000660707
      8        6          -0.079263701   -0.072322943    0.021362601
      9        8           0.036202137    0.043526314    0.017639068
     10        8           0.009880690    0.013163520   -0.008486358
     11        1          -0.007913252    0.003803175    0.000145801
     12        1          -0.000525628   -0.009560149    0.005510029
     13        1           0.002780133    0.001418183   -0.011115964
     14        1          -0.005619769    0.000863970    0.005719472
     15        1          -0.023868067   -0.006705964   -0.008649357
     16        1          -0.007333500    0.022500879    0.012027682
     17        1           0.006629851   -0.010710323   -0.003330296
     18        1           0.001278722   -0.002872239    0.012647389
     19        1           0.016252522    0.000180229   -0.040120854
 -------------------------------------------------------------------
 Cartesian Forces:  Max     0.079263701 RMS     0.023504921
 Leave Link  716 at Fri Mar 14 15:11:36 2025, MaxMem=  8589934592 cpu:               0.4 elap:               0.2
 (Enter /home/enzo/gaussian_versions/gdv.j21/gdv/l103.exe)

 GradGradGradGradGradGradGradGradGradGradGradGradGradGradGradGradGradGrad
 Berny optimization.
 FormGI is forming the generalized inverse of G from B-inverse, IUseBI=4.
 GSVD:  received Info=                   1 from GESDD.
 Internal  Forces:  Max     0.059259768 RMS     0.015204123
 Search for a local minimum.
 Step number   1 out of a maximum of   93
 All quantities printed in internal units (Hartrees-Bohrs-Radians)
 RMS Force = .15204D-01 SwitMx=.10000D-02 MixMth= 1
 Mixed Optimization -- RFO/linear search
 Second derivative matrix not updated -- first step.
 ITU=  0
     Eigenvalues ---    0.00230   0.00449   0.00747   0.00859   0.00909
     Eigenvalues ---    0.00960   0.01054   0.01107   0.01276   0.01843
     Eigenvalues ---    0.05076   0.05358   0.05428   0.05664   0.05775
     Eigenvalues ---    0.06700   0.07595   0.09731   0.13112   0.16000
     Eigenvalues ---    0.16000   0.16000   0.16000   0.16000   0.16000
     Eigenvalues ---    0.17528   0.19893   0.21765   0.22000   0.22010
     Eigenvalues ---    0.24709   0.24997   0.24999   0.25000   0.25000
     Eigenvalues ---    0.29991   0.32225   0.32561   0.32590   0.32593
     Eigenvalues ---    0.32611   0.32612   0.32654   0.33128   0.37070
     Eigenvalues ---    0.40614   0.40786   0.45646   0.47575   0.79879
     Eigenvalues ---    0.80576
 RFO step:  Lambda=-4.74495164D-02 EMin= 2.30000000D-03
 Linear search not attempted -- first point.
 Maximum step size (   0.300) exceeded in Quadratic search.
    -- Step size scaled by   0.800
 Iteration  1 RMS(Cart)=  0.07413038 RMS(Int)=  0.00271042
 Iteration  2 RMS(Cart)=  0.00347411 RMS(Int)=  0.00010780
 Iteration  3 RMS(Cart)=  0.00001201 RMS(Int)=  0.00010730
 Iteration  4 RMS(Cart)=  0.00000000 RMS(Int)=  0.00010730
 Variable       Old X    -DE/DX   Delta X   Delta X   Delta X     New X
                                 (Linear)    (Quad)   (Total)
    R1        2.87981   0.00548   0.00000   0.01262   0.01262   2.89243
    R2        2.09663  -0.00875   0.00000  -0.01871  -0.01871   2.07792
    R3        2.09741  -0.01089   0.00000  -0.02330  -0.02330   2.07410
    R4        2.09773  -0.01143   0.00000  -0.02448  -0.02448   2.07325
    R5        3.43654   0.02204   0.00000   0.05983   0.05983   3.49637
    R6        2.83735   0.01254   0.00000   0.02711   0.02711   2.86446
    R7        2.09777  -0.00720   0.00000  -0.01542  -0.01542   2.08234
    R8        2.65724  -0.02569   0.00000  -0.07749  -0.07749   2.57975
    R9        2.37981  -0.05235   0.00000  -0.04947  -0.04947   2.33034
   R10        2.70499  -0.04519   0.00000  -0.07935  -0.07935   2.62564
   R11        2.75741  -0.00697   0.00000  -0.01333  -0.01333   2.74408
   R12        1.97427  -0.02635   0.00000  -0.04645  -0.04645   1.92782
   R13        2.82127   0.01122   0.00000   0.02368   0.02368   2.84495
   R14        2.09829  -0.01088   0.00000  -0.02333  -0.02333   2.07497
   R15        2.09739  -0.01188   0.00000  -0.02543  -0.02543   2.07196
   R16        2.37606  -0.05926   0.00000  -0.05554  -0.05554   2.32053
   R17        2.62394  -0.04357   0.00000  -0.06658  -0.06658   2.55736
   R18        1.91233  -0.03623   0.00000  -0.05750  -0.05750   1.85483
    A1        1.91792  -0.00006   0.00000   0.00099   0.00098   1.91890
    A2        1.92132   0.00127   0.00000   0.00402   0.00402   1.92534
    A3        1.93222   0.00077   0.00000   0.00261   0.00261   1.93483
    A4        1.89092  -0.00039   0.00000  -0.00082  -0.00083   1.89009
    A5        1.89842   0.00020   0.00000   0.00244   0.00243   1.90085
    A6        1.90234  -0.00184   0.00000  -0.00940  -0.00940   1.89294
    A7        1.91889   0.00754   0.00000   0.03396   0.03395   1.95283
    A8        1.92978   0.00159   0.00000   0.00828   0.00836   1.93814
    A9        1.89138  -0.00051   0.00000   0.00340   0.00338   1.89476
   A10        1.92228  -0.00566   0.00000  -0.01833  -0.01870   1.90357
   A11        1.88168  -0.00062   0.00000  -0.00371  -0.00424   1.87744
   A12        1.91898  -0.00229   0.00000  -0.02357  -0.02371   1.89527
   A13        1.62494   0.01334   0.00000   0.05140   0.05140   1.67634
   A14        2.08866   0.01479   0.00000   0.03973   0.03971   2.12837
   A15        2.09903  -0.01976   0.00000  -0.05315  -0.05317   2.04586
   A16        2.09545   0.00496   0.00000   0.01330   0.01328   2.10873
   A17        2.11758   0.00111   0.00000   0.00331   0.00331   2.12089
   A18        2.07425   0.00252   0.00000   0.01020   0.01019   2.08444
   A19        2.09136  -0.00363   0.00000  -0.01351  -0.01351   2.07785
   A20        1.93117   0.00473   0.00000   0.01256   0.01259   1.94376
   A21        1.91195  -0.00777   0.00000  -0.03252  -0.03256   1.87939
   A22        1.91095   0.00248   0.00000   0.01073   0.01080   1.92175
   A23        1.91135   0.00484   0.00000   0.02561   0.02577   1.93712
   A24        1.90475  -0.00692   0.00000  -0.02966  -0.02958   1.87516
   A25        1.89325   0.00261   0.00000   0.01336   0.01354   1.90678
   A26        2.09579   0.01413   0.00000   0.03815   0.03799   2.13378
   A27        2.09195  -0.03216   0.00000  -0.08629  -0.08644   2.00550
   A28        2.09523   0.01808   0.00000   0.04878   0.04862   2.14385
   A29        2.10913  -0.04488   0.00000  -0.17297  -0.17297   1.93616
    D1        1.04720   0.00173   0.00000   0.00754   0.00749   1.05468
    D2       -3.10971   0.00069   0.00000   0.01265   0.01276  -3.09696
    D3       -1.00539  -0.00149   0.00000  -0.00914  -0.00919  -1.01458
    D4        3.12847   0.00200   0.00000   0.00963   0.00958   3.13804
    D5       -1.02844   0.00096   0.00000   0.01473   0.01485  -1.01360
    D6        1.07588  -0.00121   0.00000  -0.00705  -0.00710   1.06878
    D7       -1.05021   0.00103   0.00000   0.00220   0.00214  -1.04807
    D8        1.07606  -0.00001   0.00000   0.00731   0.00741   1.08348
    D9       -3.10280  -0.00218   0.00000  -0.01448  -0.01453  -3.11733
   D10       -0.48353  -0.00181   0.00000  -0.02914  -0.02926  -0.51280
   D11       -2.61427  -0.00504   0.00000  -0.04988  -0.04973  -2.66401
   D12        1.57507   0.00142   0.00000  -0.00833  -0.00835   1.56672
   D13        0.09658  -0.00231   0.00000  -0.00978  -0.00968   0.08690
   D14       -3.05560  -0.00319   0.00000  -0.02190  -0.02188  -3.07748
   D15        2.22086   0.00444   0.00000   0.02616   0.02598   2.24684
   D16       -0.93132   0.00355   0.00000   0.01405   0.01378  -0.91754
   D17       -1.99120  -0.00122   0.00000  -0.00419  -0.00398  -1.99518
   D18        1.13981  -0.00210   0.00000  -0.01630  -0.01618   1.12363
   D19       -3.13096  -0.00036   0.00000  -0.00437  -0.00445  -3.13542
   D20        0.00987   0.00009   0.00000   0.00186   0.00182   0.01170
   D21        0.00000  -0.00119   0.00000  -0.01637  -0.01634  -0.01634
   D22        3.14083  -0.00073   0.00000  -0.01014  -0.01006   3.13078
   D23       -1.85707  -0.00285   0.00000  -0.01624  -0.01617  -1.87324
   D24        0.25188   0.00114   0.00000   0.00249   0.00242   0.25430
   D25        2.32602   0.00116   0.00000   0.00573   0.00568   2.33170
   D26        1.28529  -0.00330   0.00000  -0.02254  -0.02244   1.26286
   D27       -2.88894   0.00068   0.00000  -0.00380  -0.00385  -2.89279
   D28       -0.81480   0.00070   0.00000  -0.00057  -0.00058  -0.81539
   D29       -1.65299  -0.00044   0.00000   0.01114   0.01121  -1.64178
   D30        1.51104  -0.00288   0.00000  -0.02210  -0.02198   1.48906
   D31        2.52089   0.00306   0.00000   0.02693   0.02679   2.54768
   D32       -0.59826   0.00062   0.00000  -0.00630  -0.00640  -0.60466
   D33        0.45080   0.00114   0.00000   0.01323   0.01324   0.46404
   D34       -2.66835  -0.00130   0.00000  -0.02000  -0.01995  -2.68830
   D35        3.02186   0.00382   0.00000   0.04843   0.04851   3.07037
   D36       -0.09730   0.00143   0.00000   0.01534   0.01526  -0.08204
         Item               Value     Threshold  Converged?
 Maximum Force            0.059260     0.000450     NO 
 RMS     Force            0.015204     0.000300     NO 
 Maximum Displacement     0.278483     0.001800     NO 
 RMS     Displacement     0.075053     0.001200     NO 
 Predicted change in Energy=-2.518088D-02
 Lowest energy point so far.  Saving SCF results.
 GradGradGradGradGradGradGradGradGradGradGradGradGradGradGradGradGradGrad

 Leave Link  103 at Fri Mar 14 15:11:36 2025, MaxMem=  8589934592 cpu:               1.1 elap:               0.4
 (Enter /home/enzo/gaussian_versions/gdv.j21/gdv/l202.exe)
                          Input orientation:                          
 ---------------------------------------------------------------------
 Center     Atomic      Atomic             Coordinates (Angstroms)
 Number     Number       Type             X           Y           Z
 ---------------------------------------------------------------------
      1          6           0        3.081551    1.010775    0.379608
      2          6           0        2.052248    0.178240   -0.388619
      3         16           0        1.967603   -1.561375    0.235730
      4          6           0        0.673707    0.802706   -0.302950
      5          8           0        0.483743    1.892431    0.242122
      6          7           0       -0.376139    0.108487   -0.891504
      7          6           0       -1.733328    0.624469   -0.871269
      8          6           0       -2.602196   -0.154434    0.079969
      9          8           0       -3.295485   -1.098426   -0.289006
     10          8           0       -2.548773    0.257380    1.367980
     11          1           0        4.081503    0.567290    0.267762
     12          1           0        3.113019    2.035076   -0.013424
     13          1           0        2.829804    1.055693    1.446504
     14          1           0        2.354158    0.137256   -1.447590
     15          1           0        3.267063   -1.629406    0.648514
     16          1           0       -0.193268   -0.786884   -1.344925
     17          1           0       -1.683571    1.682512   -0.581913
     18          1           0       -2.182442    0.543072   -1.868185
     19          1           0       -3.182802   -0.245423    1.923503
 ---------------------------------------------------------------------
                    Distance matrix (angstroms):
                    1          2          3          4          5
     1  C    0.000000
     2  C    1.530605   0.000000
     3  S    2.806695   1.850199   0.000000
     4  C    2.511353   1.515808   2.748313   0.000000
     5  O    2.746784   2.407591   3.759076   1.233163   0.000000
     6  N    3.792819   2.480892   3.090668   1.389429   2.281877
     7  C    4.989688   3.842221   4.438497   2.479632   2.786175
     8  C    5.809688   4.689786   4.784016   3.434281   3.706612
     9  O    6.749990   5.498913   5.309403   4.401020   4.848700
    10  O    5.765850   4.925576   4.998751   3.670662   3.624513
    11  H    1.099587   2.167965   3.000136   3.463265   3.834127
    12  H    1.097569   2.171140   3.782660   2.748237   2.645513
    13  H    1.097115   2.177659   3.009720   2.788073   2.766707
    14  H    2.151927   1.101929   2.422465   2.139378   3.071517
    15  H    2.660316   2.412261   1.365143   3.680482   4.507256
    16  H    4.114612   2.624562   2.787054   2.089055   3.186815
    17  H    4.907356   4.031940   4.952011   2.531529   2.328165
    18  H    5.742904   4.500536   5.106666   3.267256   3.658239
    19  H    6.572957   5.738567   5.577363   4.574749   4.565196
                    6          7          8          9         10
     6  N    0.000000
     7  C    1.452105   0.000000
     8  C    2.442993   1.505482   0.000000
     9  O    3.215932   2.397442   1.227971   0.000000
    10  O    3.138116   2.411211   1.353298   2.267464   0.000000
    11  H    4.628712   5.925616   6.725175   7.583175   6.728081
    12  H    4.081298   5.119843   6.120977   7.138886   6.092976
    13  H    4.079407   5.136167   5.730485   6.720967   5.438066
    14  H    2.786500   4.156569   5.194609   5.898108   5.655138
    15  H    4.320284   5.691538   6.078404   6.650407   6.156423
    16  H    1.020157   2.141974   2.869364   3.291773   3.741489
    17  H    2.069488   1.098024   2.157853   3.227642   2.565473
    18  H    2.098928   1.096436   2.111401   2.535189   3.269339
    19  H    3.990849   3.266257   1.934942   2.373923   0.981535
                   11         12         13         14         15
    11  H    0.000000
    12  H    1.780849   0.000000
    13  H    1.787378   1.780672   0.000000
    14  H    2.472061   2.496883   3.073361   0.000000
    15  H    2.373554   3.726972   2.835091   2.889315   0.000000
    16  H    4.765314   4.546195   4.508451   2.711817   4.081364
    17  H    5.933106   4.843011   4.987779   4.409134   6.082066
    18  H    6.618147   5.805870   6.030967   4.574093   6.383615
    19  H    7.494805   6.970633   6.170240   6.493738   6.718763
                   16         17         18         19
    16  H    0.000000
    17  H    2.983472   0.000000
    18  H    2.449367   1.789327   0.000000
    19  H    4.462411   3.498819   3.999918   0.000000
 Stoichiometry    C5H9NO3S
 Framework group  C1[X(C5H9NO3S)]
 Deg. of freedom    51
 Full point group                 C1      NOp   1
 RotChk:  IX=0 Diff= 3.03D-02
 Largest Abelian subgroup         C1      NOp   1
 Largest concise Abelian subgroup C1      NOp   1
                         Standard orientation:                         
 ---------------------------------------------------------------------
 Center     Atomic      Atomic             Coordinates (Angstroms)
 Number     Number       Type             X           Y           Z
 ---------------------------------------------------------------------
      1          6           0       -3.062169   -0.924700    0.378952
      2          6           0       -2.014803   -0.128864   -0.403622
      3         16           0       -1.905640    1.624618    0.176569
      4          6           0       -0.647156   -0.773065   -0.293069
      5          8           0       -0.478272   -1.851355    0.280914
      6          7           0        0.417407   -0.111199   -0.892362
      7          6           0        1.765868   -0.648302   -0.850134
      8          6           0        2.641509    0.140662    0.086490
      9          8           0        3.352302    1.063571   -0.302002
     10          8           0        2.573569   -0.237031    1.384237
     11          1           0       -4.054070   -0.468172    0.249317
     12          1           0       -3.107921   -1.958114    0.012049
     13          1           0       -2.817670   -0.946262    1.448259
     14          1           0       -2.309569   -0.110223   -1.465231
     15          1           0       -3.206303    1.724162    0.579040
     16          1           0        0.251894    0.775065   -1.369710
     17          1           0        1.697136   -1.697626   -0.534142
     18          1           0        2.222293   -0.599778   -1.845871
     19          1           0        3.212315    0.269585    1.930821
 ---------------------------------------------------------------------
 Rotational constants (GHZ):           1.8985969           0.6042940           0.5283735
 Leave Link  202 at Fri Mar 14 15:11:36 2025, MaxMem=  8589934592 cpu:               0.5 elap:               0.2
 (Enter /home/enzo/gaussian_versions/gdv.j21/gdv/l301.exe)
 Standard basis: 6-31G(d) (6D, 7F)
 Ernie: Thresh=  0.10000D-02 Tol=  0.10000D-05 Strict=F.
 There are   172 symmetry adapted cartesian basis functions of A   symmetry.
 There are   172 symmetry adapted basis functions of A   symmetry.
   172 basis functions,   340 primitive gaussians,   172 cartesian basis functions
    43 alpha electrons       43 beta electrons
       nuclear repulsion energy       621.9493858354 Hartrees.
 IExCor=      4002 DFT=T Ex+Corr=B3LYP ScaHFX=  0.200000
 ScaDFX=  0.800000  0.720000  1.000000  0.810000  1.000000  0.000000
 ScaDFX=  0.000000  0.000000  0.000000  0.000000  0.000000  0.000000
 IRadAn=      5 IRanWt=     -1 IRanGd=            0 ICorTp=0 IEmpDi=  4
 NAtoms=   19 NActive=   19 NUniq=   19 SFac= 1.00D+00 NAtFMM=   60 NAOKFM=F Big=F
 Integral buffers will be    131072 words long.
 Raffenetti 2 integral format.
 Two-electron integral symmetry is turned on.
 Leave Link  301 at Fri Mar 14 15:11:37 2025, MaxMem=  8589934592 cpu:               0.4 elap:               0.2
 (Enter /home/enzo/gaussian_versions/gdv.j21/gdv/l302.exe)
 NPDir=0 NMtPBC=     1 NCelOv=     1 NCel=       1 NClECP=     1 NCelD=      1
         NCelK=      1 NCelE2=     1 NClLst=     1 CellRange=     0.0.
 One-electron integrals computed using PRISM.
 One-electron integral symmetry used in STVInt
 NBasis=   172 RedAO= T EigKep=  3.19D-03  NBF=   172
 NBsUse=   172 1.00D-06 EigRej= -1.00D+00 NBFU=   172
 Precomputing XC quadrature grid using
 IXCGrd= 4 IRadAn=           5 IRanWt=          -1 IRanGd=           0 AccXCQ= 0.00D+00.
 Generated NRdTot=       0 NPtTot=      407939 NUsed=           0 NTot=          64
 NSgBfM=   172   172   172   172   172 MxSgAt=    19 MxSgA2=    19 SizInc=   0.000
 NMBTot=     3491 MaxBatPerAtom=       85 MaxMicBPerAtom=      207 NBfPt=            50843826.
 Leave Link  302 at Fri Mar 14 15:11:37 2025, MaxMem=  8589934592 cpu:               3.9 elap:               0.7
 (Enter /home/enzo/gaussian_versions/gdv.j21/gdv/l303.exe)
 DipDrv:  MaxL=1.
 Leave Link  303 at Fri Mar 14 15:11:37 2025, MaxMem=  8589934592 cpu:               0.6 elap:               0.2
 (Enter /home/enzo/gaussian_versions/gdv.j21/gdv/l401.exe)
 Initial guess from the checkpoint file:  "/local/home/enzo/scratch/Gau-2337652.chk"
 B after Tr=    -0.000000    0.000000   -0.000000
         Rot=    0.999970    0.005340    0.000374    0.005533 Ang=   0.88 deg.
 AO Guess basis will be translated and rotated to current coordinates.
 JPrj=2 DoOrth=T DoCkMO=T.
 Generating alternative initial guess.
 ExpMin= 1.17D-01 ExpMax= 2.19D+04 ExpMxC= 3.30D+03 IAcc=3 IRadAn=         5 AccDes= 0.00D+00
 Harris functional with IExCor= 4002 and IRadAn=       5 diagonalized for initial guess.
 HarFok:  IExCor=    4002 AccDes= 0.00D+00 IRadAn=         5 IDoV= 1 UseB2=F ITyADJ=14 ICtDFT=  3500011
 FoFCou: FMM=F IPFlag=           0 FMFlag=      100000 FMFlg1=           0
         NFxFlg=           0 DoJE=T BraDBF=F KetDBF=T FulRan=T
         wScrn=  0.000000 ICntrl=       500 IOpCl=  0 I1Cent=   200000004 NGrid=           0
         NMat0=    1 NMatS0=      1 NMatT0=    0 NMatD0=    1 NMtDS0=    0 NMtDT0=    0
 Petite list used in FoFCou.
 Harris En= -874.539891227266    
 Leave Link  401 at Fri Mar 14 15:11:39 2025, MaxMem=  8589934592 cpu:               9.5 elap:               1.7
 (Enter /home/enzo/gaussian_versions/gdv.j21/gdv/l502.exe)
 Integral symmetry usage will be decided dynamically.
 Closed shell SCF:
 Using DIIS extrapolation, IDIIS=  1040.
 NGot=  8589934592 LenX=  8589843591 LenY=  8589813566
 Requested convergence on RMS density matrix=1.00D-08 within 128 cycles.
 Requested convergence on MAX density matrix=1.00D-06.
 Requested convergence on             energy=1.00D-06.
 No special actions if energy rises.
 Fock matrices will be formed incrementally for  20 cycles.
 Integral accuracy reduced to 1.0D-05 until final iterations.

 Cycle   1  Pass 0  IDiag  1:
 FoFJK:  IHMeth= 1 ICntrl=       0 DoSepK=F KAlg= 0 I1Cent=           0 FoldK=F
 IRaf= 900000000 NMat=       1 IRICut=       1 DoRegI=T DoRafI=F ISym2E= 0 IDoP0=0 IntGTp=1.
 FoFCou: FMM=F IPFlag=           0 FMFlag=      100000 FMFlg1=           0
         NFxFlg=           0 DoJE=F BraDBF=F KetDBF=F FulRan=T
         wScrn=  0.000000 ICntrl=         0 IOpCl=  0 I1Cent=           0 NGrid=           0
         NMat0=    1 NMatS0=      1 NMatT0=    0 NMatD0=    1 NMtDS0=    0 NMtDT0=    0
 Symmetry not used in FoFCou.
 E= -874.566149783415    
 DIIS: error= 4.91D-03 at cycle   1 NSaved=   1.
 NSaved= 1 IEnMin= 1 EnMin= -874.566149783415     IErMin= 1 ErrMin= 4.91D-03
 ErrMax= 4.91D-03  0.00D+00 EMaxC= 1.00D-01 BMatC= 5.74D-03 BMatP= 5.74D-03
 IDIUse=3 WtCom= 9.51D-01 WtEn= 4.91D-02
 Coeff-Com:  0.100D+01
 Coeff-En:   0.100D+01
 Coeff:      0.100D+01
 Gap=     1.641 Goal=   None    Shift=    0.000
 GapD=    1.641 DampG=2.000 DampE=1.000 DampFc=2.0000 IDamp=-1.
 RMSDP=7.97D-04 MaxDP=1.60D-02              OVMax= 2.11D-02

 Cycle   2  Pass 0  IDiag  1:
 RMSU=  7.96D-04    CP:  1.00D+00
 E= -874.574142924398     Delta-E=       -0.007993140983 Rises=F Damp=F
 DIIS: error= 1.80D-03 at cycle   2 NSaved=   2.
 NSaved= 2 IEnMin= 2 EnMin= -874.574142924398     IErMin= 2 ErrMin= 1.80D-03
 ErrMax= 1.80D-03  0.00D+00 EMaxC= 1.00D-01 BMatC= 8.98D-04 BMatP= 5.74D-03
 IDIUse=3 WtCom= 9.82D-01 WtEn= 1.80D-02
 Coeff-Com:  0.186D+00 0.814D+00
 Coeff-En:   0.000D+00 0.100D+01
 Coeff:      0.183D+00 0.817D+00
 Gap=     0.235 Goal=   None    Shift=    0.000
 RMSDP=3.02D-04 MaxDP=9.04D-03 DE=-7.99D-03 OVMax= 1.25D-02

 Cycle   3  Pass 0  IDiag  1:
 RMSU=  3.01D-04    CP:  9.99D-01  9.65D-01
 E= -874.574155825641     Delta-E=       -0.000012901244 Rises=F Damp=F
 DIIS: error= 1.87D-03 at cycle   3 NSaved=   3.
 NSaved= 3 IEnMin= 3 EnMin= -874.574155825641     IErMin= 2 ErrMin= 1.80D-03
 ErrMax= 1.87D-03  0.00D+00 EMaxC= 1.00D-01 BMatC= 9.55D-04 BMatP= 8.98D-04
 IDIUse=3 WtCom= 9.81D-01 WtEn= 1.87D-02
 Coeff-Com:  0.371D-02 0.508D+00 0.489D+00
 Coeff-En:   0.000D+00 0.496D+00 0.504D+00
 Coeff:      0.364D-02 0.507D+00 0.489D+00
 Gap=     0.233 Goal=   None    Shift=    0.000
 RMSDP=1.70D-04 MaxDP=6.50D-03 DE=-1.29D-05 OVMax= 1.07D-02

 Cycle   4  Pass 0  IDiag  1:
 RMSU=  8.46D-05    CP:  9.99D-01  1.02D+00  5.37D-01
 E= -874.574815124674     Delta-E=       -0.000659299033 Rises=F Damp=F
 DIIS: error= 7.21D-04 at cycle   4 NSaved=   4.
 NSaved= 4 IEnMin= 4 EnMin= -874.574815124674     IErMin= 4 ErrMin= 7.21D-04
 ErrMax= 7.21D-04  0.00D+00 EMaxC= 1.00D-01 BMatC= 1.05D-04 BMatP= 8.98D-04
 IDIUse=3 WtCom= 9.93D-01 WtEn= 7.21D-03
 Coeff-Com: -0.166D-01 0.249D+00 0.315D+00 0.452D+00
 Coeff-En:   0.000D+00 0.000D+00 0.464D-01 0.954D+00
 Coeff:     -0.165D-01 0.247D+00 0.314D+00 0.456D+00
 Gap=     0.232 Goal=   None    Shift=    0.000
 RMSDP=5.28D-05 MaxDP=1.80D-03 DE=-6.59D-04 OVMax= 4.04D-03

 Cycle   5  Pass 0  IDiag  1:
 RMSU=  3.17D-05    CP:  9.99D-01  1.02D+00  5.80D-01  5.30D-01
 E= -874.574892537971     Delta-E=       -0.000077413297 Rises=F Damp=F
 DIIS: error= 1.77D-04 at cycle   5 NSaved=   5.
 NSaved= 5 IEnMin= 5 EnMin= -874.574892537971     IErMin= 5 ErrMin= 1.77D-04
 ErrMax= 1.77D-04  0.00D+00 EMaxC= 1.00D-01 BMatC= 7.63D-06 BMatP= 1.05D-04
 IDIUse=3 WtCom= 9.98D-01 WtEn= 1.77D-03
 EnCoef did     1 forward-backward iterations
 Coeff-Com: -0.937D-02 0.965D-01 0.137D+00 0.272D+00 0.504D+00
 Coeff-En:   0.000D+00 0.000D+00 0.000D+00 0.405D-02 0.996D+00
 Coeff:     -0.935D-02 0.963D-01 0.137D+00 0.271D+00 0.505D+00
 Gap=     0.232 Goal=   None    Shift=    0.000
 RMSDP=1.54D-05 MaxDP=4.03D-04 DE=-7.74D-05 OVMax= 9.48D-04

 Cycle   6  Pass 0  IDiag  1:
 RMSU=  1.06D-05    CP:  9.99D-01  1.03D+00  5.82D-01  5.82D-01  6.80D-01
 E= -874.574898347306     Delta-E=       -0.000005809335 Rises=F Damp=F
 DIIS: error= 3.31D-05 at cycle   6 NSaved=   6.
 NSaved= 6 IEnMin= 6 EnMin= -874.574898347306     IErMin= 6 ErrMin= 3.31D-05
 ErrMax= 3.31D-05  0.00D+00 EMaxC= 1.00D-01 BMatC= 4.73D-07 BMatP= 7.63D-06
 IDIUse=1 WtCom= 1.00D+00 WtEn= 0.00D+00
 Coeff-Com: -0.282D-02 0.195D-01 0.322D-01 0.848D-01 0.257D+00 0.609D+00
 Coeff:     -0.282D-02 0.195D-01 0.322D-01 0.848D-01 0.257D+00 0.609D+00
 Gap=     0.232 Goal=   None    Shift=    0.000
 RMSDP=4.48D-06 MaxDP=9.13D-05 DE=-5.81D-06 OVMax= 1.40D-04

 Initial convergence to 1.0D-05 achieved.  Increase integral accuracy.
 Cycle   7  Pass 1  IDiag  1:
 E= -874.574879734007     Delta-E=        0.000018613299 Rises=F Damp=F
 DIIS: error= 1.29D-05 at cycle   1 NSaved=   1.
 NSaved= 1 IEnMin= 1 EnMin= -874.574879734007     IErMin= 1 ErrMin= 1.29D-05
 ErrMax= 1.29D-05  0.00D+00 EMaxC= 1.00D-01 BMatC= 3.85D-08 BMatP= 3.85D-08
 IDIUse=1 WtCom= 1.00D+00 WtEn= 0.00D+00
 Coeff-Com:  0.100D+01
 Coeff:      0.100D+01
 Gap=     0.232 Goal=   None    Shift=    0.000
 RMSDP=4.48D-06 MaxDP=9.13D-05 DE= 1.86D-05 OVMax= 8.07D-05

 Cycle   8  Pass 1  IDiag  1:
 RMSU=  4.17D-06    CP:  1.00D+00
 E= -874.574879740901     Delta-E=       -0.000000006894 Rises=F Damp=F
 DIIS: error= 8.36D-06 at cycle   2 NSaved=   2.
 NSaved= 2 IEnMin= 2 EnMin= -874.574879740901     IErMin= 2 ErrMin= 8.36D-06
 ErrMax= 8.36D-06  0.00D+00 EMaxC= 1.00D-01 BMatC= 3.21D-08 BMatP= 3.85D-08
 IDIUse=1 WtCom= 1.00D+00 WtEn= 0.00D+00
 Coeff-Com:  0.472D+00 0.528D+00
 Coeff:      0.472D+00 0.528D+00
 Gap=     0.232 Goal=   None    Shift=    0.000
 RMSDP=1.42D-06 MaxDP=3.74D-05 DE=-6.89D-09 OVMax= 6.23D-05

 Cycle   9  Pass 1  IDiag  1:
 RMSU=  1.28D-06    CP:  1.00D+00  8.52D-01
 E= -874.574879767863     Delta-E=       -0.000000026962 Rises=F Damp=F
 DIIS: error= 3.99D-06 at cycle   3 NSaved=   3.
 NSaved= 3 IEnMin= 3 EnMin= -874.574879767863     IErMin= 3 ErrMin= 3.99D-06
 ErrMax= 3.99D-06  0.00D+00 EMaxC= 1.00D-01 BMatC= 4.46D-09 BMatP= 3.21D-08
 IDIUse=1 WtCom= 1.00D+00 WtEn= 0.00D+00
 Coeff-Com:  0.900D-01 0.276D+00 0.634D+00
 Coeff:      0.900D-01 0.276D+00 0.634D+00
 Gap=     0.232 Goal=   None    Shift=    0.000
 RMSDP=4.92D-07 MaxDP=1.83D-05 DE=-2.70D-08 OVMax= 3.03D-05

 Cycle  10  Pass 1  IDiag  1:
 RMSU=  3.45D-07    CP:  1.00D+00  8.92D-01  7.61D-01
 E= -874.574879770775     Delta-E=       -0.000000002912 Rises=F Damp=F
 DIIS: error= 2.88D-06 at cycle   4 NSaved=   4.
 NSaved= 4 IEnMin= 4 EnMin= -874.574879770775     IErMin= 4 ErrMin= 2.88D-06
 ErrMax= 2.88D-06  0.00D+00 EMaxC= 1.00D-01 BMatC= 1.35D-09 BMatP= 4.46D-09
 IDIUse=1 WtCom= 1.00D+00 WtEn= 0.00D+00
 Coeff-Com:  0.565D-02 0.125D+00 0.424D+00 0.445D+00
 Coeff:      0.565D-02 0.125D+00 0.424D+00 0.445D+00
 Gap=     0.232 Goal=   None    Shift=    0.000
 RMSDP=2.08D-07 MaxDP=6.68D-06 DE=-2.91D-09 OVMax= 1.00D-05

 Cycle  11  Pass 1  IDiag  1:
 RMSU=  1.07D-07    CP:  1.00D+00  8.94D-01  8.04D-01  5.10D-01
 E= -874.574879771821     Delta-E=       -0.000000001046 Rises=F Damp=F
 DIIS: error= 6.92D-07 at cycle   5 NSaved=   5.
 NSaved= 5 IEnMin= 5 EnMin= -874.574879771821     IErMin= 5 ErrMin= 6.92D-07
 ErrMax= 6.92D-07  0.00D+00 EMaxC= 1.00D-01 BMatC= 9.19D-11 BMatP= 1.35D-09
 IDIUse=1 WtCom= 1.00D+00 WtEn= 0.00D+00
 Coeff-Com: -0.258D-02 0.589D-01 0.222D+00 0.282D+00 0.440D+00
 Coeff:     -0.258D-02 0.589D-01 0.222D+00 0.282D+00 0.440D+00
 Gap=     0.232 Goal=   None    Shift=    0.000
 RMSDP=5.75D-08 MaxDP=1.89D-06 DE=-1.05D-09 OVMax= 2.15D-06

 Cycle  12  Pass 1  IDiag  1:
 RMSU=  3.87D-08    CP:  1.00D+00  8.96D-01  7.96D-01  5.24D-01  6.29D-01
 E= -874.574879771879     Delta-E=       -0.000000000058 Rises=F Damp=F
 DIIS: error= 8.85D-08 at cycle   6 NSaved=   6.
 NSaved= 6 IEnMin= 6 EnMin= -874.574879771879     IErMin= 6 ErrMin= 8.85D-08
 ErrMax= 8.85D-08  0.00D+00 EMaxC= 1.00D-01 BMatC= 3.64D-12 BMatP= 9.19D-11
 IDIUse=1 WtCom= 1.00D+00 WtEn= 0.00D+00
 Coeff-Com: -0.196D-02 0.165D-01 0.686D-01 0.969D-01 0.217D+00 0.603D+00
 Coeff:     -0.196D-02 0.165D-01 0.686D-01 0.969D-01 0.217D+00 0.603D+00
 Gap=     0.232 Goal=   None    Shift=    0.000
 RMSDP=1.27D-08 MaxDP=3.47D-07 DE=-5.82D-11 OVMax= 3.86D-07

 Cycle  13  Pass 1  IDiag  1:
 RMSU=  1.02D-08    CP:  1.00D+00  8.97D-01  7.98D-01  5.27D-01  6.87D-01
                    CP:  9.15D-01
 E= -874.574879771891     Delta-E=       -0.000000000011 Rises=F Damp=F
 DIIS: error= 2.18D-08 at cycle   7 NSaved=   7.
 NSaved= 7 IEnMin= 7 EnMin= -874.574879771891     IErMin= 7 ErrMin= 2.18D-08
 ErrMax= 2.18D-08  0.00D+00 EMaxC= 1.00D-01 BMatC= 1.59D-13 BMatP= 3.64D-12
 IDIUse=1 WtCom= 1.00D+00 WtEn= 0.00D+00
 Coeff-Com: -0.326D-03-0.942D-03-0.568D-03 0.117D-02 0.208D-01 0.179D+00
 Coeff-Com:  0.801D+00
 Coeff:     -0.326D-03-0.942D-03-0.568D-03 0.117D-02 0.208D-01 0.179D+00
 Coeff:      0.801D+00
 Gap=     0.232 Goal=   None    Shift=    0.000
 RMSDP=4.43D-09 MaxDP=1.27D-07 DE=-1.14D-11 OVMax= 2.09D-07

 SCF Done:  E(RB3LYP) =  -874.574879772     A.U. after   13 cycles
            NFock= 13  Conv=0.44D-08     -V/T= 2.0066
 KE= 8.688412209621D+02 PE=-3.303664217295D+03 EE= 9.382987307256D+02
 Leave Link  502 at Fri Mar 14 15:11:52 2025, MaxMem=  8589934592 cpu:              88.2 elap:              12.3
 (Enter /home/enzo/gaussian_versions/gdv.j21/gdv/l701.exe)
 ... and contract with generalized density number  0.
 Compute integral first derivatives.
 Leave Link  701 at Fri Mar 14 15:11:52 2025, MaxMem=  8589934592 cpu:               1.2 elap:               0.3
 (Enter /home/enzo/gaussian_versions/gdv.j21/gdv/l702.exe)
 L702 exits ... SP integral derivatives will be done elsewhere.
 Leave Link  702 at Fri Mar 14 15:11:52 2025, MaxMem=  8589934592 cpu:               0.2 elap:               0.2
 (Enter /home/enzo/gaussian_versions/gdv.j21/gdv/l703.exe)
 Integral derivatives from FoFJK, PRISM(SPDF).
 Compute integral first derivatives, UseDBF=F ICtDFT=           0.
 Calling FoFJK, ICntrl=      2127 FMM=F ISym2X=0 I1Cent= 0 IOpClX= 0 NMat=1 NMatS=1 NMatT=0.
 FoFJK:  IHMeth= 1 ICntrl=    2127 DoSepK=F KAlg= 0 I1Cent=           0 FoldK=F
 IRaf=         0 NMat=       1 IRICut=       1 DoRegI=T DoRafI=F ISym2E= 0 IDoP0=0 IntGTp=1.
 FoFCou: FMM=F IPFlag=           0 FMFlag=      100000 FMFlg1=         800
         NFxFlg=           0 DoJE=F BraDBF=F KetDBF=F FulRan=T
         wScrn=  0.000000 ICntrl=      2127 IOpCl=  0 I1Cent=           0 NGrid=           0
         NMat0=    1 NMatS0=      1 NMatT0=    0 NMatD0=    1 NMtDS0=    0 NMtDT0=    0
 Symmetry not used in FoFCou.
 Leave Link  703 at Fri Mar 14 15:11:54 2025, MaxMem=  8589934592 cpu:              13.9 elap:               1.6
 (Enter /home/enzo/gaussian_versions/gdv.j21/gdv/l716.exe)
 Dipole        =-6.12868175D-01 1.02020117D-01-3.42336016D-01
 ***** Axes restored to original set *****
 -------------------------------------------------------------------
 Center     Atomic                   Forces (Hartrees/Bohr)
 Number     Number              X              Y              Z
 -------------------------------------------------------------------
      1        6           0.002234030    0.000462595    0.001313766
      2        6           0.011162871    0.001937722   -0.004689577
      3       16           0.005632227   -0.005431666    0.005911217
      4        6          -0.025848611    0.015755029    0.004968388
      5        8           0.005487974   -0.013820585   -0.007274616
      6        7           0.018320399   -0.000297996    0.000407234
      7        6           0.005153451    0.010321548   -0.002771485
      8        6          -0.027921152   -0.029977757    0.003753125
      9        8           0.011805355    0.017364282    0.008165606
     10        8           0.003063122    0.007564280   -0.002006855
     11        1          -0.002495834    0.001228631    0.000206546
     12        1          -0.001172540   -0.002574727    0.001346731
     13        1           0.000402939    0.000631416   -0.002963237
     14        1          -0.002401890   -0.000489509    0.002231439
     15        1          -0.007165449   -0.000500331   -0.004146268
     16        1          -0.003185540    0.005858758    0.003409442
     17        1           0.001809846   -0.004304555   -0.000045935
     18        1           0.000693197   -0.001108208    0.002324745
     19        1           0.004425604   -0.002618926   -0.010140265
 -------------------------------------------------------------------
 Cartesian Forces:  Max     0.029977757 RMS     0.008921448
 Leave Link  716 at Fri Mar 14 15:11:54 2025, MaxMem=  8589934592 cpu:               0.3 elap:               0.3
 (Enter /home/enzo/gaussian_versions/gdv.j21/gdv/l103.exe)

 GradGradGradGradGradGradGradGradGradGradGradGradGradGradGradGradGradGrad
 Berny optimization.
 Using GEDIIS/GDIIS optimizer.
 FormGI is forming the generalized inverse of G from B-inverse, IUseBI=4.
 Internal  Forces:  Max     0.022467162 RMS     0.005008314
 Search for a local minimum.
 Step number   2 out of a maximum of   93
 All quantities printed in internal units (Hartrees-Bohrs-Radians)
 RMS Force = .50083D-02 SwitMx=.10000D-02 MixMth= 1
 Mixed Optimization -- RFO/linear search
 Update second derivatives using D2CorX and points    1    2
 DE= -2.54D-02 DEPred=-2.52D-02 R= 1.01D+00
 TightC=F SS=  1.41D+00  RLast= 3.19D-01 DXNew= 5.0454D-01 9.5674D-01
 Trust test= 1.01D+00 RLast= 3.19D-01 DXMaxT set to 5.05D-01
 ITU=  1  0
 Use linear search instead of GDIIS.
     Eigenvalues ---    0.00230   0.00449   0.00746   0.00859   0.00909
     Eigenvalues ---    0.00957   0.01057   0.01114   0.01276   0.01838
     Eigenvalues ---    0.04934   0.05315   0.05329   0.05640   0.05744
     Eigenvalues ---    0.06702   0.07766   0.09808   0.13253   0.15681
     Eigenvalues ---    0.16000   0.16000   0.16000   0.16000   0.16723
     Eigenvalues ---    0.17920   0.20000   0.21621   0.22012   0.22115
     Eigenvalues ---    0.23741   0.24764   0.24998   0.25000   0.26203
     Eigenvalues ---    0.30092   0.31784   0.32512   0.32582   0.32596
     Eigenvalues ---    0.32609   0.32647   0.32694   0.33149   0.37139
     Eigenvalues ---    0.40658   0.40751   0.46129   0.48425   0.76754
     Eigenvalues ---    0.80237
 RFO step:  Lambda=-3.01886517D-03 EMin= 2.30069537D-03
 Quartic linear search produced a step of  0.40623.
 Iteration  1 RMS(Cart)=  0.07155443 RMS(Int)=  0.01197441
 Iteration  2 RMS(Cart)=  0.01516553 RMS(Int)=  0.00046630
 Iteration  3 RMS(Cart)=  0.00047812 RMS(Int)=  0.00013769
 Iteration  4 RMS(Cart)=  0.00000045 RMS(Int)=  0.00013769
 Variable       Old X    -DE/DX   Delta X   Delta X   Delta X     New X
                                 (Linear)    (Quad)   (Total)
    R1        2.89243  -0.00088   0.00512  -0.01138  -0.00625   2.88617
    R2        2.07792  -0.00279  -0.00760  -0.00120  -0.00880   2.06912
    R3        2.07410  -0.00292  -0.00947   0.00084  -0.00863   2.06548
    R4        2.07325  -0.00295  -0.00995   0.00138  -0.00856   2.06468
    R5        3.49637   0.00624   0.02430  -0.00118   0.02312   3.51949
    R6        2.86446   0.00763   0.01101   0.01742   0.02844   2.89290
    R7        2.08234  -0.00278  -0.00627  -0.00308  -0.00935   2.07300
    R8        2.57975  -0.00805  -0.03148  -0.00279  -0.03427   2.54548
    R9        2.33034  -0.01627  -0.02010  -0.00351  -0.02360   2.30674
   R10        2.62564  -0.01341  -0.03223  -0.00232  -0.03456   2.59108
   R11        2.74408  -0.00008  -0.00542   0.00711   0.00169   2.74577
   R12        1.92782  -0.00723  -0.01887   0.00068  -0.01819   1.90963
   R13        2.84495   0.00880   0.00962   0.02348   0.03310   2.87805
   R14        2.07497  -0.00408  -0.00948  -0.00410  -0.01358   2.06138
   R15        2.07196  -0.00232  -0.01033   0.00462  -0.00571   2.06625
   R16        2.32053  -0.02247  -0.02256  -0.01096  -0.03352   2.28700
   R17        2.55736  -0.00976  -0.02705   0.00704  -0.02001   2.53735
   R18        1.85483  -0.00726  -0.02336   0.00881  -0.01455   1.84028
    A1        1.91890   0.00041   0.00040   0.00600   0.00639   1.92529
    A2        1.92534  -0.00100   0.00163  -0.01362  -0.01200   1.91334
    A3        1.93483   0.00029   0.00106  -0.00020   0.00082   1.93565
    A4        1.89009   0.00050  -0.00034   0.00673   0.00642   1.89651
    A5        1.90085   0.00011   0.00099   0.00350   0.00446   1.90531
    A6        1.89294  -0.00030  -0.00382  -0.00216  -0.00603   1.88691
    A7        1.95283   0.00150   0.01379  -0.00883   0.00496   1.95779
    A8        1.93814   0.00079   0.00340   0.00076   0.00421   1.94235
    A9        1.89476   0.00085   0.00137   0.01638   0.01775   1.91251
   A10        1.90357  -0.00158  -0.00760  -0.00368  -0.01146   1.89211
   A11        1.87744  -0.00033  -0.00172  -0.00251  -0.00463   1.87281
   A12        1.89527  -0.00134  -0.00963  -0.00197  -0.01176   1.88351
   A13        1.67634   0.00064   0.02088  -0.02958  -0.00870   1.66764
   A14        2.12837   0.00131   0.01613  -0.01699  -0.00116   2.12721
   A15        2.04586  -0.00941  -0.02160  -0.02039  -0.04232   2.00354
   A16        2.10873   0.00809   0.00540   0.03655   0.04158   2.15031
   A17        2.12089   0.00219   0.00134   0.01171   0.01300   2.13389
   A18        2.08444   0.00066   0.00414   0.00117   0.00526   2.08969
   A19        2.07785  -0.00286  -0.00549  -0.01296  -0.01850   2.05935
   A20        1.94376   0.00072   0.00511  -0.00584  -0.00073   1.94302
   A21        1.87939  -0.00190  -0.01323   0.00125  -0.01200   1.86738
   A22        1.92175   0.00032   0.00439  -0.00420   0.00022   1.92197
   A23        1.93712   0.00094   0.01047  -0.01022   0.00028   1.93739
   A24        1.87516  -0.00119  -0.01202   0.01107  -0.00093   1.87424
   A25        1.90678   0.00117   0.00550   0.00806   0.01363   1.92042
   A26        2.13378   0.00715   0.01543   0.01679   0.03213   2.16591
   A27        2.00550  -0.01063  -0.03512  -0.00675  -0.04196   1.96354
   A28        2.14385   0.00347   0.01975  -0.01003   0.00963   2.15348
   A29        1.93616  -0.01525  -0.07026  -0.01316  -0.08342   1.85274
    D1        1.05468   0.00067   0.00304   0.00628   0.00934   1.06402
    D2       -3.09696   0.00027   0.00518  -0.00415   0.00107  -3.09588
    D3       -1.01458  -0.00037  -0.00373   0.00420   0.00045  -1.01412
    D4        3.13804   0.00092   0.00389   0.00987   0.01373  -3.13141
    D5       -1.01360   0.00051   0.00603  -0.00057   0.00547  -1.00813
    D6        1.06878  -0.00012  -0.00288   0.00778   0.00485   1.07363
    D7       -1.04807   0.00008   0.00087  -0.00189  -0.00102  -1.04909
    D8        1.08348  -0.00032   0.00301  -0.01233  -0.00928   1.07420
    D9       -3.11733  -0.00095  -0.00590  -0.00398  -0.00990  -3.12723
   D10       -0.51280  -0.00197  -0.01189  -0.24152  -0.25345  -0.76624
   D11       -2.66401  -0.00287  -0.02020  -0.23391  -0.25402  -2.91803
   D12        1.56672  -0.00025  -0.00339  -0.22819  -0.23164   1.33508
   D13        0.08690  -0.00015  -0.00393   0.00128  -0.00289   0.08401
   D14       -3.07748  -0.00085  -0.00889  -0.03937  -0.04801  -3.12550
   D15        2.24684   0.00118   0.01055  -0.01193  -0.00176   2.24508
   D16       -0.91754   0.00049   0.00560  -0.05258  -0.04689  -0.96443
   D17       -1.99518  -0.00083  -0.00162  -0.01806  -0.01978  -2.01496
   D18        1.12363  -0.00153  -0.00657  -0.05871  -0.06491   1.05872
   D19       -3.13542  -0.00017  -0.00181  -0.00199  -0.00354  -3.13895
   D20        0.01170   0.00018   0.00074   0.01455   0.01572   0.02741
   D21       -0.01634  -0.00095  -0.00664  -0.04289  -0.04995  -0.06628
   D22        3.13078  -0.00060  -0.00409  -0.02635  -0.03069   3.10008
   D23       -1.87324  -0.00059  -0.00657  -0.00654  -0.01315  -1.88639
   D24        0.25430  -0.00023   0.00098  -0.02200  -0.02108   0.23322
   D25        2.33170   0.00023   0.00231  -0.01391  -0.01167   2.32003
   D26        1.26286  -0.00093  -0.00911  -0.02298  -0.03202   1.23084
   D27       -2.89279  -0.00058  -0.00156  -0.03844  -0.03995  -2.93274
   D28       -0.81539  -0.00011  -0.00024  -0.03034  -0.03054  -0.84592
   D29       -1.64178  -0.00004   0.00455  -0.01650  -0.01190  -1.65369
   D30        1.48906  -0.00106  -0.00893  -0.01566  -0.02457   1.46450
   D31        2.54768   0.00125   0.01088  -0.00731   0.00354   2.55122
   D32       -0.60466   0.00023  -0.00260  -0.00647  -0.00912  -0.61378
   D33        0.46404   0.00002   0.00538  -0.01805  -0.01266   0.45138
   D34       -2.68830  -0.00099  -0.00810  -0.01722  -0.02532  -2.71362
   D35        3.07037   0.00310   0.01971   0.10053   0.12020  -3.09262
   D36       -0.08204   0.00210   0.00620   0.10156   0.10779   0.02576
         Item               Value     Threshold  Converged?
 Maximum Force            0.022467     0.000450     NO 
 RMS     Force            0.005008     0.000300     NO 
 Maximum Displacement     0.338797     0.001800     NO 
 RMS     Displacement     0.079943     0.001200     NO 
 Predicted change in Energy=-4.993635D-03
 Lowest energy point so far.  Saving SCF results.
 GradGradGradGradGradGradGradGradGradGradGradGradGradGradGradGradGradGrad

 Leave Link  103 at Fri Mar 14 15:11:54 2025, MaxMem=  8589934592 cpu:               0.9 elap:               0.2
 (Enter /home/enzo/gaussian_versions/gdv.j21/gdv/l202.exe)
                          Input orientation:                          
 ---------------------------------------------------------------------
 Center     Atomic      Atomic             Coordinates (Angstroms)
 Number     Number       Type             X           Y           Z
 ---------------------------------------------------------------------
      1          6           0        3.096011    1.025043    0.371141
      2          6           0        2.032291    0.185383   -0.333205
      3         16           0        1.896878   -1.526458    0.387858
      4          6           0        0.656642    0.852608   -0.256256
      5          8           0        0.503896    1.960395    0.233147
      6          7           0       -0.358306    0.147847   -0.850580
      7          6           0       -1.727927    0.632329   -0.875528
      8          6           0       -2.618061   -0.174679    0.060378
      9          8           0       -3.289556   -1.119123   -0.288588
     10          8           0       -2.555989    0.258986    1.329611
     11          1           0        4.080356    0.557061    0.266590
     12          1           0        3.133119    2.021426   -0.076632
     13          1           0        2.863541    1.138168    1.432696
     14          1           0        2.294291    0.073439   -1.392542
     15          1           0        3.224538   -1.738901    0.469230
     16          1           0       -0.165242   -0.750463   -1.271225
     17          1           0       -1.700187    1.682076   -0.580250
     18          1           0       -2.142166    0.537455   -1.882980
     19          1           0       -3.117736   -0.343152    1.849444
 ---------------------------------------------------------------------
                    Distance matrix (angstroms):
                    1          2          3          4          5
     1  C    0.000000
     2  C    1.527296   0.000000
     3  S    2.819282   1.862436   0.000000
     4  C    2.524654   1.530856   2.759170   0.000000
     5  O    2.759163   2.409857   3.757988   1.220672   0.000000
     6  N    3.767543   2.446230   3.069671   1.371141   2.281050
     7  C    4.997878   3.825325   4.404057   2.473497   2.823819
     8  C    5.846924   4.680846   4.724322   3.446630   3.786160
     9  O    6.768173   5.479579   5.246199   4.411491   4.913850
    10  O    5.783651   4.880849   4.889043   3.631579   3.668778
    11  H    1.094931   2.166211   3.020485   3.475994   3.842074
    12  H    1.093003   2.156086   3.785699   2.744328   2.648112
    13  H    1.092584   2.171907   3.020985   2.793655   2.771804
    14  H    2.158445   1.096983   2.426403   2.140127   3.067406
    15  H    2.768669   2.401713   1.347009   3.719723   4.598089
    16  H    4.060241   2.566094   2.758091   2.067726   3.171692
    17  H    4.933594   4.028959   4.916381   2.519451   2.365811
    18  H    5.723399   4.466749   5.072506   3.252518   3.674832
    19  H    6.532074   5.618371   5.355633   4.484390   4.586390
                    6          7          8          9         10
     6  N    0.000000
     7  C    1.452999   0.000000
     8  C    2.457715   1.522998   0.000000
     9  O    3.242419   2.418837   1.210231   0.000000
    10  O    3.097644   2.384892   1.342710   2.248527   0.000000
    11  H    4.595350   5.919987   6.741421   7.578485   6.727551
    12  H    4.037244   5.118358   6.157737   7.152533   6.119613
    13  H    4.071165   5.163850   5.801274   6.776341   5.491347
    14  H    2.708418   4.093641   5.128717   5.815520   5.565049
    15  H    4.258931   5.653142   6.062171   6.587248   6.176270
    16  H    1.010533   2.123835   2.849739   3.295880   3.674100
    17  H    2.056108   1.090838   2.168050   3.233865   2.530841
    18  H    2.097570   1.093414   2.123735   2.569600   3.251082
    19  H    3.891744   3.210702   1.865158   2.280973   0.973836
                   11         12         13         14         15
    11  H    0.000000
    12  H    1.777477   0.000000
    13  H    1.782731   1.769432   0.000000
    14  H    2.485284   2.495978   3.072404   0.000000
    15  H    2.458644   3.800840   3.055505   2.759734   0.000000
    16  H    4.701021   4.470973   4.477906   2.596697   3.936598
    17  H    5.949578   4.871307   5.017510   4.382167   6.087480
    18  H    6.583374   5.770068   6.034208   4.487537   6.286191
    19  H    7.424847   6.955156   6.176056   6.322505   6.639093
                   16         17         18         19
    16  H    0.000000
    17  H    2.958166   0.000000
    18  H    2.437459   1.789583   0.000000
    19  H    4.315287   3.466182   3.957044   0.000000
 Stoichiometry    C5H9NO3S
 Framework group  C1[X(C5H9NO3S)]
 Deg. of freedom    51
 Full point group                 C1      NOp   1
 RotChk:  IX=0 Diff= 9.19D-02
 Largest Abelian subgroup         C1      NOp   1
 Largest concise Abelian subgroup C1      NOp   1
                         Standard orientation:                         
 ---------------------------------------------------------------------
 Center     Atomic      Atomic             Coordinates (Angstroms)
 Number     Number       Type             X           Y           Z
 ---------------------------------------------------------------------
      1          6           0       -3.105854   -0.858140    0.347152
      2          6           0       -2.001909   -0.114782   -0.402085
      3         16           0       -1.827992    1.648731    0.171015
      4          6           0       -0.649738   -0.812893   -0.235368
      5          8           0       -0.542000   -1.877755    0.351574
      6          7           0        0.398951   -0.192827   -0.864491
      7          6           0        1.752946   -0.717687   -0.815225
      8          6           0        2.648229    0.141401    0.067926
      9          8           0        3.356106    1.031640   -0.345649
     10          8           0        2.546172   -0.177834    1.368135
     11          1           0       -4.072664   -0.372335    0.179385
     12          1           0       -3.164818   -1.888274   -0.013406
     13          1           0       -2.899210   -0.884978    1.419680
     14          1           0       -2.238145   -0.088058   -1.472996
     15          1           0       -3.149752    1.906399    0.202489
     16          1           0        0.242928    0.670633   -1.365760
     17          1           0        1.686189   -1.736391   -0.430889
     18          1           0        2.190854   -0.723311   -1.817103
     19          1           0        3.115552    0.450598    1.846920
 ---------------------------------------------------------------------
 Rotational constants (GHZ):           1.8893190           0.6122610           0.5307990
 Leave Link  202 at Fri Mar 14 15:11:54 2025, MaxMem=  8589934592 cpu:               0.3 elap:               0.3
 (Enter /home/enzo/gaussian_versions/gdv.j21/gdv/l301.exe)
 Standard basis: 6-31G(d) (6D, 7F)
 Ernie: Thresh=  0.10000D-02 Tol=  0.10000D-05 Strict=F.
 There are   172 symmetry adapted cartesian basis functions of A   symmetry.
 There are   172 symmetry adapted basis functions of A   symmetry.
   172 basis functions,   340 primitive gaussians,   172 cartesian basis functions
    43 alpha electrons       43 beta electrons
       nuclear repulsion energy       623.5447080134 Hartrees.
 IExCor=      4002 DFT=T Ex+Corr=B3LYP ScaHFX=  0.200000
 ScaDFX=  0.800000  0.720000  1.000000  0.810000  1.000000  0.000000
 ScaDFX=  0.000000  0.000000  0.000000  0.000000  0.000000  0.000000
 IRadAn=      5 IRanWt=     -1 IRanGd=            0 ICorTp=0 IEmpDi=  4
 NAtoms=   19 NActive=   19 NUniq=   19 SFac= 1.00D+00 NAtFMM=   60 NAOKFM=F Big=F
 Integral buffers will be    131072 words long.
 Raffenetti 2 integral format.
 Two-electron integral symmetry is turned on.
 Leave Link  301 at Fri Mar 14 15:11:55 2025, MaxMem=  8589934592 cpu:               0.4 elap:               0.2
 (Enter /home/enzo/gaussian_versions/gdv.j21/gdv/l302.exe)
 NPDir=0 NMtPBC=     1 NCelOv=     1 NCel=       1 NClECP=     1 NCelD=      1
         NCelK=      1 NCelE2=     1 NClLst=     1 CellRange=     0.0.
 One-electron integrals computed using PRISM.
 One-electron integral symmetry used in STVInt
 NBasis=   172 RedAO= T EigKep=  3.03D-03  NBF=   172
 NBsUse=   172 1.00D-06 EigRej= -1.00D+00 NBFU=   172
 Precomputing XC quadrature grid using
 IXCGrd= 4 IRadAn=           5 IRanWt=          -1 IRanGd=           0 AccXCQ= 0.00D+00.
 Generated NRdTot=       0 NPtTot=      407743 NUsed=           0 NTot=          64
 NSgBfM=   172   172   172   172   172 MxSgAt=    19 MxSgA2=    19 SizInc=   0.000
 NMBTot=     3471 MaxBatPerAtom=       85 MaxMicBPerAtom=      206 NBfPt=            50976302.
 Leave Link  302 at Fri Mar 14 15:11:56 2025, MaxMem=  8589934592 cpu:               6.7 elap:               1.2
 (Enter /home/enzo/gaussian_versions/gdv.j21/gdv/l303.exe)
 DipDrv:  MaxL=1.
 Leave Link  303 at Fri Mar 14 15:11:56 2025, MaxMem=  8589934592 cpu:               0.6 elap:               0.3
 (Enter /home/enzo/gaussian_versions/gdv.j21/gdv/l401.exe)
 Initial guess from the checkpoint file:  "/local/home/enzo/scratch/Gau-2337652.chk"
 B after Tr=    -0.000000    0.000000   -0.000000
         Rot=    0.999811    0.018043    0.001118    0.007084 Ang=   2.23 deg.
 AO Guess basis will be translated and rotated to current coordinates.
 JPrj=2 DoOrth=T DoCkMO=T.
 Generating alternative initial guess.
 ExpMin= 1.17D-01 ExpMax= 2.19D+04 ExpMxC= 3.30D+03 IAcc=3 IRadAn=         5 AccDes= 0.00D+00
 Harris functional with IExCor= 4002 and IRadAn=       5 diagonalized for initial guess.
 HarFok:  IExCor=    4002 AccDes= 0.00D+00 IRadAn=         5 IDoV= 1 UseB2=F ITyADJ=14 ICtDFT=  3500011
 FoFCou: FMM=F IPFlag=           0 FMFlag=      100000 FMFlg1=           0
         NFxFlg=           0 DoJE=T BraDBF=F KetDBF=T FulRan=T
         wScrn=  0.000000 ICntrl=       500 IOpCl=  0 I1Cent=   200000004 NGrid=           0
         NMat0=    1 NMatS0=      1 NMatT0=    0 NMatD0=    1 NMtDS0=    0 NMtDT0=    0
 Petite list used in FoFCou.
 Harris En= -874.544611945885    
 Leave Link  401 at Fri Mar 14 15:11:58 2025, MaxMem=  8589934592 cpu:              10.7 elap:               1.8
 (Enter /home/enzo/gaussian_versions/gdv.j21/gdv/l502.exe)
 Integral symmetry usage will be decided dynamically.
 Closed shell SCF:
 Using DIIS extrapolation, IDIIS=  1040.
 NGot=  8589934592 LenX=  8589843591 LenY=  8589813566
 Requested convergence on RMS density matrix=1.00D-08 within 128 cycles.
 Requested convergence on MAX density matrix=1.00D-06.
 Requested convergence on             energy=1.00D-06.
 No special actions if energy rises.
 Fock matrices will be formed incrementally for  20 cycles.
 Integral accuracy reduced to 1.0D-05 until final iterations.

 Cycle   1  Pass 0  IDiag  1:
 FoFJK:  IHMeth= 1 ICntrl=       0 DoSepK=F KAlg= 0 I1Cent=           0 FoldK=F
 IRaf= 900000000 NMat=       1 IRICut=       1 DoRegI=T DoRafI=F ISym2E= 0 IDoP0=0 IntGTp=1.
 FoFCou: FMM=F IPFlag=           0 FMFlag=      100000 FMFlg1=           0
         NFxFlg=           0 DoJE=F BraDBF=F KetDBF=F FulRan=T
         wScrn=  0.000000 ICntrl=         0 IOpCl=  0 I1Cent=           0 NGrid=           0
         NMat0=    1 NMatS0=      1 NMatT0=    0 NMatD0=    1 NMtDS0=    0 NMtDT0=    0
 Symmetry not used in FoFCou.
 E= -874.561063348854    
 DIIS: error= 6.78D-03 at cycle   1 NSaved=   1.
 NSaved= 1 IEnMin= 1 EnMin= -874.561063348854     IErMin= 1 ErrMin= 6.78D-03
 ErrMax= 6.78D-03  0.00D+00 EMaxC= 1.00D-01 BMatC= 8.21D-03 BMatP= 8.21D-03
 IDIUse=3 WtCom= 9.32D-01 WtEn= 6.78D-02
 Coeff-Com:  0.100D+01
 Coeff-En:   0.100D+01
 Coeff:      0.100D+01
 Gap=     1.620 Goal=   None    Shift=    0.000
 GapD=    1.620 DampG=2.000 DampE=1.000 DampFc=2.0000 IDamp=-1.
 RMSDP=1.25D-03 MaxDP=5.75D-02              OVMax= 8.37D-02

 Cycle   2  Pass 0  IDiag  1:
 RMSU=  1.25D-03    CP:  9.98D-01
 E= -874.579012205273     Delta-E=       -0.017948856419 Rises=F Damp=F
 DIIS: error= 1.07D-03 at cycle   2 NSaved=   2.
 NSaved= 2 IEnMin= 2 EnMin= -874.579012205273     IErMin= 2 ErrMin= 1.07D-03
 ErrMax= 1.07D-03  0.00D+00 EMaxC= 1.00D-01 BMatC= 4.26D-04 BMatP= 8.21D-03
 IDIUse=3 WtCom= 9.89D-01 WtEn= 1.07D-02
 Coeff-Com:  0.454D-02 0.995D+00
 Coeff-En:   0.000D+00 0.100D+01
 Coeff:      0.449D-02 0.996D+00
 Gap=     0.239 Goal=   None    Shift=    0.000
 RMSDP=2.98D-04 MaxDP=8.63D-03 DE=-1.79D-02 OVMax= 1.52D-02

 Cycle   3  Pass 0  IDiag  1:
 RMSU=  2.75D-04    CP:  9.98D-01  1.09D+00
 E= -874.578700468403     Delta-E=        0.000311736870 Rises=F Damp=F
 DIIS: error= 2.04D-03 at cycle   3 NSaved=   3.
 NSaved= 3 IEnMin= 2 EnMin= -874.579012205273     IErMin= 2 ErrMin= 1.07D-03
 ErrMax= 2.04D-03  0.00D+00 EMaxC= 1.00D-01 BMatC= 1.08D-03 BMatP= 4.26D-04
 IDIUse=3 WtCom= 1.81D-01 WtEn= 8.19D-01
 Coeff-Com: -0.448D-01 0.652D+00 0.393D+00
 Coeff-En:   0.000D+00 0.626D+00 0.374D+00
 Coeff:     -0.813D-02 0.630D+00 0.378D+00
 Gap=     0.238 Goal=   None    Shift=    0.000
 RMSDP=1.74D-04 MaxDP=6.52D-03 DE= 3.12D-04 OVMax= 1.25D-02

 Cycle   4  Pass 0  IDiag  1:
 RMSU=  8.70D-05    CP:  9.98D-01  1.12D+00  4.64D-01
 E= -874.579494606731     Delta-E=       -0.000794138328 Rises=F Damp=F
 DIIS: error= 5.09D-04 at cycle   4 NSaved=   4.
 NSaved= 4 IEnMin= 4 EnMin= -874.579494606731     IErMin= 4 ErrMin= 5.09D-04
 ErrMax= 5.09D-04  0.00D+00 EMaxC= 1.00D-01 BMatC= 5.13D-05 BMatP= 4.26D-04
 IDIUse=3 WtCom= 9.95D-01 WtEn= 5.09D-03
 Coeff-Com: -0.257D-01 0.256D+00 0.229D+00 0.540D+00
 Coeff-En:   0.000D+00 0.000D+00 0.000D+00 0.100D+01
 Coeff:     -0.256D-01 0.255D+00 0.228D+00 0.543D+00
 Gap=     0.237 Goal=   None    Shift=    0.000
 RMSDP=4.32D-05 MaxDP=1.30D-03 DE=-7.94D-04 OVMax= 2.54D-03

 Cycle   5  Pass 0  IDiag  1:
 RMSU=  3.28D-05    CP:  9.98D-01  1.13D+00  5.20D-01  8.02D-01
 E= -874.579534199600     Delta-E=       -0.000039592869 Rises=F Damp=F
 DIIS: error= 8.86D-05 at cycle   5 NSaved=   5.
 NSaved= 5 IEnMin= 5 EnMin= -874.579534199600     IErMin= 5 ErrMin= 8.86D-05
 ErrMax= 8.86D-05  0.00D+00 EMaxC= 1.00D-01 BMatC= 3.61D-06 BMatP= 5.13D-05
 IDIUse=1 WtCom= 1.00D+00 WtEn= 0.00D+00
 Coeff-Com: -0.809D-02 0.610D-01 0.760D-01 0.278D+00 0.593D+00
 Coeff:     -0.809D-02 0.610D-01 0.760D-01 0.278D+00 0.593D+00
 Gap=     0.237 Goal=   None    Shift=    0.000
 RMSDP=1.29D-05 MaxDP=4.58D-04 DE=-3.96D-05 OVMax= 5.50D-04

 Cycle   6  Pass 0  IDiag  1:
 RMSU=  9.86D-06    CP:  9.98D-01  1.13D+00  5.31D-01  8.61D-01  8.52D-01
 E= -874.579537095830     Delta-E=       -0.000002896230 Rises=F Damp=F
 DIIS: error= 2.71D-05 at cycle   6 NSaved=   6.
 NSaved= 6 IEnMin= 6 EnMin= -874.579537095830     IErMin= 6 ErrMin= 2.71D-05
 ErrMax= 2.71D-05  0.00D+00 EMaxC= 1.00D-01 BMatC= 4.27D-07 BMatP= 3.61D-06
 IDIUse=1 WtCom= 1.00D+00 WtEn= 0.00D+00
 Coeff-Com: -0.330D-03-0.736D-02 0.526D-02 0.654D-01 0.303D+00 0.634D+00
 Coeff:     -0.330D-03-0.736D-02 0.526D-02 0.654D-01 0.303D+00 0.634D+00
 Gap=     0.238 Goal=   None    Shift=    0.000
 RMSDP=5.17D-06 MaxDP=1.27D-04 DE=-2.90D-06 OVMax= 2.04D-04

 Initial convergence to 1.0D-05 achieved.  Increase integral accuracy.
 Cycle   7  Pass 1  IDiag  1:
 E= -874.579518927760     Delta-E=        0.000018168069 Rises=F Damp=F
 DIIS: error= 1.24D-05 at cycle   1 NSaved=   1.
 NSaved= 1 IEnMin= 1 EnMin= -874.579518927760     IErMin= 1 ErrMin= 1.24D-05
 ErrMax= 1.24D-05  0.00D+00 EMaxC= 1.00D-01 BMatC= 5.57D-08 BMatP= 5.57D-08
 IDIUse=1 WtCom= 1.00D+00 WtEn= 0.00D+00
 Coeff-Com:  0.100D+01
 Coeff:      0.100D+01
 Gap=     0.237 Goal=   None    Shift=    0.000
 RMSDP=5.17D-06 MaxDP=1.27D-04 DE= 1.82D-05 OVMax= 1.50D-04

 Cycle   8  Pass 1  IDiag  1:
 RMSU=  5.26D-06    CP:  1.00D+00
 E= -874.579518897233     Delta-E=        0.000000030527 Rises=F Damp=F
 DIIS: error= 2.11D-05 at cycle   2 NSaved=   2.
 NSaved= 2 IEnMin= 1 EnMin= -874.579518927760     IErMin= 1 ErrMin= 1.24D-05
 ErrMax= 2.11D-05  0.00D+00 EMaxC= 1.00D-01 BMatC= 9.37D-08 BMatP= 5.57D-08
 IDIUse=1 WtCom= 1.00D+00 WtEn= 0.00D+00
 Coeff-Com:  0.574D+00 0.426D+00
 Coeff:      0.574D+00 0.426D+00
 Gap=     0.237 Goal=   None    Shift=    0.000
 RMSDP=2.23D-06 MaxDP=7.34D-05 DE= 3.05D-08 OVMax= 1.20D-04

 Cycle   9  Pass 1  IDiag  1:
 RMSU=  1.85D-06    CP:  1.00D+00  7.64D-01
 E= -874.579518977217     Delta-E=       -0.000000079984 Rises=F Damp=F
 DIIS: error= 8.25D-06 at cycle   3 NSaved=   3.
 NSaved= 3 IEnMin= 3 EnMin= -874.579518977217     IErMin= 3 ErrMin= 8.25D-06
 ErrMax= 8.25D-06  0.00D+00 EMaxC= 1.00D-01 BMatC= 8.74D-09 BMatP= 5.57D-08
 IDIUse=1 WtCom= 1.00D+00 WtEn= 0.00D+00
 Coeff-Com:  0.178D+00 0.244D+00 0.579D+00
 Coeff:      0.178D+00 0.244D+00 0.579D+00
 Gap=     0.238 Goal=   None    Shift=    0.000
 RMSDP=6.41D-07 MaxDP=2.44D-05 DE=-8.00D-08 OVMax= 3.70D-05

 Cycle  10  Pass 1  IDiag  1:
 RMSU=  4.91D-07    CP:  1.00D+00  8.05D-01  8.11D-01
 E= -874.579518982447     Delta-E=       -0.000000005230 Rises=F Damp=F
 DIIS: error= 3.30D-06 at cycle   4 NSaved=   4.
 NSaved= 4 IEnMin= 4 EnMin= -874.579518982447     IErMin= 4 ErrMin= 3.30D-06
 ErrMax= 3.30D-06  0.00D+00 EMaxC= 1.00D-01 BMatC= 2.18D-09 BMatP= 8.74D-09
 IDIUse=1 WtCom= 1.00D+00 WtEn= 0.00D+00
 Coeff-Com:  0.133D-01 0.854D-01 0.382D+00 0.519D+00
 Coeff:      0.133D-01 0.854D-01 0.382D+00 0.519D+00
 Gap=     0.238 Goal=   None    Shift=    0.000
 RMSDP=2.68D-07 MaxDP=8.99D-06 DE=-5.23D-09 OVMax= 9.06D-06

 Cycle  11  Pass 1  IDiag  1:
 RMSU=  1.44D-07    CP:  1.00D+00  8.11D-01  8.47D-01  5.65D-01
 E= -874.579518984130     Delta-E=       -0.000000001683 Rises=F Damp=F
 DIIS: error= 4.79D-07 at cycle   5 NSaved=   5.
 NSaved= 5 IEnMin= 5 EnMin= -874.579518984130     IErMin= 5 ErrMin= 4.79D-07
 ErrMax= 4.79D-07  0.00D+00 EMaxC= 1.00D-01 BMatC= 1.17D-10 BMatP= 2.18D-09
 IDIUse=1 WtCom= 1.00D+00 WtEn= 0.00D+00
 Coeff-Com: -0.244D-02 0.352D-01 0.185D+00 0.300D+00 0.482D+00
 Coeff:     -0.244D-02 0.352D-01 0.185D+00 0.300D+00 0.482D+00
 Gap=     0.238 Goal=   None    Shift=    0.000
 RMSDP=6.72D-08 MaxDP=1.94D-06 DE=-1.68D-09 OVMax= 1.90D-06

 Cycle  12  Pass 1  IDiag  1:
 RMSU=  4.70D-08    CP:  1.00D+00  8.13D-01  8.46D-01  5.91D-01  6.90D-01
 E= -874.579518984230     Delta-E=       -0.000000000099 Rises=F Damp=F
 DIIS: error= 7.47D-08 at cycle   6 NSaved=   6.
 NSaved= 6 IEnMin= 6 EnMin= -874.579518984230     IErMin= 6 ErrMin= 7.47D-08
 ErrMax= 7.47D-08  0.00D+00 EMaxC= 1.00D-01 BMatC= 2.65D-12 BMatP= 1.17D-10
 IDIUse=1 WtCom= 1.00D+00 WtEn= 0.00D+00
 Coeff-Com: -0.197D-02 0.847D-02 0.489D-01 0.879D-01 0.191D+00 0.666D+00
 Coeff:     -0.197D-02 0.847D-02 0.489D-01 0.879D-01 0.191D+00 0.666D+00
 Gap=     0.238 Goal=   None    Shift=    0.000
 RMSDP=1.22D-08 MaxDP=3.21D-07 DE=-9.91D-11 OVMax= 5.00D-07

 Cycle  13  Pass 1  IDiag  1:
 RMSU=  1.04D-08    CP:  1.00D+00  8.13D-01  8.47D-01  5.96D-01  7.26D-01
                    CP:  9.98D-01
 E= -874.579518984238     Delta-E=       -0.000000000008 Rises=F Damp=F
 DIIS: error= 3.03D-08 at cycle   7 NSaved=   7.
 NSaved= 7 IEnMin= 7 EnMin= -874.579518984238     IErMin= 7 ErrMin= 3.03D-08
 ErrMax= 3.03D-08  0.00D+00 EMaxC= 1.00D-01 BMatC= 2.01D-13 BMatP= 2.65D-12
 IDIUse=1 WtCom= 1.00D+00 WtEn= 0.00D+00
 Coeff-Com: -0.412D-03-0.488D-03-0.818D-03 0.154D-02 0.174D-01 0.219D+00
 Coeff-Com:  0.764D+00
 Coeff:     -0.412D-03-0.488D-03-0.818D-03 0.154D-02 0.174D-01 0.219D+00
 Coeff:      0.764D+00
 Gap=     0.238 Goal=   None    Shift=    0.000
 RMSDP=4.90D-09 MaxDP=1.64D-07 DE=-8.19D-12 OVMax= 2.61D-07

 SCF Done:  E(RB3LYP) =  -874.579518984     A.U. after   13 cycles
            NFock= 13  Conv=0.49D-08     -V/T= 2.0064
 KE= 8.690544247279D+02 PE=-3.306892655371D+03 EE= 9.397140036457D+02
 Leave Link  502 at Fri Mar 14 15:12:09 2025, MaxMem=  8589934592 cpu:              85.0 elap:              10.9
 (Enter /home/enzo/gaussian_versions/gdv.j21/gdv/l701.exe)
 ... and contract with generalized density number  0.
 Compute integral first derivatives.
 Leave Link  701 at Fri Mar 14 15:12:09 2025, MaxMem=  8589934592 cpu:               1.5 elap:               0.3
 (Enter /home/enzo/gaussian_versions/gdv.j21/gdv/l702.exe)
 L702 exits ... SP integral derivatives will be done elsewhere.
 Leave Link  702 at Fri Mar 14 15:12:10 2025, MaxMem=  8589934592 cpu:               0.2 elap:               0.3
 (Enter /home/enzo/gaussian_versions/gdv.j21/gdv/l703.exe)
 Integral derivatives from FoFJK, PRISM(SPDF).
 Compute integral first derivatives, UseDBF=F ICtDFT=           0.
 Calling FoFJK, ICntrl=      2127 FMM=F ISym2X=0 I1Cent= 0 IOpClX= 0 NMat=1 NMatS=1 NMatT=0.
 FoFJK:  IHMeth= 1 ICntrl=    2127 DoSepK=F KAlg= 0 I1Cent=           0 FoldK=F
 IRaf=         0 NMat=       1 IRICut=       1 DoRegI=T DoRafI=F ISym2E= 0 IDoP0=0 IntGTp=1.
 FoFCou: FMM=F IPFlag=           0 FMFlag=      100000 FMFlg1=         800
         NFxFlg=           0 DoJE=F BraDBF=F KetDBF=F FulRan=T
         wScrn=  0.000000 ICntrl=      2127 IOpCl=  0 I1Cent=           0 NGrid=           0
         NMat0=    1 NMatS0=      1 NMatT0=    0 NMatD0=    1 NMtDS0=    0 NMtDT0=    0
 Symmetry not used in FoFCou.
 Leave Link  703 at Fri Mar 14 15:12:12 2025, MaxMem=  8589934592 cpu:              14.7 elap:               2.0
 (Enter /home/enzo/gaussian_versions/gdv.j21/gdv/l716.exe)
 Dipole        =-5.68509337D-01 2.21246209D-01-4.79142503D-01
 ***** Axes restored to original set *****
 -------------------------------------------------------------------
 Center     Atomic                   Forces (Hartrees/Bohr)
 Number     Number              X              Y              Z
 -------------------------------------------------------------------
      1        6          -0.000841277   -0.000542755   -0.000481656
      2        6           0.005389858   -0.000315167    0.001602960
      3       16          -0.001967469   -0.000297060    0.001260566
      4        6          -0.001374012    0.002133780   -0.004272421
      5        8          -0.001608096   -0.000151503    0.001650816
      6        7          -0.000917611    0.000734952    0.000667114
      7        6           0.000687217    0.001570756   -0.001474856
      8        6          -0.000385594   -0.000753552   -0.004073267
      9        8          -0.001538350   -0.002300996   -0.000688080
     10        8           0.002057777    0.002894585    0.003248570
     11        1           0.000101728    0.000234626    0.000164490
     12        1           0.000129545    0.000713009    0.000005262
     13        1           0.000061779   -0.000033011   -0.000036906
     14        1          -0.000474344   -0.000309032   -0.000031313
     15        1           0.001228449   -0.001205504   -0.001117589
     16        1           0.000536094   -0.001569341    0.000933656
     17        1          -0.000179290    0.000373052    0.000722622
     18        1           0.000254877    0.000082013   -0.000062622
     19        1          -0.001161281   -0.001258853    0.001982654
 -------------------------------------------------------------------
 Cartesian Forces:  Max     0.005389858 RMS     0.001569967
 Leave Link  716 at Fri Mar 14 15:12:12 2025, MaxMem=  8589934592 cpu:               0.1 elap:               0.2
 (Enter /home/enzo/gaussian_versions/gdv.j21/gdv/l103.exe)

 GradGradGradGradGradGradGradGradGradGradGradGradGradGradGradGradGradGrad
 Berny optimization.
 Using GEDIIS/GDIIS optimizer.
 FormGI is forming the generalized inverse of G from B-inverse, IUseBI=4.
 Internal  Forces:  Max     0.005514132 RMS     0.001104413
 Search for a local minimum.
 Step number   3 out of a maximum of   93
 All quantities printed in internal units (Hartrees-Bohrs-Radians)
 RMS Force = .11044D-02 SwitMx=.10000D-02 MixMth= 1
 Mixed Optimization -- RFO/linear search
 Update second derivatives using D2CorX and points    2    3
 DE= -4.64D-03 DEPred=-4.99D-03 R= 9.29D-01
 TightC=F SS=  1.41D+00  RLast= 5.01D-01 DXNew= 8.4853D-01 1.5030D+00
 Trust test= 9.29D-01 RLast= 5.01D-01 DXMaxT set to 8.49D-01
 ITU=  1  1  0
 Use linear search instead of GDIIS.
     Eigenvalues ---    0.00220   0.00449   0.00749   0.00856   0.00902
     Eigenvalues ---    0.01016   0.01057   0.01109   0.01285   0.01905
     Eigenvalues ---    0.04925   0.05224   0.05352   0.05636   0.05781
     Eigenvalues ---    0.06709   0.07788   0.09779   0.13225   0.15975
     Eigenvalues ---    0.15998   0.16000   0.16000   0.16223   0.17267
     Eigenvalues ---    0.17853   0.19921   0.21749   0.22021   0.22401
     Eigenvalues ---    0.23131   0.24773   0.24990   0.25052   0.26138
     Eigenvalues ---    0.30081   0.30984   0.32578   0.32592   0.32596
     Eigenvalues ---    0.32631   0.32649   0.32847   0.33109   0.37131
     Eigenvalues ---    0.40611   0.40978   0.46186   0.51474   0.78412
     Eigenvalues ---    0.80393
 RFO step:  Lambda=-1.88305988D-03 EMin= 2.19942858D-03
 Quartic linear search produced a step of  0.09100.
 Iteration  1 RMS(Cart)=  0.06392448 RMS(Int)=  0.02265930
 Iteration  2 RMS(Cart)=  0.03011426 RMS(Int)=  0.00184691
 Iteration  3 RMS(Cart)=  0.00176699 RMS(Int)=  0.00033302
 Iteration  4 RMS(Cart)=  0.00000241 RMS(Int)=  0.00033301
 Iteration  5 RMS(Cart)=  0.00000000 RMS(Int)=  0.00033301
 Variable       Old X    -DE/DX   Delta X   Delta X   Delta X     New X
                                 (Linear)    (Quad)   (Total)
    R1        2.88617  -0.00034  -0.00057  -0.00133  -0.00190   2.88427
    R2        2.06912  -0.00002  -0.00080  -0.00029  -0.00109   2.06803
    R3        2.06548   0.00065  -0.00079   0.00186   0.00107   2.06655
    R4        2.06468  -0.00005  -0.00078  -0.00037  -0.00115   2.06354
    R5        3.51949   0.00149   0.00210   0.00675   0.00886   3.52835
    R6        2.89290   0.00396   0.00259   0.01338   0.01597   2.90886
    R7        2.07300  -0.00005  -0.00085  -0.00039  -0.00124   2.07176
    R8        2.54548   0.00133  -0.00312   0.00549   0.00237   2.54785
    R9        2.30674   0.00073  -0.00215   0.00036  -0.00178   2.30495
   R10        2.59108   0.00005  -0.00314  -0.00070  -0.00385   2.58723
   R11        2.74577   0.00046   0.00015   0.00133   0.00148   2.74725
   R12        1.90963   0.00111  -0.00166   0.00239   0.00073   1.91036
   R13        2.87805   0.00164   0.00301   0.00595   0.00896   2.88701
   R14        2.06138   0.00055  -0.00124   0.00142   0.00018   2.06156
   R15        2.06625  -0.00005  -0.00052  -0.00028  -0.00080   2.06546
   R16        2.28700   0.00285  -0.00305   0.00283  -0.00022   2.28678
   R17        2.53735   0.00551  -0.00182   0.01152   0.00970   2.54705
   R18        1.84028   0.00251  -0.00132   0.00535   0.00402   1.84431
    A1        1.92529   0.00039   0.00058   0.00294   0.00352   1.92882
    A2        1.91334   0.00035  -0.00109   0.00221   0.00112   1.91446
    A3        1.93565  -0.00013   0.00007  -0.00133  -0.00126   1.93439
    A4        1.89651  -0.00027   0.00058  -0.00056   0.00002   1.89653
    A5        1.90531  -0.00019   0.00041  -0.00152  -0.00112   1.90419
    A6        1.88691  -0.00018  -0.00055  -0.00184  -0.00240   1.88452
    A7        1.95779   0.00120   0.00045   0.01001   0.01045   1.96824
    A8        1.94235   0.00054   0.00038   0.00422   0.00463   1.94698
    A9        1.91251   0.00024   0.00162   0.00658   0.00821   1.92072
   A10        1.89211  -0.00119  -0.00104  -0.00693  -0.00804   1.88407
   A11        1.87281  -0.00033  -0.00042  -0.00453  -0.00510   1.86772
   A12        1.88351  -0.00056  -0.00107  -0.01055  -0.01168   1.87183
   A13        1.66764   0.00117  -0.00079   0.00726   0.00647   1.67411
   A14        2.12721   0.00152  -0.00011   0.00833   0.00651   2.13372
   A15        2.00354  -0.00018  -0.00385   0.00039  -0.00517   1.99837
   A16        2.15031  -0.00126   0.00378  -0.00191   0.00017   2.15048
   A17        2.13389  -0.00015   0.00118  -0.00053   0.00050   2.13439
   A18        2.08969  -0.00051   0.00048  -0.00349  -0.00317   2.08652
   A19        2.05935   0.00065  -0.00168   0.00338   0.00154   2.06089
   A20        1.94302  -0.00115  -0.00007  -0.00620  -0.00628   1.93674
   A21        1.86738   0.00034  -0.00109   0.00005  -0.00106   1.86632
   A22        1.92197   0.00033   0.00002   0.00230   0.00232   1.92429
   A23        1.93739   0.00003   0.00003  -0.00218  -0.00217   1.93522
   A24        1.87424   0.00042  -0.00008   0.00275   0.00267   1.87691
   A25        1.92042   0.00003   0.00124   0.00336   0.00460   1.92502
   A26        2.16591   0.00090   0.00292   0.00425   0.00696   2.17287
   A27        1.96354  -0.00153  -0.00382  -0.00756  -0.01159   1.95195
   A28        2.15348   0.00062   0.00088   0.00253   0.00320   2.15667
   A29        1.85274   0.00137  -0.00759   0.00683  -0.00076   1.85198
    D1        1.06402   0.00025   0.00085   0.00695   0.00780   1.07182
    D2       -3.09588  -0.00006   0.00010   0.00812   0.00823  -3.08765
    D3       -1.01412  -0.00026   0.00004   0.00191   0.00194  -1.01219
    D4       -3.13141   0.00039   0.00125   0.00947   0.01073  -3.12068
    D5       -1.00813   0.00008   0.00050   0.01065   0.01116  -0.99697
    D6        1.07363  -0.00012   0.00044   0.00443   0.00486   1.07849
    D7       -1.04909   0.00031  -0.00009   0.00778   0.00769  -1.04140
    D8        1.07420   0.00000  -0.00084   0.00895   0.00812   1.08232
    D9       -3.12723  -0.00021  -0.00090   0.00274   0.00182  -3.12541
   D10       -0.76624  -0.00131  -0.02306  -0.29327  -0.31633  -1.08258
   D11       -2.91803  -0.00195  -0.02312  -0.30039  -0.32347   3.04169
   D12        1.33508  -0.00051  -0.02108  -0.28209  -0.30321   1.03187
   D13        0.08401  -0.00084  -0.00026  -0.05515  -0.05551   0.02850
   D14       -3.12550   0.00032  -0.00437   0.05335   0.04908  -3.07641
   D15        2.24508   0.00021  -0.00016  -0.04454  -0.04484   2.20023
   D16       -0.96443   0.00137  -0.00427   0.06397   0.05975  -0.90468
   D17       -2.01496  -0.00110  -0.00180  -0.05904  -0.06089  -2.07585
   D18        1.05872   0.00007  -0.00591   0.04946   0.04370   1.10242
   D19       -3.13895  -0.00057  -0.00032  -0.05215  -0.05228   3.09195
   D20        0.02741  -0.00020   0.00143  -0.02091  -0.01932   0.00809
   D21       -0.06628   0.00073  -0.00455   0.05841   0.05372  -0.01257
   D22        3.10008   0.00110  -0.00279   0.08966   0.08667  -3.09643
   D23       -1.88639   0.00003  -0.00120  -0.01067  -0.01186  -1.89825
   D24        0.23322  -0.00040  -0.00192  -0.01701  -0.01891   0.21431
   D25        2.32003   0.00003  -0.00106  -0.01165  -0.01270   2.30733
   D26        1.23084  -0.00035  -0.00291  -0.04148  -0.04442   1.18642
   D27       -2.93274  -0.00078  -0.00363  -0.04783  -0.05147  -2.98420
   D28       -0.84592  -0.00035  -0.00278  -0.04247  -0.04526  -0.89118
   D29       -1.65369  -0.00005  -0.00108  -0.00151  -0.00257  -1.65626
   D30        1.46450  -0.00050  -0.00224  -0.03755  -0.03979   1.42470
   D31        2.55122   0.00025   0.00032   0.00394   0.00426   2.55548
   D32       -0.61378  -0.00019  -0.00083  -0.03211  -0.03296  -0.64674
   D33        0.45138  -0.00007  -0.00115  -0.00062  -0.00176   0.44962
   D34       -2.71362  -0.00052  -0.00230  -0.03666  -0.03898  -2.75260
   D35       -3.09262   0.00036   0.01094   0.02557   0.03646  -3.05616
   D36        0.02576  -0.00008   0.00981  -0.01015  -0.00029   0.02546
         Item               Value     Threshold  Converged?
 Maximum Force            0.005514     0.000450     NO 
 RMS     Force            0.001104     0.000300     NO 
 Maximum Displacement     0.474655     0.001800     NO 
 RMS     Displacement     0.088537     0.001200     NO 
 Predicted change in Energy=-1.322957D-03
 Lowest energy point so far.  Saving SCF results.
 GradGradGradGradGradGradGradGradGradGradGradGradGradGradGradGradGradGrad

 Leave Link  103 at Fri Mar 14 15:12:12 2025, MaxMem=  8589934592 cpu:               1.2 elap:               0.4
 (Enter /home/enzo/gaussian_versions/gdv.j21/gdv/l202.exe)
                          Input orientation:                          
 ---------------------------------------------------------------------
 Center     Atomic      Atomic             Coordinates (Angstroms)
 Number     Number       Type             X           Y           Z
 ---------------------------------------------------------------------
      1          6           0        3.084006    1.052154    0.415423
      2          6           0        2.034543    0.208112   -0.302757
      3         16           0        1.826707   -1.485446    0.455410
      4          6           0        0.658801    0.898608   -0.305728
      5          8           0        0.482032    1.999614    0.188514
      6          7           0       -0.347304    0.157235   -0.864803
      7          6           0       -1.724888    0.620259   -0.901627
      8          6           0       -2.596746   -0.180456    0.064138
      9          8           0       -3.255763   -1.146358   -0.247474
     10          8           0       -2.488605    0.271251    1.329422
     11          1           0        4.065815    0.571946    0.360077
     12          1           0        3.149296    2.037332   -0.054747
     13          1           0        2.815309    1.196312    1.463962
     14          1           0        2.325001    0.057654   -1.349145
     15          1           0        3.087598   -1.899737    0.218053
     16          1           0       -0.145879   -0.766077   -1.223801
     17          1           0       -1.712395    1.676650   -0.629570
     18          1           0       -2.140529    0.491893   -1.904323
     19          1           0       -3.010607   -0.341504    1.881284
 ---------------------------------------------------------------------
                    Distance matrix (angstroms):
                    1          2          3          4          5
     1  C    0.000000
     2  C    1.526290   0.000000
     3  S    2.832280   1.867124   0.000000
     4  C    2.534809   1.539304   2.761711   0.000000
     5  O    2.778388   2.420974   3.745001   1.219728   0.000000
     6  N    3.770113   2.447791   3.027820   1.369104   2.278516
     7  C    5.004660   3.829077   4.346191   2.472761   2.821617
     8  C    5.823544   4.662020   4.628502   3.449604   3.774526
     9  O    6.742815   5.461225   5.142036   4.416910   4.904930
    10  O    5.700806   4.809039   4.740443   3.601868   3.621270
    11  H    1.094355   2.167439   3.042295   3.486797   3.861499
    12  H    1.093572   2.156439   3.797297   2.749954   2.678599
    13  H    1.091977   2.169661   3.030897   2.805522   2.777813
    14  H    2.163058   1.096326   2.426082   2.138257   3.087416
    15  H    2.958483   2.413130   1.348266   3.742210   4.689860
    16  H    4.052798   2.559610   2.688557   2.064351   3.168273
    17  H    4.948481   4.037692   4.868396   2.516504   2.364123
    18  H    5.743769   4.480710   5.021670   3.249180   3.678452
    19  H    6.421475   5.525002   5.171202   4.448085   4.532641
                    6          7          8          9         10
     6  N    0.000000
     7  C    1.453783   0.000000
     8  C    2.457022   1.527738   0.000000
     9  O    3.246473   2.427432   1.210112   0.000000
    10  O    3.068028   2.383831   1.347842   2.254938   0.000000
    11  H    4.598689   5.926759   6.711439   7.545012   6.632531
    12  H    4.051810   5.146161   6.160334   7.155264   6.068022
    13  H    4.062628   5.151819   5.757198   6.728672   5.385660
    14  H    2.717668   4.113198   5.126174   5.814486   5.512816
    15  H    4.147562   5.546538   5.940655   6.404883   6.086244
    16  H    1.010919   2.125793   2.829928   3.281647   3.617093
    17  H    2.056071   1.090933   2.170750   3.239963   2.532845
    18  H    2.099583   1.092993   2.129560   2.583169   3.259900
    19  H    3.857839   3.212889   1.870625   2.288996   0.975965
                   11         12         13         14         15
    11  H    0.000000
    12  H    1.777482   0.000000
    13  H    1.781056   1.767863   0.000000
    14  H    2.493265   2.504806   3.074169   0.000000
    15  H    2.662010   3.946991   3.348424   2.620886   0.000000
    16  H    4.694395   4.481514   4.454623   2.607583   3.717459
    17  H    5.965525   4.908823   5.011357   4.409025   6.045572
    18  H    6.607013   5.813050   6.033396   4.520812   6.128433
    19  H    7.295493   6.881242   6.039895   6.250097   6.510187
                   16         17         18         19
    16  H    0.000000
    17  H    2.962094   0.000000
    18  H    2.454430   1.792189   0.000000
    19  H    4.245997   3.473139   3.972708   0.000000
 Stoichiometry    C5H9NO3S
 Framework group  C1[X(C5H9NO3S)]
 Deg. of freedom    51
 Full point group                 C1      NOp   1
 RotChk:  IX=0 Diff= 4.86D-02
 Largest Abelian subgroup         C1      NOp   1
 Largest concise Abelian subgroup C1      NOp   1
                         Standard orientation:                         
 ---------------------------------------------------------------------
 Center     Atomic      Atomic             Coordinates (Angstroms)
 Number     Number       Type             X           Y           Z
 ---------------------------------------------------------------------
      1          6           0       -3.113730   -0.812118    0.385418
      2          6           0       -2.007729   -0.104348   -0.392649
      3         16           0       -1.741916    1.656313    0.169106
      4          6           0       -0.665797   -0.848659   -0.271501
      5          8           0       -0.553268   -1.890277    0.353083
      6          7           0        0.387951   -0.222135   -0.881033
      7          6           0        1.743139   -0.744838   -0.819952
      8          6           0        2.625250    0.126066    0.073015
      9          8           0        3.336242    1.019383   -0.328043
     10          8           0        2.462911   -0.168284    1.378266
     11          1           0       -4.070473   -0.300181    0.243380
     12          1           0       -3.212055   -1.842147    0.031480
     13          1           0       -2.879809   -0.843037    1.451598
     14          1           0       -2.263145   -0.065993   -1.458117
     15          1           0       -2.975580    2.093349   -0.154768
     16          1           0        0.239006    0.660192   -1.351429
     17          1           0        1.674614   -1.760281   -0.427124
     18          1           0        2.190642   -0.753490   -1.817098
     19          1           0        2.997917    0.482334    1.871188
 ---------------------------------------------------------------------
 Rotational constants (GHZ):           1.8655779           0.6270843           0.5414826
 Leave Link  202 at Fri Mar 14 15:12:13 2025, MaxMem=  8589934592 cpu:               0.2 elap:               0.1
 (Enter /home/enzo/gaussian_versions/gdv.j21/gdv/l301.exe)
 Standard basis: 6-31G(d) (6D, 7F)
 Ernie: Thresh=  0.10000D-02 Tol=  0.10000D-05 Strict=F.
 There are   172 symmetry adapted cartesian basis functions of A   symmetry.
 There are   172 symmetry adapted basis functions of A   symmetry.
   172 basis functions,   340 primitive gaussians,   172 cartesian basis functions
    43 alpha electrons       43 beta electrons
       nuclear repulsion energy       625.0194889932 Hartrees.
 IExCor=      4002 DFT=T Ex+Corr=B3LYP ScaHFX=  0.200000
 ScaDFX=  0.800000  0.720000  1.000000  0.810000  1.000000  0.000000
 ScaDFX=  0.000000  0.000000  0.000000  0.000000  0.000000  0.000000
 IRadAn=      5 IRanWt=     -1 IRanGd=            0 ICorTp=0 IEmpDi=  4
 NAtoms=   19 NActive=   19 NUniq=   19 SFac= 1.00D+00 NAtFMM=   60 NAOKFM=F Big=F
 Integral buffers will be    131072 words long.
 Raffenetti 2 integral format.
 Two-electron integral symmetry is turned on.
 Leave Link  301 at Fri Mar 14 15:12:13 2025, MaxMem=  8589934592 cpu:               0.5 elap:               0.2
 (Enter /home/enzo/gaussian_versions/gdv.j21/gdv/l302.exe)
 NPDir=0 NMtPBC=     1 NCelOv=     1 NCel=       1 NClECP=     1 NCelD=      1
         NCelK=      1 NCelE2=     1 NClLst=     1 CellRange=     0.0.
 One-electron integrals computed using PRISM.
 One-electron integral symmetry used in STVInt
 NBasis=   172 RedAO= T EigKep=  3.03D-03  NBF=   172
 NBsUse=   172 1.00D-06 EigRej= -1.00D+00 NBFU=   172
 Precomputing XC quadrature grid using
 IXCGrd= 4 IRadAn=           5 IRanWt=          -1 IRanGd=           0 AccXCQ= 0.00D+00.
 Generated NRdTot=       0 NPtTot=      407720 NUsed=           0 NTot=          64
 NSgBfM=   172   172   172   172   172 MxSgAt=    19 MxSgA2=    19 SizInc=   0.000
 NMBTot=     3488 MaxBatPerAtom=       85 MaxMicBPerAtom=      208 NBfPt=            51105511.
 Leave Link  302 at Fri Mar 14 15:12:13 2025, MaxMem=  8589934592 cpu:               2.5 elap:               0.5
 (Enter /home/enzo/gaussian_versions/gdv.j21/gdv/l303.exe)
 DipDrv:  MaxL=1.
 Leave Link  303 at Fri Mar 14 15:12:14 2025, MaxMem=  8589934592 cpu:               0.4 elap:               0.3
 (Enter /home/enzo/gaussian_versions/gdv.j21/gdv/l401.exe)
 Initial guess from the checkpoint file:  "/local/home/enzo/scratch/Gau-2337652.chk"
 B after Tr=     0.000000   -0.000000    0.000000
         Rot=    0.999969    0.005064    0.001500    0.005766 Ang=   0.90 deg.
 AO Guess basis will be translated and rotated to current coordinates.
 JPrj=2 DoOrth=T DoCkMO=T.
 Generating alternative initial guess.
 ExpMin= 1.17D-01 ExpMax= 2.19D+04 ExpMxC= 3.30D+03 IAcc=3 IRadAn=         5 AccDes= 0.00D+00
 Harris functional with IExCor= 4002 and IRadAn=       5 diagonalized for initial guess.
 HarFok:  IExCor=    4002 AccDes= 0.00D+00 IRadAn=         5 IDoV= 1 UseB2=F ITyADJ=14 ICtDFT=  3500011
 FoFCou: FMM=F IPFlag=           0 FMFlag=      100000 FMFlg1=           0
         NFxFlg=           0 DoJE=T BraDBF=F KetDBF=T FulRan=T
         wScrn=  0.000000 ICntrl=       500 IOpCl=  0 I1Cent=   200000004 NGrid=           0
         NMat0=    1 NMatS0=      1 NMatT0=    0 NMatD0=    1 NMtDS0=    0 NMtDT0=    0
 Petite list used in FoFCou.
 Harris En= -874.545371112474    
 Leave Link  401 at Fri Mar 14 15:12:15 2025, MaxMem=  8589934592 cpu:              10.5 elap:               1.7
 (Enter /home/enzo/gaussian_versions/gdv.j21/gdv/l502.exe)
 Integral symmetry usage will be decided dynamically.
 Closed shell SCF:
 Using DIIS extrapolation, IDIIS=  1040.
 NGot=  8589934592 LenX=  8589843591 LenY=  8589813566
 Requested convergence on RMS density matrix=1.00D-08 within 128 cycles.
 Requested convergence on MAX density matrix=1.00D-06.
 Requested convergence on             energy=1.00D-06.
 No special actions if energy rises.
 Fock matrices will be formed incrementally for  20 cycles.
 Integral accuracy reduced to 1.0D-05 until final iterations.

 Cycle   1  Pass 0  IDiag  1:
 FoFJK:  IHMeth= 1 ICntrl=       0 DoSepK=F KAlg= 0 I1Cent=           0 FoldK=F
 IRaf= 900000000 NMat=       1 IRICut=       1 DoRegI=T DoRafI=F ISym2E= 0 IDoP0=0 IntGTp=1.
 FoFCou: FMM=F IPFlag=           0 FMFlag=      100000 FMFlg1=           0
         NFxFlg=           0 DoJE=F BraDBF=F KetDBF=F FulRan=T
         wScrn=  0.000000 ICntrl=         0 IOpCl=  0 I1Cent=           0 NGrid=           0
         NMat0=    1 NMatS0=      1 NMatT0=    0 NMatD0=    1 NMtDS0=    0 NMtDT0=    0
 Symmetry not used in FoFCou.
 E= -874.563721031433    
 DIIS: error= 7.70D-03 at cycle   1 NSaved=   1.
 NSaved= 1 IEnMin= 1 EnMin= -874.563721031433     IErMin= 1 ErrMin= 7.70D-03
 ErrMax= 7.70D-03  0.00D+00 EMaxC= 1.00D-01 BMatC= 6.60D-03 BMatP= 6.60D-03
 IDIUse=3 WtCom= 9.23D-01 WtEn= 7.70D-02
 Coeff-Com:  0.100D+01
 Coeff-En:   0.100D+01
 Coeff:      0.100D+01
 Gap=     1.609 Goal=   None    Shift=    0.000
 GapD=    1.609 DampG=2.000 DampE=1.000 DampFc=2.0000 IDamp=-1.
 RMSDP=1.22D-03 MaxDP=5.71D-02              OVMax= 8.61D-02

 Cycle   2  Pass 0  IDiag  1:
 RMSU=  1.22D-03    CP:  9.99D-01
 E= -874.579830396872     Delta-E=       -0.016109365439 Rises=F Damp=F
 DIIS: error= 8.81D-04 at cycle   2 NSaved=   2.
 NSaved= 2 IEnMin= 2 EnMin= -874.579830396872     IErMin= 2 ErrMin= 8.81D-04
 ErrMax= 8.81D-04  0.00D+00 EMaxC= 1.00D-01 BMatC= 1.35D-04 BMatP= 6.60D-03
 IDIUse=3 WtCom= 9.91D-01 WtEn= 8.81D-03
 Coeff-Com: -0.661D-01 0.107D+01
 Coeff-En:   0.000D+00 0.100D+01
 Coeff:     -0.655D-01 0.107D+01
 Gap=     0.239 Goal=   None    Shift=    0.000
 RMSDP=2.42D-04 MaxDP=9.64D-03 DE=-1.61D-02 OVMax= 1.39D-02

 Cycle   3  Pass 0  IDiag  1:
 RMSU=  1.85D-04    CP:  9.99D-01  1.13D+00
 E= -874.579960730121     Delta-E=       -0.000130333249 Rises=F Damp=F
 DIIS: error= 8.47D-04 at cycle   3 NSaved=   3.
 NSaved= 3 IEnMin= 3 EnMin= -874.579960730121     IErMin= 3 ErrMin= 8.47D-04
 ErrMax= 8.47D-04  0.00D+00 EMaxC= 1.00D-01 BMatC= 2.08D-04 BMatP= 1.35D-04
 IDIUse=3 WtCom= 2.56D-01 WtEn= 7.44D-01
 Coeff-Com: -0.531D-01 0.638D+00 0.416D+00
 Coeff-En:   0.000D+00 0.216D+00 0.784D+00
 Coeff:     -0.136D-01 0.324D+00 0.690D+00
 Gap=     0.238 Goal=   None    Shift=    0.000
 RMSDP=1.58D-04 MaxDP=4.00D-03 DE=-1.30D-04 OVMax= 9.11D-03

 Cycle   4  Pass 0  IDiag  1:
 RMSU=  1.14D-04    CP:  9.98D-01  1.15D+00  4.27D-01
 E= -874.579924400576     Delta-E=        0.000036329545 Rises=F Damp=F
 DIIS: error= 1.06D-03 at cycle   4 NSaved=   4.
 NSaved= 4 IEnMin= 3 EnMin= -874.579960730121     IErMin= 3 ErrMin= 8.47D-04
 ErrMax= 1.06D-03  0.00D+00 EMaxC= 1.00D-01 BMatC= 2.80D-04 BMatP= 1.35D-04
 IDIUse=3 WtCom= 2.35D-01 WtEn= 7.65D-01
 Coeff-Com: -0.220D-01 0.218D+00 0.482D+00 0.322D+00
 Coeff-En:   0.000D+00 0.000D+00 0.535D+00 0.465D+00
 Coeff:     -0.518D-02 0.512D-01 0.523D+00 0.431D+00
 Gap=     0.238 Goal=   None    Shift=    0.000
 RMSDP=8.23D-05 MaxDP=2.70D-03 DE= 3.63D-05 OVMax= 5.59D-03

 Cycle   5  Pass 0  IDiag  1:
 RMSU=  3.72D-05    CP:  9.98D-01  1.15D+00  6.73D-01  4.97D-01
 E= -874.580136661060     Delta-E=       -0.000212260484 Rises=F Damp=F
 DIIS: error= 1.10D-04 at cycle   5 NSaved=   5.
 NSaved= 5 IEnMin= 5 EnMin= -874.580136661060     IErMin= 5 ErrMin= 1.10D-04
 ErrMax= 1.10D-04  0.00D+00 EMaxC= 1.00D-01 BMatC= 6.64D-06 BMatP= 1.35D-04
 IDIUse=3 WtCom= 9.99D-01 WtEn= 1.10D-03
 Coeff-Com: -0.203D-02-0.170D-02 0.256D+00 0.245D+00 0.502D+00
 Coeff-En:   0.000D+00 0.000D+00 0.000D+00 0.000D+00 0.100D+01
 Coeff:     -0.203D-02-0.170D-02 0.256D+00 0.245D+00 0.503D+00
 Gap=     0.239 Goal=   None    Shift=    0.000
 RMSDP=1.89D-05 MaxDP=8.24D-04 DE=-2.12D-04 OVMax= 5.79D-04

 Cycle   6  Pass 0  IDiag  1:
 RMSU=  5.46D-06    CP:  9.98D-01  1.15D+00  7.25D-01  5.40D-01  6.07D-01
 E= -874.580143105970     Delta-E=       -0.000006444910 Rises=F Damp=F
 DIIS: error= 1.94D-05 at cycle   6 NSaved=   6.
 NSaved= 6 IEnMin= 6 EnMin= -874.580143105970     IErMin= 6 ErrMin= 1.94D-05
 ErrMax= 1.94D-05  0.00D+00 EMaxC= 1.00D-01 BMatC= 1.57D-07 BMatP= 6.64D-06
 IDIUse=1 WtCom= 1.00D+00 WtEn= 0.00D+00
 Coeff-Com:  0.987D-03-0.212D-01 0.836D-01 0.927D-01 0.246D+00 0.598D+00
 Coeff:      0.987D-03-0.212D-01 0.836D-01 0.927D-01 0.246D+00 0.598D+00
 Gap=     0.239 Goal=   None    Shift=    0.000
 RMSDP=3.19D-06 MaxDP=6.50D-05 DE=-6.44D-06 OVMax= 1.32D-04

 Initial convergence to 1.0D-05 achieved.  Increase integral accuracy.
 Cycle   7  Pass 1  IDiag  1:
 E= -874.580126462839     Delta-E=        0.000016643132 Rises=F Damp=F
 DIIS: error= 1.16D-05 at cycle   1 NSaved=   1.
 NSaved= 1 IEnMin= 1 EnMin= -874.580126462839     IErMin= 1 ErrMin= 1.16D-05
 ErrMax= 1.16D-05  0.00D+00 EMaxC= 1.00D-01 BMatC= 4.13D-08 BMatP= 4.13D-08
 IDIUse=1 WtCom= 1.00D+00 WtEn= 0.00D+00
 Coeff-Com:  0.100D+01
 Coeff:      0.100D+01
 Gap=     0.239 Goal=   None    Shift=    0.000
 RMSDP=3.19D-06 MaxDP=6.50D-05 DE= 1.66D-05 OVMax= 1.17D-04

 Cycle   8  Pass 1  IDiag  1:
 RMSU=  4.45D-06    CP:  1.00D+00
 E= -874.580126432892     Delta-E=        0.000000029946 Rises=F Damp=F
 DIIS: error= 1.50D-05 at cycle   2 NSaved=   2.
 NSaved= 2 IEnMin= 1 EnMin= -874.580126462839     IErMin= 1 ErrMin= 1.16D-05
 ErrMax= 1.50D-05  0.00D+00 EMaxC= 1.00D-01 BMatC= 8.00D-08 BMatP= 4.13D-08
 IDIUse=1 WtCom= 1.00D+00 WtEn= 0.00D+00
 Coeff-Com:  0.593D+00 0.407D+00
 Coeff:      0.593D+00 0.407D+00
 Gap=     0.239 Goal=   None    Shift=    0.000
 RMSDP=1.81D-06 MaxDP=5.60D-05 DE= 2.99D-08 OVMax= 8.69D-05

 Cycle   9  Pass 1  IDiag  1:
 RMSU=  1.51D-06    CP:  1.00D+00  7.79D-01
 E= -874.580126498195     Delta-E=       -0.000000065303 Rises=F Damp=F
 DIIS: error= 5.18D-06 at cycle   3 NSaved=   3.
 NSaved= 3 IEnMin= 3 EnMin= -874.580126498195     IErMin= 3 ErrMin= 5.18D-06
 ErrMax= 5.18D-06  0.00D+00 EMaxC= 1.00D-01 BMatC= 4.65D-09 BMatP= 4.13D-08
 IDIUse=1 WtCom= 1.00D+00 WtEn= 0.00D+00
 Coeff-Com:  0.129D+00 0.203D+00 0.667D+00
 Coeff:      0.129D+00 0.203D+00 0.667D+00
 Gap=     0.239 Goal=   None    Shift=    0.000
 RMSDP=5.56D-07 MaxDP=2.08D-05 DE=-6.53D-08 OVMax= 2.65D-05

 Cycle  10  Pass 1  IDiag  1:
 RMSU=  4.60D-07    CP:  1.00D+00  8.16D-01  8.25D-01
 E= -874.580126500201     Delta-E=       -0.000000002005 Rises=F Damp=F
 DIIS: error= 2.63D-06 at cycle   4 NSaved=   4.
 NSaved= 4 IEnMin= 4 EnMin= -874.580126500201     IErMin= 4 ErrMin= 2.63D-06
 ErrMax= 2.63D-06  0.00D+00 EMaxC= 1.00D-01 BMatC= 2.19D-09 BMatP= 4.65D-09
 IDIUse=1 WtCom= 1.00D+00 WtEn= 0.00D+00
 Coeff-Com:  0.114D-02 0.833D-01 0.472D+00 0.444D+00
 Coeff:      0.114D-02 0.833D-01 0.472D+00 0.444D+00
 Gap=     0.239 Goal=   None    Shift=    0.000
 RMSDP=2.50D-07 MaxDP=8.85D-06 DE=-2.01D-09 OVMax= 8.22D-06

 Cycle  11  Pass 1  IDiag  1:
 RMSU=  1.06D-07    CP:  1.00D+00  8.19D-01  8.71D-01  5.33D-01
 E= -874.580126501886     Delta-E=       -0.000000001686 Rises=F Damp=F
 DIIS: error= 3.11D-07 at cycle   5 NSaved=   5.
 NSaved= 5 IEnMin= 5 EnMin= -874.580126501886     IErMin= 5 ErrMin= 3.11D-07
 ErrMax= 3.11D-07  0.00D+00 EMaxC= 1.00D-01 BMatC= 4.10D-11 BMatP= 2.19D-09
 IDIUse=1 WtCom= 1.00D+00 WtEn= 0.00D+00
 Coeff-Com: -0.394D-02 0.370D-01 0.226D+00 0.239D+00 0.502D+00
 Coeff:     -0.394D-02 0.370D-01 0.226D+00 0.239D+00 0.502D+00
 Gap=     0.239 Goal=   None    Shift=    0.000
 RMSDP=5.11D-08 MaxDP=2.00D-06 DE=-1.69D-09 OVMax= 1.47D-06

 Cycle  12  Pass 1  IDiag  1:
 RMSU=  3.54D-08    CP:  1.00D+00  8.22D-01  8.66D-01  5.16D-01  6.99D-01
 E= -874.580126501925     Delta-E=       -0.000000000039 Rises=F Damp=F
 DIIS: error= 3.67D-08 at cycle   6 NSaved=   6.
 NSaved= 6 IEnMin= 6 EnMin= -874.580126501925     IErMin= 6 ErrMin= 3.67D-08
 ErrMax= 3.67D-08  0.00D+00 EMaxC= 1.00D-01 BMatC= 4.54D-13 BMatP= 4.10D-11
 IDIUse=1 WtCom= 1.00D+00 WtEn= 0.00D+00
 Coeff-Com: -0.911D-03 0.282D-02 0.209D-01 0.256D-01 0.109D+00 0.843D+00
 Coeff:     -0.911D-03 0.282D-02 0.209D-01 0.256D-01 0.109D+00 0.843D+00
 Gap=     0.239 Goal=   None    Shift=    0.000
 RMSDP=9.45D-09 MaxDP=3.32D-07 DE=-3.93D-11 OVMax= 4.35D-07

 SCF Done:  E(RB3LYP) =  -874.580126502     A.U. after   12 cycles
            NFock= 12  Conv=0.95D-08     -V/T= 2.0064
 KE= 8.690210833184D+02 PE=-3.309850232441D+03 EE= 9.412295336273D+02
 Leave Link  502 at Fri Mar 14 15:12:26 2025, MaxMem=  8589934592 cpu:              77.0 elap:              10.6
 (Enter /home/enzo/gaussian_versions/gdv.j21/gdv/l701.exe)
 ... and contract with generalized density number  0.
 Compute integral first derivatives.
 Leave Link  701 at Fri Mar 14 15:12:27 2025, MaxMem=  8589934592 cpu:               2.0 elap:               0.4
 (Enter /home/enzo/gaussian_versions/gdv.j21/gdv/l702.exe)
 L702 exits ... SP integral derivatives will be done elsewhere.
 Leave Link  702 at Fri Mar 14 15:12:27 2025, MaxMem=  8589934592 cpu:               0.2 elap:               0.2
 (Enter /home/enzo/gaussian_versions/gdv.j21/gdv/l703.exe)
 Integral derivatives from FoFJK, PRISM(SPDF).
 Compute integral first derivatives, UseDBF=F ICtDFT=           0.
 Calling FoFJK, ICntrl=      2127 FMM=F ISym2X=0 I1Cent= 0 IOpClX= 0 NMat=1 NMatS=1 NMatT=0.
 FoFJK:  IHMeth= 1 ICntrl=    2127 DoSepK=F KAlg= 0 I1Cent=           0 FoldK=F
 IRaf=         0 NMat=       1 IRICut=       1 DoRegI=T DoRafI=F ISym2E= 0 IDoP0=0 IntGTp=1.
 FoFCou: FMM=F IPFlag=           0 FMFlag=      100000 FMFlg1=         800
         NFxFlg=           0 DoJE=F BraDBF=F KetDBF=F FulRan=T
         wScrn=  0.000000 ICntrl=      2127 IOpCl=  0 I1Cent=           0 NGrid=           0
         NMat0=    1 NMatS0=      1 NMatT0=    0 NMatD0=    1 NMtDS0=    0 NMtDT0=    0
 Symmetry not used in FoFCou.
 Leave Link  703 at Fri Mar 14 15:12:29 2025, MaxMem=  8589934592 cpu:              15.6 elap:               2.0
 (Enter /home/enzo/gaussian_versions/gdv.j21/gdv/l716.exe)
 Dipole        =-5.87106871D-01 3.08557248D-01-5.68172189D-01
 ***** Axes restored to original set *****
 -------------------------------------------------------------------
 Center     Atomic                   Forces (Hartrees/Bohr)
 Number     Number              X              Y              Z
 -------------------------------------------------------------------
      1        6          -0.001096214   -0.000257325   -0.000638297
      2        6           0.002169006    0.001298582   -0.001309255
      3       16          -0.000498974    0.000786396   -0.000524918
      4        6          -0.002228605   -0.006238860    0.008651932
      5        8           0.000952196    0.003712769   -0.002838219
      6        7          -0.002608127    0.001882898   -0.003361595
      7        6          -0.000606717    0.000656000   -0.000673524
      8        6           0.004603091   -0.000811936   -0.001349716
      9        8          -0.001958594   -0.000188722   -0.000462763
     10        8          -0.000551513    0.000180749    0.001052987
     11        1           0.000057164   -0.000158748    0.000224599
     12        1           0.000132128    0.000622140   -0.000246183
     13        1          -0.000010505   -0.000172261    0.000314404
     14        1           0.000693476   -0.000996123   -0.000158444
     15        1           0.001070376   -0.000203293   -0.000336150
     16        1           0.000641325   -0.000953502    0.000745866
     17        1          -0.000440096    0.000319699    0.000356969
     18        1           0.000039629    0.000292591   -0.000321107
     19        1          -0.000359046    0.000228945    0.000873414
 -------------------------------------------------------------------
 Cartesian Forces:  Max     0.008651932 RMS     0.001925920
 Leave Link  716 at Fri Mar 14 15:12:29 2025, MaxMem=  8589934592 cpu:               0.2 elap:               0.2
 (Enter /home/enzo/gaussian_versions/gdv.j21/gdv/l103.exe)

 GradGradGradGradGradGradGradGradGradGradGradGradGradGradGradGradGradGrad
 Berny optimization.
 Using GEDIIS/GDIIS optimizer.
 FormGI is forming the generalized inverse of G from B-inverse, IUseBI=4.
 Internal  Forces:  Max     0.002780008 RMS     0.000969237
 Search for a local minimum.
 Step number   4 out of a maximum of   93
 All quantities printed in internal units (Hartrees-Bohrs-Radians)
 RMS Force = .96924D-03 SwitMx=.10000D-02 MixMth= 2
 Mixed Optimization -- En-DIIS/RFO-DIIS
 Update second derivatives using D2CorX and points    3    4
 DE= -6.08D-04 DEPred=-1.32D-03 R= 4.59D-01
 Trust test= 4.59D-01 RLast= 5.84D-01 DXMaxT set to 8.49D-01
 ITU=  0  1  1  0
 Use linear search instead of GDIIS.
     Eigenvalues ---    0.00201   0.00449   0.00751   0.00825   0.00883
     Eigenvalues ---    0.01049   0.01110   0.01273   0.01903   0.02814
     Eigenvalues ---    0.04843   0.05215   0.05394   0.05630   0.05766
     Eigenvalues ---    0.06703   0.07836   0.09717   0.13187   0.15945
     Eigenvalues ---    0.15997   0.16000   0.16003   0.16106   0.17246
     Eigenvalues ---    0.17839   0.20246   0.21651   0.22018   0.22107
     Eigenvalues ---    0.23423   0.24770   0.24976   0.25170   0.26100
     Eigenvalues ---    0.30120   0.30453   0.32557   0.32591   0.32596
     Eigenvalues ---    0.32608   0.32648   0.32816   0.33107   0.37146
     Eigenvalues ---    0.40621   0.41015   0.46186   0.49226   0.77682
     Eigenvalues ---    0.80339
 RFO step:  Lambda=-1.25471811D-03 EMin= 2.01265118D-03
 Quartic linear search produced a step of -0.28156.
 Iteration  1 RMS(Cart)=  0.06718436 RMS(Int)=  0.00453045
 Iteration  2 RMS(Cart)=  0.00526883 RMS(Int)=  0.00044912
 Iteration  3 RMS(Cart)=  0.00002665 RMS(Int)=  0.00044885
 Iteration  4 RMS(Cart)=  0.00000000 RMS(Int)=  0.00044885
 Variable       Old X    -DE/DX   Delta X   Delta X   Delta X     New X
                                 (Linear)    (Quad)   (Total)
    R1        2.88427  -0.00077   0.00053  -0.00231  -0.00178   2.88249
    R2        2.06803   0.00011   0.00031  -0.00002   0.00029   2.06832
    R3        2.06655   0.00067  -0.00030   0.00273   0.00243   2.06898
    R4        2.06354   0.00028   0.00032   0.00016   0.00048   2.06402
    R5        3.52835  -0.00094  -0.00249   0.00332   0.00082   3.52918
    R6        2.90886   0.00183  -0.00450   0.01389   0.00939   2.91826
    R7        2.07176   0.00047   0.00035   0.00065   0.00100   2.07276
    R8        2.54785   0.00112  -0.00067   0.00746   0.00679   2.55464
    R9        2.30495   0.00206   0.00050   0.00205   0.00255   2.30750
   R10        2.58723   0.00132   0.00108   0.00146   0.00254   2.58977
   R11        2.74725  -0.00046  -0.00042   0.00008  -0.00034   2.74691
   R12        1.91036   0.00073  -0.00021   0.00300   0.00280   1.91316
   R13        2.88701  -0.00061  -0.00252   0.00301   0.00049   2.88750
   R14        2.06156   0.00039  -0.00005   0.00199   0.00194   2.06350
   R15        2.06546   0.00024   0.00022   0.00006   0.00029   2.06575
   R16        2.28678   0.00134   0.00006   0.00371   0.00377   2.29055
   R17        2.54705   0.00187  -0.00273   0.01156   0.00883   2.55588
   R18        1.84431   0.00054  -0.00113   0.00479   0.00366   1.84796
    A1        1.92882  -0.00001  -0.00099   0.00195   0.00096   1.92978
    A2        1.91446   0.00023  -0.00031   0.00360   0.00329   1.91775
    A3        1.93439  -0.00015   0.00035  -0.00195  -0.00160   1.93279
    A4        1.89653  -0.00000  -0.00001  -0.00006  -0.00007   1.89646
    A5        1.90419  -0.00010   0.00032  -0.00269  -0.00237   1.90182
    A6        1.88452   0.00005   0.00067  -0.00091  -0.00024   1.88428
    A7        1.96824   0.00024  -0.00294   0.00878   0.00584   1.97408
    A8        1.94698  -0.00157  -0.00130  -0.00032  -0.00163   1.94535
    A9        1.92072   0.00036  -0.00231   0.00505   0.00275   1.92347
   A10        1.88407   0.00115   0.00226  -0.00119   0.00109   1.88516
   A11        1.86772  -0.00086   0.00143  -0.00931  -0.00784   1.85987
   A12        1.87183   0.00074   0.00329  -0.00409  -0.00079   1.87104
   A13        1.67411  -0.00048  -0.00182   0.00520   0.00338   1.67749
   A14        2.13372  -0.00179  -0.00183   0.00216  -0.00203   2.13169
   A15        1.99837   0.00278   0.00146   0.00692   0.00604   2.00441
   A16        2.15048  -0.00088  -0.00005  -0.00550  -0.00786   2.14262
   A17        2.13439  -0.00045  -0.00014  -0.00230  -0.00247   2.13191
   A18        2.08652  -0.00043   0.00089  -0.00506  -0.00419   2.08233
   A19        2.06089   0.00087  -0.00043   0.00582   0.00535   2.06624
   A20        1.93674  -0.00144   0.00177  -0.00908  -0.00731   1.92943
   A21        1.86632   0.00056   0.00030   0.00117   0.00146   1.86778
   A22        1.92429   0.00050  -0.00065   0.00412   0.00347   1.92776
   A23        1.93522   0.00012   0.00061  -0.00214  -0.00153   1.93369
   A24        1.87691   0.00048  -0.00075   0.00329   0.00255   1.87946
   A25        1.92502  -0.00023  -0.00129   0.00265   0.00135   1.92637
   A26        2.17287   0.00001  -0.00196   0.00377   0.00161   2.17448
   A27        1.95195   0.00048   0.00326  -0.00426  -0.00119   1.95076
   A28        2.15667  -0.00042  -0.00090   0.00219   0.00109   2.15777
   A29        1.85198   0.00138   0.00021   0.01026   0.01047   1.86245
    D1        1.07182  -0.00054  -0.00220  -0.00052  -0.00272   1.06911
    D2       -3.08765  -0.00002  -0.00232   0.00405   0.00173  -3.08592
    D3       -1.01219   0.00014  -0.00054   0.00205   0.00150  -1.01069
    D4       -3.12068  -0.00041  -0.00302   0.00291  -0.00010  -3.12079
    D5       -0.99697   0.00011  -0.00314   0.00749   0.00434  -0.99263
    D6        1.07849   0.00028  -0.00137   0.00548   0.00412   1.08261
    D7       -1.04140  -0.00030  -0.00217   0.00286   0.00069  -1.04070
    D8        1.08232   0.00021  -0.00229   0.00743   0.00514   1.08746
    D9       -3.12541   0.00038  -0.00051   0.00543   0.00491  -3.12049
   D10       -1.08258  -0.00040   0.08907  -0.24662  -0.15754  -1.24012
   D11        3.04169   0.00061   0.09107  -0.25124  -0.16018   2.88151
   D12        1.03187  -0.00038   0.08537  -0.24125  -0.15588   0.87599
   D13        0.02850   0.00175   0.01563   0.05830   0.07402   0.10252
   D14       -3.07641  -0.00162  -0.01382  -0.04757  -0.06148  -3.13789
   D15        2.20023   0.00182   0.01263   0.06835   0.08108   2.28131
   D16       -0.90468  -0.00156  -0.01682  -0.03752  -0.05442  -0.95910
   D17       -2.07585   0.00176   0.01714   0.05490   0.07212  -2.00373
   D18        1.10242  -0.00161  -0.01231  -0.05097  -0.06338   1.03905
   D19        3.09195   0.00182   0.01472   0.06035   0.07487  -3.11637
   D20        0.00809   0.00193   0.00544   0.09223   0.09740   0.10549
   D21       -0.01257  -0.00157  -0.01512  -0.04685  -0.06171  -0.07428
   D22       -3.09643  -0.00146  -0.02440  -0.01498  -0.03918  -3.13561
   D23       -1.89825  -0.00011   0.00334  -0.02205  -0.01869  -1.91694
   D24        0.21431  -0.00045   0.00532  -0.02925  -0.02391   0.19040
   D25        2.30733  -0.00010   0.00358  -0.02303  -0.01943   2.28790
   D26        1.18642  -0.00025   0.01251  -0.05381  -0.04133   1.14510
   D27       -2.98420  -0.00060   0.01449  -0.06102  -0.04655  -3.03075
   D28       -0.89118  -0.00025   0.01274  -0.05480  -0.04207  -0.93325
   D29       -1.65626  -0.00090   0.00072  -0.04477  -0.04404  -1.70030
   D30        1.42470   0.00034   0.01120  -0.01416  -0.00294   1.42176
   D31        2.55548  -0.00075  -0.00120  -0.03899  -0.04020   2.51528
   D32       -0.64674   0.00049   0.00928  -0.00838   0.00090  -0.64584
   D33        0.44962  -0.00085   0.00050  -0.04304  -0.04255   0.40707
   D34       -2.75260   0.00040   0.01098  -0.01243  -0.00145  -2.75405
   D35       -3.05616  -0.00089  -0.01027  -0.01770  -0.02796  -3.08411
   D36        0.02546   0.00036   0.00008   0.01264   0.01270   0.03817
         Item               Value     Threshold  Converged?
 Maximum Force            0.002780     0.000450     NO 
 RMS     Force            0.000969     0.000300     NO 
 Maximum Displacement     0.296126     0.001800     NO 
 RMS     Displacement     0.065988     0.001200     NO 
 Predicted change in Energy=-8.644498D-04
 Lowest energy point so far.  Saving SCF results.
 GradGradGradGradGradGradGradGradGradGradGradGradGradGradGradGradGradGrad

 Leave Link  103 at Fri Mar 14 15:12:29 2025, MaxMem=  8589934592 cpu:               0.9 elap:               0.3
 (Enter /home/enzo/gaussian_versions/gdv.j21/gdv/l202.exe)
                          Input orientation:                          
 ---------------------------------------------------------------------
 Center     Atomic      Atomic             Coordinates (Angstroms)
 Number     Number       Type             X           Y           Z
 ---------------------------------------------------------------------
      1          6           0        3.103166    1.082380    0.402075
      2          6           0        2.051046    0.202286   -0.265137
      3         16           0        1.906384   -1.487632    0.516545
      4          6           0        0.656521    0.864832   -0.231695
      5          8           0        0.487061    2.001253    0.181664
      6          7           0       -0.344527    0.129112   -0.810268
      7          6           0       -1.711965    0.614928   -0.894281
      8          6           0       -2.621906   -0.179823    0.041217
      9          8           0       -3.316833   -1.111594   -0.302417
     10          8           0       -2.543341    0.265995    1.315722
     11          1           0        4.094460    0.625626    0.320478
     12          1           0        3.128852    2.064000   -0.082148
     13          1           0        2.867841    1.233681    1.457869
     14          1           0        2.307162    0.038433   -1.319010
     15          1           0        3.089005   -1.958510    0.061350
     16          1           0       -0.147179   -0.810886   -1.130281
     17          1           0       -1.694036    1.670041   -0.613595
     18          1           0       -2.097106    0.498006   -1.910629
     19          1           0       -3.108213   -0.322686    1.854852
 ---------------------------------------------------------------------
                    Distance matrix (angstroms):
                    1          2          3          4          5
     1  C    0.000000
     2  C    1.525350   0.000000
     3  S    2.837315   1.867559   0.000000
     4  C    2.536743   1.544275   2.766967   0.000000
     5  O    2.781531   2.425276   3.781394   1.221079   0.000000
     6  N    3.776915   2.457904   3.072604   1.370448   2.276044
     7  C    5.008447   3.837493   4.416292   2.472084   2.813409
     8  C    5.873655   4.698546   4.737268   3.451647   3.800327
     9  O    6.821013   5.526463   5.300386   4.438334   4.939004
    10  O    5.777913   4.859173   4.849118   3.604472   3.671585
    11  H    1.094507   2.167418   3.048275   3.490206   3.863282
    12  H    1.094856   2.158965   3.803545   2.751870   2.655673
    13  H    1.092232   2.167874   3.035793   2.807243   2.808199
    14  H    2.164620   1.096855   2.420487   2.142383   3.068787
    15  H    3.059952   2.419296   1.351858   3.738197   4.739653
    16  H    4.061689   2.570445   2.717930   2.064322   3.167268
    17  H    4.938632   4.037496   4.920482   2.513828   2.345063
    18  H    5.721269   4.472389   5.085456   3.245896   3.649021
    19  H    6.531922   5.602491   5.319243   4.465098   4.596329
                    6          7          8          9         10
     6  N    0.000000
     7  C    1.453603   0.000000
     8  C    2.450902   1.527998   0.000000
     9  O    3.260654   2.430387   1.212108   0.000000
    10  O    3.061593   2.386850   1.352512   2.261508   0.000000
    11  H    4.607572   5.932143   6.770251   7.637617   6.721625
    12  H    4.042068   5.117898   6.174235   7.188865   6.112335
    13  H    4.084584   5.185566   5.843134   6.844641   5.498865
    14  H    2.701573   4.082416   5.117965   5.829695   5.524579
    15  H    4.111815   5.530382   5.981524   6.471812   6.184270
    16  H    1.012399   2.130070   2.809790   3.289755   3.589456
    17  H    2.057746   1.091957   2.170649   3.235397   2.532771
    18  H    2.102001   1.093145   2.131800   2.581645   3.265317
    19  H    3.865869   3.222788   1.883129   2.306450   0.977900
                   11         12         13         14         15
    11  H    0.000000
    12  H    1.778602   0.000000
    13  H    1.779883   1.768957   0.000000
    14  H    2.495426   2.511558   3.074741   0.000000
    15  H    2.784932   4.025266   3.491312   2.550383   0.000000
    16  H    4.707417   4.482849   4.468682   2.603988   3.634544
    17  H    5.955668   4.868048   5.029125   4.378281   6.041475
    18  H    6.582523   5.753809   6.044724   4.467527   6.067860
    19  H    7.425099   6.953360   6.188141   6.287296   6.655680
                   16         17         18         19
    16  H    0.000000
    17  H    2.968961   0.000000
    18  H    2.474744   1.793997   0.000000
    19  H    4.232857   3.473340   3.984309   0.000000
 Stoichiometry    C5H9NO3S
 Framework group  C1[X(C5H9NO3S)]
 Deg. of freedom    51
 Full point group                 C1      NOp   1
 RotChk:  IX=0 Diff= 1.53D-02
 Largest Abelian subgroup         C1      NOp   1
 Largest concise Abelian subgroup C1      NOp   1
                         Standard orientation:                         
 ---------------------------------------------------------------------
 Center     Atomic      Atomic             Coordinates (Angstroms)
 Number     Number       Type             X           Y           Z
 ---------------------------------------------------------------------
      1          6           0       -3.123590   -0.867946    0.340043
      2          6           0       -2.014682   -0.111541   -0.384434
      3         16           0       -1.830307    1.653451    0.197447
      4          6           0       -0.649614   -0.814205   -0.218183
      5          8           0       -0.539987   -1.898410    0.332740
      6          7           0        0.399462   -0.188663   -0.839684
      7          6           0        1.748604   -0.729040   -0.811897
      8          6           0        2.656234    0.139082    0.058362
      9          8           0        3.399217    0.998017   -0.365209
     10          8           0        2.515600   -0.148307    1.372484
     11          1           0       -4.092493   -0.389468    0.166166
     12          1           0       -3.171374   -1.898837   -0.025591
     13          1           0       -2.931437   -0.900314    1.414753
     14          1           0       -2.227165   -0.065754   -1.459538
     15          1           0       -2.976675    2.108092   -0.356323
     16          1           0        0.250922    0.712779   -1.275905
     17          1           0        1.678964   -1.741792   -0.409586
     18          1           0        2.173306   -0.747994   -1.818990
     19          1           0        3.084278    0.480212    1.860190
 ---------------------------------------------------------------------
 Rotational constants (GHZ):           1.8803258           0.6100142           0.5276961
 Leave Link  202 at Fri Mar 14 15:12:30 2025, MaxMem=  8589934592 cpu:               0.1 elap:               0.2
 (Enter /home/enzo/gaussian_versions/gdv.j21/gdv/l301.exe)
 Standard basis: 6-31G(d) (6D, 7F)
 Ernie: Thresh=  0.10000D-02 Tol=  0.10000D-05 Strict=F.
 There are   172 symmetry adapted cartesian basis functions of A   symmetry.
 There are   172 symmetry adapted basis functions of A   symmetry.
   172 basis functions,   340 primitive gaussians,   172 cartesian basis functions
    43 alpha electrons       43 beta electrons
       nuclear repulsion energy       622.1861149124 Hartrees.
 IExCor=      4002 DFT=T Ex+Corr=B3LYP ScaHFX=  0.200000
 ScaDFX=  0.800000  0.720000  1.000000  0.810000  1.000000  0.000000
 ScaDFX=  0.000000  0.000000  0.000000  0.000000  0.000000  0.000000
 IRadAn=      5 IRanWt=     -1 IRanGd=            0 ICorTp=0 IEmpDi=  4
 NAtoms=   19 NActive=   19 NUniq=   19 SFac= 1.00D+00 NAtFMM=   60 NAOKFM=F Big=F
 Integral buffers will be    131072 words long.
 Raffenetti 2 integral format.
 Two-electron integral symmetry is turned on.
 Leave Link  301 at Fri Mar 14 15:12:30 2025, MaxMem=  8589934592 cpu:               0.7 elap:               0.3
 (Enter /home/enzo/gaussian_versions/gdv.j21/gdv/l302.exe)
 NPDir=0 NMtPBC=     1 NCelOv=     1 NCel=       1 NClECP=     1 NCelD=      1
         NCelK=      1 NCelE2=     1 NClLst=     1 CellRange=     0.0.
 One-electron integrals computed using PRISM.
 One-electron integral symmetry used in STVInt
 NBasis=   172 RedAO= T EigKep=  3.09D-03  NBF=   172
 NBsUse=   172 1.00D-06 EigRej= -1.00D+00 NBFU=   172
 Precomputing XC quadrature grid using
 IXCGrd= 4 IRadAn=           5 IRanWt=          -1 IRanGd=           0 AccXCQ= 0.00D+00.
 Generated NRdTot=       0 NPtTot=      407950 NUsed=           0 NTot=          64
 NSgBfM=   172   172   172   172   172 MxSgAt=    19 MxSgA2=    19 SizInc=   0.000
 NMBTot=     3488 MaxBatPerAtom=       85 MaxMicBPerAtom=      204 NBfPt=            50931689.
 Leave Link  302 at Fri Mar 14 15:12:31 2025, MaxMem=  8589934592 cpu:               3.6 elap:               0.7
 (Enter /home/enzo/gaussian_versions/gdv.j21/gdv/l303.exe)
 DipDrv:  MaxL=1.
 Leave Link  303 at Fri Mar 14 15:12:31 2025, MaxMem=  8589934592 cpu:               0.4 elap:               0.3
 (Enter /home/enzo/gaussian_versions/gdv.j21/gdv/l401.exe)
 Initial guess from the checkpoint file:  "/local/home/enzo/scratch/Gau-2337652.chk"
 B after Tr=     0.000000   -0.000000    0.000000
         Rot=    0.999988   -0.002545   -0.000254   -0.004130 Ang=  -0.56 deg.
 AO Guess basis will be translated and rotated to current coordinates.
 JPrj=2 DoOrth=T DoCkMO=T.
 Generating alternative initial guess.
 ExpMin= 1.17D-01 ExpMax= 2.19D+04 ExpMxC= 3.30D+03 IAcc=3 IRadAn=         5 AccDes= 0.00D+00
 Harris functional with IExCor= 4002 and IRadAn=       5 diagonalized for initial guess.
 HarFok:  IExCor=    4002 AccDes= 0.00D+00 IRadAn=         5 IDoV= 1 UseB2=F ITyADJ=14 ICtDFT=  3500011
 FoFCou: FMM=F IPFlag=           0 FMFlag=      100000 FMFlg1=           0
         NFxFlg=           0 DoJE=T BraDBF=F KetDBF=T FulRan=T
         wScrn=  0.000000 ICntrl=       500 IOpCl=  0 I1Cent=   200000004 NGrid=           0
         NMat0=    1 NMatS0=      1 NMatT0=    0 NMatD0=    1 NMtDS0=    0 NMtDT0=    0
 Petite list used in FoFCou.
 Harris En= -874.545603857713    
 Leave Link  401 at Fri Mar 14 15:12:32 2025, MaxMem=  8589934592 cpu:              10.2 elap:               1.5
 (Enter /home/enzo/gaussian_versions/gdv.j21/gdv/l502.exe)
 Integral symmetry usage will be decided dynamically.
 Closed shell SCF:
 Using DIIS extrapolation, IDIIS=  1040.
 NGot=  8589934592 LenX=  8589843591 LenY=  8589813566
 Requested convergence on RMS density matrix=1.00D-08 within 128 cycles.
 Requested convergence on MAX density matrix=1.00D-06.
 Requested convergence on             energy=1.00D-06.
 No special actions if energy rises.
 Fock matrices will be formed incrementally for  20 cycles.
 Integral accuracy reduced to 1.0D-05 until final iterations.

 Cycle   1  Pass 0  IDiag  1:
 FoFJK:  IHMeth= 1 ICntrl=       0 DoSepK=F KAlg= 0 I1Cent=           0 FoldK=F
 IRaf= 900000000 NMat=       1 IRICut=       1 DoRegI=T DoRafI=F ISym2E= 0 IDoP0=0 IntGTp=1.
 FoFCou: FMM=F IPFlag=           0 FMFlag=      100000 FMFlg1=           0
         NFxFlg=           0 DoJE=F BraDBF=F KetDBF=F FulRan=T
         wScrn=  0.000000 ICntrl=         0 IOpCl=  0 I1Cent=           0 NGrid=           0
         NMat0=    1 NMatS0=      1 NMatT0=    0 NMatD0=    1 NMtDS0=    0 NMtDT0=    0
 Symmetry not used in FoFCou.
 E= -874.568169005629    
 DIIS: error= 5.11D-03 at cycle   1 NSaved=   1.
 NSaved= 1 IEnMin= 1 EnMin= -874.568169005629     IErMin= 1 ErrMin= 5.11D-03
 ErrMax= 5.11D-03  0.00D+00 EMaxC= 1.00D-01 BMatC= 5.75D-03 BMatP= 5.75D-03
 IDIUse=3 WtCom= 9.49D-01 WtEn= 5.11D-02
 Coeff-Com:  0.100D+01
 Coeff-En:   0.100D+01
 Coeff:      0.100D+01
 Gap=     1.611 Goal=   None    Shift=    0.000
 GapD=    1.611 DampG=2.000 DampE=1.000 DampFc=2.0000 IDamp=-1.
 RMSDP=1.02D-03 MaxDP=3.65D-02              OVMax= 5.36D-02

 Cycle   2  Pass 0  IDiag  1:
 RMSU=  1.02D-03    CP:  9.99D-01
 E= -874.580266778745     Delta-E=       -0.012097773116 Rises=F Damp=F
 DIIS: error= 4.22D-04 at cycle   2 NSaved=   2.
 NSaved= 2 IEnMin= 2 EnMin= -874.580266778745     IErMin= 2 ErrMin= 4.22D-04
 ErrMax= 4.22D-04  0.00D+00 EMaxC= 1.00D-01 BMatC= 1.01D-04 BMatP= 5.75D-03
 IDIUse=3 WtCom= 9.96D-01 WtEn= 4.22D-03
 Coeff-Com: -0.761D-01 0.108D+01
 Coeff-En:   0.000D+00 0.100D+01
 Coeff:     -0.758D-01 0.108D+01
 Gap=     0.240 Goal=   None    Shift=    0.000
 RMSDP=1.53D-04 MaxDP=5.40D-03 DE=-1.21D-02 OVMax= 7.92D-03

 Cycle   3  Pass 0  IDiag  1:
 RMSU=  1.18D-04    CP:  9.99D-01  1.10D+00
 E= -874.580386979512     Delta-E=       -0.000120200768 Rises=F Damp=F
 DIIS: error= 5.13D-04 at cycle   3 NSaved=   3.
 NSaved= 3 IEnMin= 3 EnMin= -874.580386979512     IErMin= 2 ErrMin= 4.22D-04
 ErrMax= 5.13D-04  0.00D+00 EMaxC= 1.00D-01 BMatC= 8.37D-05 BMatP= 1.01D-04
 IDIUse=3 WtCom= 9.95D-01 WtEn= 5.13D-03
 Coeff-Com: -0.465D-01 0.567D+00 0.480D+00
 Coeff-En:   0.000D+00 0.000D+00 0.100D+01
 Coeff:     -0.462D-01 0.564D+00 0.483D+00
 Gap=     0.240 Goal=   None    Shift=    0.000
 RMSDP=6.81D-05 MaxDP=1.86D-03 DE=-1.20D-04 OVMax= 2.69D-03

 Cycle   4  Pass 0  IDiag  1:
 RMSU=  5.43D-05    CP:  9.99D-01  1.11D+00  6.71D-01
 E= -874.580440872226     Delta-E=       -0.000053892714 Rises=F Damp=F
 DIIS: error= 2.52D-04 at cycle   4 NSaved=   4.
 NSaved= 4 IEnMin= 4 EnMin= -874.580440872226     IErMin= 4 ErrMin= 2.52D-04
 ErrMax= 2.52D-04  0.00D+00 EMaxC= 1.00D-01 BMatC= 2.13D-05 BMatP= 8.37D-05
 IDIUse=3 WtCom= 9.97D-01 WtEn= 2.52D-03
 Coeff-Com: -0.148D-01 0.166D+00 0.332D+00 0.517D+00
 Coeff-En:   0.000D+00 0.000D+00 0.218D+00 0.782D+00
 Coeff:     -0.147D-01 0.166D+00 0.332D+00 0.517D+00
 Gap=     0.240 Goal=   None    Shift=    0.000
 RMSDP=2.81D-05 MaxDP=7.57D-04 DE=-5.39D-05 OVMax= 1.15D-03

 Cycle   5  Pass 0  IDiag  1:
 RMSU=  2.03D-05    CP:  9.99D-01  1.11D+00  7.58D-01  7.19D-01
 E= -874.580456918009     Delta-E=       -0.000016045783 Rises=F Damp=F
 DIIS: error= 5.50D-05 at cycle   5 NSaved=   5.
 NSaved= 5 IEnMin= 5 EnMin= -874.580456918009     IErMin= 5 ErrMin= 5.50D-05
 ErrMax= 5.50D-05  0.00D+00 EMaxC= 1.00D-01 BMatC= 1.23D-06 BMatP= 2.13D-05
 IDIUse=1 WtCom= 1.00D+00 WtEn= 0.00D+00
 Coeff-Com: -0.375D-02 0.347D-01 0.138D+00 0.285D+00 0.547D+00
 Coeff:     -0.375D-02 0.347D-01 0.138D+00 0.285D+00 0.547D+00
 Gap=     0.240 Goal=   None    Shift=    0.000
 RMSDP=8.36D-06 MaxDP=2.15D-04 DE=-1.60D-05 OVMax= 2.67D-04

 Initial convergence to 1.0D-05 achieved.  Increase integral accuracy.
 Cycle   6  Pass 1  IDiag  1:
 E= -874.580439166921     Delta-E=        0.000017751089 Rises=F Damp=F
 DIIS: error= 1.69D-05 at cycle   1 NSaved=   1.
 NSaved= 1 IEnMin= 1 EnMin= -874.580439166921     IErMin= 1 ErrMin= 1.69D-05
 ErrMax= 1.69D-05  0.00D+00 EMaxC= 1.00D-01 BMatC= 1.75D-07 BMatP= 1.75D-07
 IDIUse=1 WtCom= 1.00D+00 WtEn= 0.00D+00
 Coeff-Com:  0.100D+01
 Coeff:      0.100D+01
 Gap=     0.240 Goal=   None    Shift=    0.000
 RMSDP=8.36D-06 MaxDP=2.15D-04 DE= 1.78D-05 OVMax= 1.89D-04

 Cycle   7  Pass 1  IDiag  1:
 RMSU=  7.06D-06    CP:  1.00D+00
 E= -874.580438948768     Delta-E=        0.000000218153 Rises=F Damp=F
 DIIS: error= 3.19D-05 at cycle   2 NSaved=   2.
 NSaved= 2 IEnMin= 1 EnMin= -874.580439166921     IErMin= 1 ErrMin= 1.69D-05
 ErrMax= 3.19D-05  0.00D+00 EMaxC= 1.00D-01 BMatC= 4.54D-07 BMatP= 1.75D-07
 IDIUse=1 WtCom= 1.00D+00 WtEn= 0.00D+00
 Coeff-Com:  0.623D+00 0.377D+00
 Coeff:      0.623D+00 0.377D+00
 Gap=     0.240 Goal=   None    Shift=    0.000
 RMSDP=3.64D-06 MaxDP=1.03D-04 DE= 2.18D-07 OVMax= 1.21D-04

 Cycle   8  Pass 1  IDiag  1:
 RMSU=  2.47D-06    CP:  1.00D+00  6.23D-01
 E= -874.580439321933     Delta-E=       -0.000000373165 Rises=F Damp=F
 DIIS: error= 5.91D-06 at cycle   3 NSaved=   3.
 NSaved= 3 IEnMin= 3 EnMin= -874.580439321933     IErMin= 3 ErrMin= 5.91D-06
 ErrMax= 5.91D-06  0.00D+00 EMaxC= 1.00D-01 BMatC= 8.67D-09 BMatP= 1.75D-07
 IDIUse=1 WtCom= 1.00D+00 WtEn= 0.00D+00
 Coeff-Com:  0.211D+00 0.170D+00 0.619D+00
 Coeff:      0.211D+00 0.170D+00 0.619D+00
 Gap=     0.240 Goal=   None    Shift=    0.000
 RMSDP=8.81D-07 MaxDP=2.70D-05 DE=-3.73D-07 OVMax= 3.89D-05

 Cycle   9  Pass 1  IDiag  1:
 RMSU=  8.30D-07    CP:  1.00D+00  6.33D-01  8.88D-01
 E= -874.580439324817     Delta-E=       -0.000000002883 Rises=F Damp=F
 DIIS: error= 4.82D-06 at cycle   4 NSaved=   4.
 NSaved= 4 IEnMin= 4 EnMin= -874.580439324817     IErMin= 4 ErrMin= 4.82D-06
 ErrMax= 4.82D-06  0.00D+00 EMaxC= 1.00D-01 BMatC= 5.14D-09 BMatP= 8.67D-09
 IDIUse=1 WtCom= 1.00D+00 WtEn= 0.00D+00
 Coeff-Com:  0.295D-01 0.491D-01 0.456D+00 0.466D+00
 Coeff:      0.295D-01 0.491D-01 0.456D+00 0.466D+00
 Gap=     0.240 Goal=   None    Shift=    0.000
 RMSDP=4.15D-07 MaxDP=1.36D-05 DE=-2.88D-09 OVMax= 1.98D-05

 Cycle  10  Pass 1  IDiag  1:
 RMSU=  2.35D-07    CP:  1.00D+00  6.42D-01  9.35D-01  6.22D-01
 E= -874.580439329059     Delta-E=       -0.000000004243 Rises=F Damp=F
 DIIS: error= 5.00D-07 at cycle   5 NSaved=   5.
 NSaved= 5 IEnMin= 5 EnMin= -874.580439329059     IErMin= 5 ErrMin= 5.00D-07
 ErrMax= 5.00D-07  0.00D+00 EMaxC= 1.00D-01 BMatC= 8.25D-11 BMatP= 5.14D-09
 IDIUse=1 WtCom= 1.00D+00 WtEn= 0.00D+00
 Coeff-Com: -0.604D-02 0.644D-02 0.144D+00 0.193D+00 0.662D+00
 Coeff:     -0.604D-02 0.644D-02 0.144D+00 0.193D+00 0.662D+00
 Gap=     0.240 Goal=   None    Shift=    0.000
 RMSDP=8.15D-08 MaxDP=3.09D-06 DE=-4.24D-09 OVMax= 3.49D-06

 Cycle  11  Pass 1  IDiag  1:
 RMSU=  6.12D-08    CP:  1.00D+00  6.46D-01  9.41D-01  6.15D-01  8.12D-01
 E= -874.580439329139     Delta-E=       -0.000000000080 Rises=F Damp=F
 DIIS: error= 9.59D-08 at cycle   6 NSaved=   6.
 NSaved= 6 IEnMin= 6 EnMin= -874.580439329139     IErMin= 6 ErrMin= 9.59D-08
 ErrMax= 9.59D-08  0.00D+00 EMaxC= 1.00D-01 BMatC= 5.00D-12 BMatP= 8.25D-11
 IDIUse=1 WtCom= 1.00D+00 WtEn= 0.00D+00
 Coeff-Com: -0.430D-02 0.290D-03 0.399D-01 0.609D-01 0.272D+00 0.631D+00
 Coeff:     -0.430D-02 0.290D-03 0.399D-01 0.609D-01 0.272D+00 0.631D+00
 Gap=     0.240 Goal=   None    Shift=    0.000
 RMSDP=1.74D-08 MaxDP=4.70D-07 DE=-7.96D-11 OVMax= 7.09D-07

 Cycle  12  Pass 1  IDiag  1:
 RMSU=  1.48D-08    CP:  1.00D+00  6.46D-01  9.43D-01  6.21D-01  8.35D-01
                    CP:  1.03D+00
 E= -874.580439329142     Delta-E=       -0.000000000003 Rises=F Damp=F
 DIIS: error= 3.91D-08 at cycle   7 NSaved=   7.
 NSaved= 7 IEnMin= 7 EnMin= -874.580439329142     IErMin= 7 ErrMin= 3.91D-08
 ErrMax= 3.91D-08  0.00D+00 EMaxC= 1.00D-01 BMatC= 8.52D-13 BMatP= 5.00D-12
 IDIUse=1 WtCom= 1.00D+00 WtEn= 0.00D+00
 Coeff-Com: -0.106D-02-0.693D-03-0.226D-02 0.115D-03 0.219D-01 0.291D+00
 Coeff-Com:  0.691D+00
 Coeff:     -0.106D-02-0.693D-03-0.226D-02 0.115D-03 0.219D-01 0.291D+00
 Coeff:      0.691D+00
 Gap=     0.240 Goal=   None    Shift=    0.000
 RMSDP=9.63D-09 MaxDP=2.83D-07 DE=-2.73D-12 OVMax= 3.43D-07

 SCF Done:  E(RB3LYP) =  -874.580439329     A.U. after   12 cycles
            NFock= 12  Conv=0.96D-08     -V/T= 2.0065
 KE= 8.689725084892D+02 PE=-3.304160156082D+03 EE= 9.384210933510D+02
 Leave Link  502 at Fri Mar 14 15:12:42 2025, MaxMem=  8589934592 cpu:              72.8 elap:               9.8
 (Enter /home/enzo/gaussian_versions/gdv.j21/gdv/l701.exe)
 ... and contract with generalized density number  0.
 Compute integral first derivatives.
 Leave Link  701 at Fri Mar 14 15:12:43 2025, MaxMem=  8589934592 cpu:               2.9 elap:               0.6
 (Enter /home/enzo/gaussian_versions/gdv.j21/gdv/l702.exe)
 L702 exits ... SP integral derivatives will be done elsewhere.
 Leave Link  702 at Fri Mar 14 15:12:43 2025, MaxMem=  8589934592 cpu:               0.2 elap:               0.3
 (Enter /home/enzo/gaussian_versions/gdv.j21/gdv/l703.exe)
 Integral derivatives from FoFJK, PRISM(SPDF).
 Compute integral first derivatives, UseDBF=F ICtDFT=           0.
 Calling FoFJK, ICntrl=      2127 FMM=F ISym2X=0 I1Cent= 0 IOpClX= 0 NMat=1 NMatS=1 NMatT=0.
 FoFJK:  IHMeth= 1 ICntrl=    2127 DoSepK=F KAlg= 0 I1Cent=           0 FoldK=F
 IRaf=         0 NMat=       1 IRICut=       1 DoRegI=T DoRafI=F ISym2E= 0 IDoP0=0 IntGTp=1.
 FoFCou: FMM=F IPFlag=           0 FMFlag=      100000 FMFlg1=         800
         NFxFlg=           0 DoJE=F BraDBF=F KetDBF=F FulRan=T
         wScrn=  0.000000 ICntrl=      2127 IOpCl=  0 I1Cent=           0 NGrid=           0
         NMat0=    1 NMatS0=      1 NMatT0=    0 NMatD0=    1 NMtDS0=    0 NMtDT0=    0
 Symmetry not used in FoFCou.
 Leave Link  703 at Fri Mar 14 15:12:45 2025, MaxMem=  8589934592 cpu:              15.2 elap:               2.0
 (Enter /home/enzo/gaussian_versions/gdv.j21/gdv/l716.exe)
 Dipole        =-5.61594384D-01 3.49464402D-01-5.86580014D-01
 ***** Axes restored to original set *****
 -------------------------------------------------------------------
 Center     Atomic                   Forces (Hartrees/Bohr)
 Number     Number              X              Y              Z
 -------------------------------------------------------------------
      1        6          -0.000298458    0.000210013   -0.000256296
      2        6          -0.001219587   -0.000454953    0.002531710
      3       16           0.001510462   -0.000190264   -0.001525757
      4        6           0.000086856    0.002049837   -0.007338680
      5        8           0.001178617   -0.000368601    0.002882207
      6        7          -0.000067280   -0.000242828   -0.000096559
      7        6           0.000284846   -0.001486728    0.001669971
      8        6          -0.002605536    0.000737988   -0.000558499
      9        8           0.001828447    0.001754533    0.001394615
     10        8          -0.000172166   -0.002156634   -0.000611638
     11        1          -0.000186603   -0.000312613    0.000261095
     12        1          -0.000231102   -0.000280307   -0.000017790
     13        1           0.000171991   -0.000049139    0.000275004
     14        1          -0.000589622   -0.000001361    0.000311834
     15        1          -0.000386273    0.000455888    0.000676208
     16        1          -0.000017668   -0.000115256    0.001831300
     17        1          -0.000135285   -0.000362758    0.000017469
     18        1           0.000123425    0.000031912   -0.000166217
     19        1           0.000724936    0.000781270   -0.001279978
 -------------------------------------------------------------------
 Cartesian Forces:  Max     0.007338680 RMS     0.001421029
 Leave Link  716 at Fri Mar 14 15:12:45 2025, MaxMem=  8589934592 cpu:               0.2 elap:               0.2
 (Enter /home/enzo/gaussian_versions/gdv.j21/gdv/l103.exe)

 GradGradGradGradGradGradGradGradGradGradGradGradGradGradGradGradGradGrad
 Berny optimization.
 Using GEDIIS/GDIIS optimizer.
 FormGI is forming the generalized inverse of G from B-inverse, IUseBI=4.
 Internal  Forces:  Max     0.002792135 RMS     0.000831201
 Search for a local minimum.
 Step number   5 out of a maximum of   93
 All quantities printed in internal units (Hartrees-Bohrs-Radians)
 RMS Force = .83120D-03 SwitMx=.10000D-02 MixMth= 2
 Mixed Optimization -- En-DIIS/RFO-DIIS
 Swapping is turned off.
 Update second derivatives using D2CorX and points    4    5
 DE= -3.13D-04 DEPred=-8.64D-04 R= 3.62D-01
 Trust test= 3.62D-01 RLast= 3.71D-01 DXMaxT set to 8.49D-01
 ITU=  0  0  1  1  0
     Eigenvalues ---    0.00288   0.00450   0.00721   0.00785   0.00880
     Eigenvalues ---    0.01038   0.01102   0.01253   0.01895   0.04000
     Eigenvalues ---    0.04905   0.05186   0.05443   0.05627   0.05743
     Eigenvalues ---    0.06726   0.07865   0.09650   0.13146   0.15894
     Eigenvalues ---    0.15980   0.16000   0.16021   0.16109   0.17275
     Eigenvalues ---    0.17961   0.19863   0.21710   0.22053   0.22210
     Eigenvalues ---    0.23479   0.24723   0.24794   0.25032   0.26125
     Eigenvalues ---    0.29996   0.30540   0.32565   0.32587   0.32604
     Eigenvalues ---    0.32630   0.32648   0.32684   0.33112   0.37131
     Eigenvalues ---    0.40612   0.40975   0.46185   0.49814   0.77938
     Eigenvalues ---    0.80492
 En-DIIS/RFO-DIIS/Sim-DIIS IScMMF=       -3 using points:     5    4
 RFO step:  Lambda=-6.59773569D-04.
 NNeg= 0 NGDIIS= 2 SimSw=  2.50D-01 Rises=F DC= -3.13D-04 SmlDif=  1.00D-05
 NRisDI= 0 DoIntr=F SqrtH=F CThrHd= 10.0 CDAdj=  3.0
 RMS Error=  0.2379229471D-01 NUsed= 2 OKEnD=T EnDIS=F
 InvSVX:  RCond= 1.14D-01 Info=           0 Equed=N FErr=  1.85D-15 BErr=  6.24D-17
 DidBck=TT Rises=F RFO-DIIS coefs:    0.62109    0.37891
 Iteration  1 RMS(Cart)=  0.03693039 RMS(Int)=  0.00206400
 Iteration  2 RMS(Cart)=  0.00200352 RMS(Int)=  0.00016563
 Iteration  3 RMS(Cart)=  0.00000607 RMS(Int)=  0.00016561
 Iteration  4 RMS(Cart)=  0.00000000 RMS(Int)=  0.00016561
 Variable       Old X    -DE/DX   Delta X   Delta X   Delta X     New X
                                 (Linear)    (Quad)   (Total)
    R1        2.88249  -0.00051   0.00067  -0.00229  -0.00161   2.88088
    R2        2.06832  -0.00006  -0.00011  -0.00004  -0.00015   2.06817
    R3        2.06898  -0.00025  -0.00092   0.00060  -0.00032   2.06866
    R4        2.06402   0.00022  -0.00018   0.00071   0.00052   2.06454
    R5        3.52918  -0.00068  -0.00031  -0.00261  -0.00292   3.52625
    R6        2.91826  -0.00089  -0.00356   0.00224  -0.00132   2.91694
    R7        2.07276  -0.00044  -0.00038  -0.00022  -0.00060   2.07216
    R8        2.55464  -0.00072  -0.00257   0.00054  -0.00203   2.55261
    R9        2.30750   0.00047  -0.00097   0.00159   0.00062   2.30813
   R10        2.58977  -0.00033  -0.00096   0.00075  -0.00021   2.58956
   R11        2.74691  -0.00031   0.00013  -0.00109  -0.00096   2.74595
   R12        1.91316  -0.00048  -0.00106   0.00022  -0.00084   1.91232
   R13        2.88750  -0.00109  -0.00019  -0.00248  -0.00267   2.88483
   R14        2.06350  -0.00035  -0.00073  -0.00000  -0.00074   2.06276
   R15        2.06575   0.00011  -0.00011   0.00041   0.00030   2.06604
   R16        2.29055  -0.00279  -0.00143  -0.00111  -0.00254   2.28802
   R17        2.55588  -0.00220  -0.00334  -0.00013  -0.00348   2.55240
   R18        1.84796  -0.00159  -0.00139  -0.00133  -0.00272   1.84524
    A1        1.92978  -0.00027  -0.00036  -0.00126  -0.00163   1.92815
    A2        1.91775  -0.00030  -0.00125   0.00069  -0.00055   1.91719
    A3        1.93279   0.00027   0.00061   0.00003   0.00063   1.93342
    A4        1.89646   0.00036   0.00003   0.00218   0.00221   1.89866
    A5        1.90182  -0.00014   0.00090  -0.00260  -0.00171   1.90011
    A6        1.88428   0.00010   0.00009   0.00104   0.00113   1.88541
    A7        1.97408  -0.00076  -0.00221   0.00003  -0.00219   1.97189
    A8        1.94535  -0.00102   0.00062  -0.00413  -0.00351   1.94183
    A9        1.92347   0.00077  -0.00104   0.00187   0.00082   1.92429
   A10        1.88516   0.00192  -0.00041   0.01104   0.01063   1.89579
   A11        1.85987  -0.00053   0.00297  -0.00866  -0.00569   1.85418
   A12        1.87104  -0.00032   0.00030  -0.00022   0.00008   1.87113
   A13        1.67749  -0.00006  -0.00128  -0.00035  -0.00163   1.67585
   A14        2.13169  -0.00228   0.00077  -0.00898  -0.00735   2.12434
   A15        2.00441   0.00054  -0.00229   0.00574   0.00431   2.00872
   A16        2.14262   0.00192   0.00298   0.00188   0.00572   2.14834
   A17        2.13191   0.00010   0.00094  -0.00144  -0.00061   2.13130
   A18        2.08233  -0.00052   0.00159  -0.00467  -0.00320   2.07913
   A19        2.06624   0.00038  -0.00203   0.00340   0.00126   2.06750
   A20        1.92943   0.00125   0.00277   0.00002   0.00280   1.93222
   A21        1.86778  -0.00044  -0.00055  -0.00072  -0.00127   1.86651
   A22        1.92776  -0.00027  -0.00131   0.00175   0.00043   1.92819
   A23        1.93369  -0.00033   0.00058  -0.00167  -0.00108   1.93261
   A24        1.87946  -0.00034  -0.00096   0.00067  -0.00030   1.87916
   A25        1.92637   0.00014  -0.00051  -0.00006  -0.00057   1.92580
   A26        2.17448   0.00048  -0.00061   0.00167   0.00113   2.17561
   A27        1.95076   0.00025   0.00045   0.00047   0.00098   1.95175
   A28        2.15777  -0.00075  -0.00041  -0.00213  -0.00248   2.15528
   A29        1.86245  -0.00087  -0.00397   0.00030  -0.00366   1.85878
    D1        1.06911  -0.00074   0.00103  -0.01348  -0.01245   1.05665
    D2       -3.08592   0.00046  -0.00066  -0.00211  -0.00276  -3.08868
    D3       -1.01069  -0.00009  -0.00057  -0.00379  -0.00436  -1.01504
    D4       -3.12079  -0.00065   0.00004  -0.01113  -0.01110  -3.13188
    D5       -0.99263   0.00055  -0.00165   0.00024  -0.00141  -0.99403
    D6        1.08261  -0.00001  -0.00156  -0.00144  -0.00300   1.07961
    D7       -1.04070  -0.00055  -0.00026  -0.00938  -0.00965  -1.05035
    D8        1.08746   0.00064  -0.00195   0.00199   0.00004   1.08750
    D9       -3.12049   0.00009  -0.00186   0.00031  -0.00155  -3.12205
   D10       -1.24012   0.00027   0.05969   0.04970   0.10939  -1.13073
   D11        2.88151   0.00069   0.06069   0.04690   0.10758   2.98909
   D12        0.87599   0.00041   0.05906   0.04617   0.10525   0.98124
   D13        0.10252  -0.00058  -0.02804   0.03837   0.01036   0.11288
   D14       -3.13789   0.00158   0.02329   0.02352   0.04678  -3.09111
   D15        2.28131  -0.00087  -0.03072   0.04342   0.01273   2.29404
   D16       -0.95910   0.00129   0.02062   0.02857   0.04916  -0.90994
   D17       -2.00373  -0.00071  -0.02733   0.03867   0.01138  -1.99235
   D18        1.03905   0.00145   0.02401   0.02382   0.04780   1.08685
   D19       -3.11637  -0.00078  -0.02837   0.01608  -0.01230  -3.12867
   D20        0.10549  -0.00024  -0.03691   0.05607   0.01913   0.12462
   D21       -0.07428   0.00112   0.02338   0.00044   0.02386  -0.05042
   D22       -3.13561   0.00166   0.01484   0.04043   0.05529  -3.08032
   D23       -1.91694   0.00014   0.00708  -0.00818  -0.00109  -1.91803
   D24        0.19040   0.00019   0.00906  -0.01064  -0.00157   0.18883
   D25        2.28790  -0.00005   0.00736  -0.01015  -0.00278   2.28511
   D26        1.14510  -0.00043   0.01566  -0.04817  -0.03252   1.11258
   D27       -3.03075  -0.00038   0.01764  -0.05063  -0.03299  -3.06375
   D28       -0.93325  -0.00063   0.01594  -0.05014  -0.03421  -0.96746
   D29       -1.70030   0.00012   0.01669  -0.02901  -0.01232  -1.71262
   D30        1.42176  -0.00067   0.00112  -0.02856  -0.02745   1.39431
   D31        2.51528   0.00008   0.01523  -0.02707  -0.01183   2.50345
   D32       -0.64584  -0.00071  -0.00034  -0.02662  -0.02697  -0.67281
   D33        0.40707   0.00032   0.01612  -0.02643  -0.01031   0.39677
   D34       -2.75405  -0.00047   0.00055  -0.02598  -0.02544  -2.77949
   D35       -3.08411   0.00029   0.01059  -0.00782   0.00276  -3.08135
   D36        0.03817  -0.00048  -0.00481  -0.00732  -0.01212   0.02605
         Item               Value     Threshold  Converged?
 Maximum Force            0.002792     0.000450     NO 
 RMS     Force            0.000831     0.000300     NO 
 Maximum Displacement     0.132412     0.001800     NO 
 RMS     Displacement     0.036640     0.001200     NO 
 Predicted change in Energy=-3.464734D-04
 Lowest energy point so far.  Saving SCF results.
 GradGradGradGradGradGradGradGradGradGradGradGradGradGradGradGradGradGrad

 Leave Link  103 at Fri Mar 14 15:12:46 2025, MaxMem=  8589934592 cpu:               0.8 elap:               0.3
 (Enter /home/enzo/gaussian_versions/gdv.j21/gdv/l202.exe)
                          Input orientation:                          
 ---------------------------------------------------------------------
 Center     Atomic      Atomic             Coordinates (Angstroms)
 Number     Number       Type             X           Y           Z
 ---------------------------------------------------------------------
      1          6           0        3.085873    1.067084    0.416375
      2          6           0        2.047712    0.201785   -0.289012
      3         16           0        1.902398   -1.506999    0.446475
      4          6           0        0.655473    0.867973   -0.266764
      5          8           0        0.492480    2.000862    0.159658
      6          7           0       -0.352260    0.127073   -0.826554
      7          6           0       -1.719265    0.614102   -0.901278
      8          6           0       -2.623212   -0.166675    0.049369
      9          8           0       -3.333225   -1.090740   -0.279171
     10          8           0       -2.507727    0.268305    1.322858
     11          1           0        4.077354    0.608984    0.346478
     12          1           0        3.121677    2.057647   -0.048212
     13          1           0        2.830284    1.197140    1.470574
     14          1           0        2.322909    0.060405   -1.340998
     15          1           0        3.150453   -1.908038    0.120683
     16          1           0       -0.163374   -0.825289   -1.111822
     17          1           0       -1.695517    1.671366   -0.630819
     18          1           0       -2.114963    0.489398   -1.912804
     19          1           0       -3.070677   -0.314941    1.867272
 ---------------------------------------------------------------------
                    Distance matrix (angstroms):
                    1          2          3          4          5
     1  C    0.000000
     2  C    1.524496   0.000000
     3  S    2.833271   1.866012   0.000000
     4  C    2.532423   1.543578   2.775613   0.000000
     5  O    2.768308   2.420067   3.791467   1.221408   0.000000
     6  N    3.774817   2.460568   3.061744   1.370337   2.279755
     7  C    5.003074   3.838618   4.408168   2.471120   2.817890
     8  C    5.852393   4.697638   4.736593   3.452566   3.797093
     9  O    6.807702   5.534005   5.302036   4.443695   4.938279
    10  O    5.722597   4.832656   4.834144   3.590589   3.654590
    11  H    1.094430   2.165434   3.036087   3.486032   3.850136
    12  H    1.094687   2.157686   3.799745   2.746863   2.638013
    13  H    1.092509   2.167785   3.036794   2.802945   2.798178
    14  H    2.164226   1.096538   2.414258   2.141609   3.060687
    15  H    2.990477   2.415625   1.350782   3.752503   4.727138
    16  H    4.058826   2.573092   2.675899   2.061983   3.167639
    17  H    4.931882   4.035872   4.920118   2.511001   2.349628
    18  H    5.727782   4.477419   5.068627   3.244700   3.657646
    19  H    6.474427   5.578035   5.307649   4.453941   4.579845
                    6          7          8          9         10
     6  N    0.000000
     7  C    1.453094   0.000000
     8  C    2.451684   1.526586   0.000000
     9  O    3.266321   2.428657   1.210766   0.000000
    10  O    3.047287   2.384959   1.350673   2.257199   0.000000
    11  H    4.607572   5.929394   6.751853   7.628709   6.665784
    12  H    4.049836   5.123111   6.161241   7.185503   6.063973
    13  H    4.068221   5.163721   5.798313   6.803297   5.420232
    14  H    2.724999   4.103547   5.142839   5.868940   5.520361
    15  H    4.160280   5.578507   6.030973   6.547209   6.180347
    16  H    1.011954   2.130017   2.798739   3.288119   3.552408
    17  H    2.056087   1.091568   2.168333   3.230321   2.538724
    18  H    2.101985   1.093303   2.130463   2.578712   3.266902
    19  H    3.852515   3.217811   1.878025   2.297392   0.976461
                   11         12         13         14         15
    11  H    0.000000
    12  H    1.779810   0.000000
    13  H    1.778961   1.769772   0.000000
    14  H    2.495314   2.509642   3.074822   0.000000
    15  H    2.691753   3.969385   3.401006   2.587684   0.000000
    16  H    4.708244   4.498239   4.440831   2.649260   3.697684
    17  H    5.950614   4.867649   5.012346   4.387173   6.071269
    18  H    6.592681   5.775682   6.033540   4.495075   6.132485
    19  H    7.366193   6.902428   6.104515   6.286863   6.655147
                   16         17         18         19
    16  H    0.000000
    17  H    2.968520   0.000000
    18  H    2.485693   1.793451   0.000000
    19  H    4.193789   3.475189   3.981121   0.000000
 Stoichiometry    C5H9NO3S
 Framework group  C1[X(C5H9NO3S)]
 Deg. of freedom    51
 Full point group                 C1      NOp   1
 RotChk:  IX=0 Diff= 2.23D-02
 Largest Abelian subgroup         C1      NOp   1
 Largest concise Abelian subgroup C1      NOp   1
                         Standard orientation:                         
 ---------------------------------------------------------------------
 Center     Atomic      Atomic             Coordinates (Angstroms)
 Number     Number       Type             X           Y           Z
 ---------------------------------------------------------------------
      1          6           0       -3.101907   -0.869396    0.376102
      2          6           0       -2.014067   -0.116723   -0.381642
      3         16           0       -1.830502    1.654642    0.175647
      4          6           0       -0.647214   -0.820685   -0.244602
      5          8           0       -0.536399   -1.906863    0.302916
      6          7           0        0.401649   -0.175328   -0.845619
      7          6           0        1.752378   -0.710651   -0.824507
      8          6           0        2.655085    0.136982    0.068298
      9          8           0        3.406226    0.998234   -0.331686
     10          8           0        2.487515   -0.157334    1.375821
     11          1           0       -4.074312   -0.389999    0.226486
     12          1           0       -3.158825   -1.901807    0.016621
     13          1           0       -2.881753   -0.895554    1.445880
     14          1           0       -2.253478   -0.078453   -1.451041
     15          1           0       -3.053777    2.058471   -0.230720
     16          1           0        0.254554    0.747136   -1.234815
     17          1           0        1.683821   -1.732193   -0.445995
     18          1           0        2.181409   -0.705976   -1.830102
     19          1           0        3.054469    0.461934    1.874365
 ---------------------------------------------------------------------
 Rotational constants (GHZ):           1.8782966           0.6122932           0.5293334
 Leave Link  202 at Fri Mar 14 15:12:46 2025, MaxMem=  8589934592 cpu:               0.7 elap:               0.4
 (Enter /home/enzo/gaussian_versions/gdv.j21/gdv/l301.exe)
 Standard basis: 6-31G(d) (6D, 7F)
 Ernie: Thresh=  0.10000D-02 Tol=  0.10000D-05 Strict=F.
 There are   172 symmetry adapted cartesian basis functions of A   symmetry.
 There are   172 symmetry adapted basis functions of A   symmetry.
   172 basis functions,   340 primitive gaussians,   172 cartesian basis functions
    43 alpha electrons       43 beta electrons
       nuclear repulsion energy       622.7886299170 Hartrees.
 IExCor=      4002 DFT=T Ex+Corr=B3LYP ScaHFX=  0.200000
 ScaDFX=  0.800000  0.720000  1.000000  0.810000  1.000000  0.000000
 ScaDFX=  0.000000  0.000000  0.000000  0.000000  0.000000  0.000000
 IRadAn=      5 IRanWt=     -1 IRanGd=            0 ICorTp=0 IEmpDi=  4
 NAtoms=   19 NActive=   19 NUniq=   19 SFac= 1.00D+00 NAtFMM=   60 NAOKFM=F Big=F
 Integral buffers will be    131072 words long.
 Raffenetti 2 integral format.
 Two-electron integral symmetry is turned on.
 Leave Link  301 at Fri Mar 14 15:12:46 2025, MaxMem=  8589934592 cpu:               1.0 elap:               0.4
 (Enter /home/enzo/gaussian_versions/gdv.j21/gdv/l302.exe)
 NPDir=0 NMtPBC=     1 NCelOv=     1 NCel=       1 NClECP=     1 NCelD=      1
         NCelK=      1 NCelE2=     1 NClLst=     1 CellRange=     0.0.
 One-electron integrals computed using PRISM.
 One-electron integral symmetry used in STVInt
 NBasis=   172 RedAO= T EigKep=  3.06D-03  NBF=   172
 NBsUse=   172 1.00D-06 EigRej= -1.00D+00 NBFU=   172
 Precomputing XC quadrature grid using
 IXCGrd= 4 IRadAn=           5 IRanWt=          -1 IRanGd=           0 AccXCQ= 0.00D+00.
 Generated NRdTot=       0 NPtTot=      407757 NUsed=           0 NTot=          64
 NSgBfM=   172   172   172   172   172 MxSgAt=    19 MxSgA2=    19 SizInc=   0.000
 NMBTot=     3467 MaxBatPerAtom=       85 MaxMicBPerAtom=      202 NBfPt=            50968977.
 Leave Link  302 at Fri Mar 14 15:12:47 2025, MaxMem=  8589934592 cpu:               3.7 elap:               0.7
 (Enter /home/enzo/gaussian_versions/gdv.j21/gdv/l303.exe)
 DipDrv:  MaxL=1.
 Leave Link  303 at Fri Mar 14 15:12:47 2025, MaxMem=  8589934592 cpu:               0.3 elap:               0.2
 (Enter /home/enzo/gaussian_versions/gdv.j21/gdv/l401.exe)
 Initial guess from the checkpoint file:  "/local/home/enzo/scratch/Gau-2337652.chk"
 B after Tr=    -0.000000    0.000000   -0.000000
         Rot=    0.999996   -0.002631    0.000555   -0.000724 Ang=  -0.32 deg.
 AO Guess basis will be translated and rotated to current coordinates.
 JPrj=2 DoOrth=T DoCkMO=T.
 Generating alternative initial guess.
 ExpMin= 1.17D-01 ExpMax= 2.19D+04 ExpMxC= 3.30D+03 IAcc=3 IRadAn=         5 AccDes= 0.00D+00
 Harris functional with IExCor= 4002 and IRadAn=       5 diagonalized for initial guess.
 HarFok:  IExCor=    4002 AccDes= 0.00D+00 IRadAn=         5 IDoV= 1 UseB2=F ITyADJ=14 ICtDFT=  3500011
 FoFCou: FMM=F IPFlag=           0 FMFlag=      100000 FMFlg1=           0
         NFxFlg=           0 DoJE=T BraDBF=F KetDBF=T FulRan=T
         wScrn=  0.000000 ICntrl=       500 IOpCl=  0 I1Cent=   200000004 NGrid=           0
         NMat0=    1 NMatS0=      1 NMatT0=    0 NMatD0=    1 NMtDS0=    0 NMtDT0=    0
 Petite list used in FoFCou.
 Harris En= -874.545765938608    
 Leave Link  401 at Fri Mar 14 15:12:49 2025, MaxMem=  8589934592 cpu:               9.3 elap:               1.4
 (Enter /home/enzo/gaussian_versions/gdv.j21/gdv/l502.exe)
 Integral symmetry usage will be decided dynamically.
 Closed shell SCF:
 Using DIIS extrapolation, IDIIS=  1040.
 NGot=  8589934592 LenX=  8589843591 LenY=  8589813566
 Requested convergence on RMS density matrix=1.00D-08 within 128 cycles.
 Requested convergence on MAX density matrix=1.00D-06.
 Requested convergence on             energy=1.00D-06.
 No special actions if energy rises.
 Fock matrices will be formed incrementally for  20 cycles.
 Integral accuracy reduced to 1.0D-05 until final iterations.

 Cycle   1  Pass 0  IDiag  1:
 FoFJK:  IHMeth= 1 ICntrl=       0 DoSepK=F KAlg= 0 I1Cent=           0 FoldK=F
 IRaf= 900000000 NMat=       1 IRICut=       1 DoRegI=T DoRafI=F ISym2E= 0 IDoP0=0 IntGTp=1.
 FoFCou: FMM=F IPFlag=           0 FMFlag=      100000 FMFlg1=           0
         NFxFlg=           0 DoJE=F BraDBF=F KetDBF=F FulRan=T
         wScrn=  0.000000 ICntrl=         0 IOpCl=  0 I1Cent=           0 NGrid=           0
         NMat0=    1 NMatS0=      1 NMatT0=    0 NMatD0=    1 NMtDS0=    0 NMtDT0=    0
 Symmetry not used in FoFCou.
 E= -874.577157839527    
 DIIS: error= 3.39D-03 at cycle   1 NSaved=   1.
 NSaved= 1 IEnMin= 1 EnMin= -874.577157839527     IErMin= 1 ErrMin= 3.39D-03
 ErrMax= 3.39D-03  0.00D+00 EMaxC= 1.00D-01 BMatC= 1.58D-03 BMatP= 1.58D-03
 IDIUse=3 WtCom= 9.66D-01 WtEn= 3.39D-02
 Coeff-Com:  0.100D+01
 Coeff-En:   0.100D+01
 Coeff:      0.100D+01
 Gap=     1.616 Goal=   None    Shift=    0.000
 GapD=    1.616 DampG=2.000 DampE=1.000 DampFc=2.0000 IDamp=-1.
 RMSDP=5.61D-04 MaxDP=2.32D-02              OVMax= 3.68D-02

 Cycle   2  Pass 0  IDiag  1:
 RMSU=  5.61D-04    CP:  1.00D+00
 E= -874.580763522401     Delta-E=       -0.003605682874 Rises=F Damp=F
 DIIS: error= 2.99D-04 at cycle   2 NSaved=   2.
 NSaved= 2 IEnMin= 2 EnMin= -874.580763522401     IErMin= 2 ErrMin= 2.99D-04
 ErrMax= 2.99D-04  0.00D+00 EMaxC= 1.00D-01 BMatC= 2.29D-05 BMatP= 1.58D-03
 IDIUse=3 WtCom= 9.97D-01 WtEn= 2.99D-03
 Coeff-Com: -0.825D-01 0.108D+01
 Coeff-En:   0.000D+00 0.100D+01
 Coeff:     -0.822D-01 0.108D+01
 Gap=     0.241 Goal=   None    Shift=    0.000
 RMSDP=8.94D-05 MaxDP=3.76D-03 DE=-3.61D-03 OVMax= 5.49D-03

 Cycle   3  Pass 0  IDiag  1:
 RMSU=  6.37D-05    CP:  1.00D+00  1.11D+00
 E= -874.580812162793     Delta-E=       -0.000048640392 Rises=F Damp=F
 DIIS: error= 1.12D-04 at cycle   3 NSaved=   3.
 NSaved= 3 IEnMin= 3 EnMin= -874.580812162793     IErMin= 3 ErrMin= 1.12D-04
 ErrMax= 1.12D-04  0.00D+00 EMaxC= 1.00D-01 BMatC= 5.58D-06 BMatP= 2.29D-05
 IDIUse=3 WtCom= 9.99D-01 WtEn= 1.12D-03
 Coeff-Com: -0.342D-01 0.399D+00 0.635D+00
 Coeff-En:   0.000D+00 0.000D+00 0.100D+01
 Coeff:     -0.341D-01 0.399D+00 0.635D+00
 Gap=     0.241 Goal=   None    Shift=    0.000
 RMSDP=2.58D-05 MaxDP=8.29D-04 DE=-4.86D-05 OVMax= 8.27D-04

 Cycle   4  Pass 0  IDiag  1:
 RMSU=  2.08D-05    CP:  1.00D+00  1.13D+00  8.29D-01
 E= -874.580816056870     Delta-E=       -0.000003894077 Rises=F Damp=F
 DIIS: error= 8.27D-05 at cycle   4 NSaved=   4.
 NSaved= 4 IEnMin= 4 EnMin= -874.580816056870     IErMin= 4 ErrMin= 8.27D-05
 ErrMax= 8.27D-05  0.00D+00 EMaxC= 1.00D-01 BMatC= 2.20D-06 BMatP= 5.58D-06
 IDIUse=1 WtCom= 1.00D+00 WtEn= 0.00D+00
 Coeff-Com: -0.127D-01 0.138D+00 0.396D+00 0.479D+00
 Coeff:     -0.127D-01 0.138D+00 0.396D+00 0.479D+00
 Gap=     0.241 Goal=   None    Shift=    0.000
 RMSDP=9.61D-06 MaxDP=2.64D-04 DE=-3.89D-06 OVMax= 4.82D-04

 Initial convergence to 1.0D-05 achieved.  Increase integral accuracy.
 Cycle   5  Pass 1  IDiag  1:
 E= -874.580801324073     Delta-E=        0.000014732797 Rises=F Damp=F
 DIIS: error= 2.79D-05 at cycle   1 NSaved=   1.
 NSaved= 1 IEnMin= 1 EnMin= -874.580801324073     IErMin= 1 ErrMin= 2.79D-05
 ErrMax= 2.79D-05  0.00D+00 EMaxC= 1.00D-01 BMatC= 3.31D-07 BMatP= 3.31D-07
 IDIUse=1 WtCom= 1.00D+00 WtEn= 0.00D+00
 Coeff-Com:  0.100D+01
 Coeff:      0.100D+01
 Gap=     0.241 Goal=   None    Shift=    0.000
 RMSDP=9.61D-06 MaxDP=2.64D-04 DE= 1.47D-05 OVMax= 4.63D-04

 Cycle   6  Pass 1  IDiag  1:
 RMSU=  9.51D-06    CP:  1.00D+00
 E= -874.580800488123     Delta-E=        0.000000835951 Rises=F Damp=F
 DIIS: error= 6.02D-05 at cycle   2 NSaved=   2.
 NSaved= 2 IEnMin= 1 EnMin= -874.580801324073     IErMin= 1 ErrMin= 2.79D-05
 ErrMax= 6.02D-05  0.00D+00 EMaxC= 1.00D-01 BMatC= 1.44D-06 BMatP= 3.31D-07
 IDIUse=1 WtCom= 1.00D+00 WtEn= 0.00D+00
 Coeff-Com:  0.681D+00 0.319D+00
 Coeff:      0.681D+00 0.319D+00
 Gap=     0.241 Goal=   None    Shift=    0.000
 RMSDP=5.84D-06 MaxDP=1.71D-04 DE= 8.36D-07 OVMax= 3.37D-04

 Cycle   7  Pass 1  IDiag  1:
 RMSU=  2.94D-06    CP:  1.00D+00  4.71D-01
 E= -874.580801593984     Delta-E=       -0.000001105861 Rises=F Damp=F
 DIIS: error= 4.59D-06 at cycle   3 NSaved=   3.
 NSaved= 3 IEnMin= 3 EnMin= -874.580801593984     IErMin= 3 ErrMin= 4.59D-06
 ErrMax= 4.59D-06  0.00D+00 EMaxC= 1.00D-01 BMatC= 9.76D-09 BMatP= 3.31D-07
 IDIUse=1 WtCom= 1.00D+00 WtEn= 0.00D+00
 Coeff-Com:  0.228D+00 0.133D+00 0.640D+00
 Coeff:      0.228D+00 0.133D+00 0.640D+00
 Gap=     0.241 Goal=   None    Shift=    0.000
 RMSDP=9.70D-07 MaxDP=2.90D-05 DE=-1.11D-06 OVMax= 2.91D-05

 Cycle   8  Pass 1  IDiag  1:
 RMSU=  8.98D-07    CP:  1.00D+00  4.84D-01  8.84D-01
 E= -874.580801602149     Delta-E=       -0.000000008165 Rises=F Damp=F
 DIIS: error= 1.45D-06 at cycle   4 NSaved=   4.
 NSaved= 4 IEnMin= 4 EnMin= -874.580801602149     IErMin= 4 ErrMin= 1.45D-06
 ErrMax= 1.45D-06  0.00D+00 EMaxC= 1.00D-01 BMatC= 1.05D-09 BMatP= 9.76D-09
 IDIUse=1 WtCom= 1.00D+00 WtEn= 0.00D+00
 Coeff-Com:  0.155D-01 0.183D-01 0.277D+00 0.689D+00
 Coeff:      0.155D-01 0.183D-01 0.277D+00 0.689D+00
 Gap=     0.241 Goal=   None    Shift=    0.000
 RMSDP=2.93D-07 MaxDP=7.11D-06 DE=-8.16D-09 OVMax= 9.46D-06

 Cycle   9  Pass 1  IDiag  1:
 RMSU=  2.14D-07    CP:  1.00D+00  4.88D-01  9.24D-01  8.27D-01
 E= -874.580801603103     Delta-E=       -0.000000000955 Rises=F Damp=F
 DIIS: error= 6.45D-07 at cycle   5 NSaved=   5.
 NSaved= 5 IEnMin= 5 EnMin= -874.580801603103     IErMin= 5 ErrMin= 6.45D-07
 ErrMax= 6.45D-07  0.00D+00 EMaxC= 1.00D-01 BMatC= 1.42D-10 BMatP= 1.05D-09
 IDIUse=1 WtCom= 1.00D+00 WtEn= 0.00D+00
 Coeff-Com: -0.574D-02 0.176D-02 0.114D+00 0.373D+00 0.517D+00
 Coeff:     -0.574D-02 0.176D-02 0.114D+00 0.373D+00 0.517D+00
 Gap=     0.241 Goal=   None    Shift=    0.000
 RMSDP=9.18D-08 MaxDP=2.79D-06 DE=-9.55D-10 OVMax= 3.49D-06

 Cycle  10  Pass 1  IDiag  1:
 RMSU=  6.93D-08    CP:  1.00D+00  4.90D-01  9.26D-01  8.47D-01  7.40D-01
 E= -874.580801603202     Delta-E=       -0.000000000099 Rises=F Damp=F
 DIIS: error= 2.89D-07 at cycle   6 NSaved=   6.
 NSaved= 6 IEnMin= 6 EnMin= -874.580801603202     IErMin= 6 ErrMin= 2.89D-07
 ErrMax= 2.89D-07  0.00D+00 EMaxC= 1.00D-01 BMatC= 3.02D-11 BMatP= 1.42D-10
 IDIUse=1 WtCom= 1.00D+00 WtEn= 0.00D+00
 Coeff-Com: -0.558D-02-0.814D-03 0.461D-01 0.176D+00 0.346D+00 0.438D+00
 Coeff:     -0.558D-02-0.814D-03 0.461D-01 0.176D+00 0.346D+00 0.438D+00
 Gap=     0.241 Goal=   None    Shift=    0.000
 RMSDP=3.19D-08 MaxDP=8.00D-07 DE=-9.89D-11 OVMax= 1.48D-06

 Cycle  11  Pass 1  IDiag  1:
 RMSU=  2.81D-08    CP:  1.00D+00  4.90D-01  9.29D-01  8.41D-01  7.63D-01
                    CP:  8.49D-01
 E= -874.580801603227     Delta-E=       -0.000000000025 Rises=F Damp=F
 DIIS: error= 5.27D-08 at cycle   7 NSaved=   7.
 NSaved= 7 IEnMin= 7 EnMin= -874.580801603227     IErMin= 7 ErrMin= 5.27D-08
 ErrMax= 5.27D-08  0.00D+00 EMaxC= 1.00D-01 BMatC= 1.19D-12 BMatP= 3.02D-11
 IDIUse=1 WtCom= 1.00D+00 WtEn= 0.00D+00
 Coeff-Com: -0.142D-02-0.575D-03 0.952D-03 0.133D-01 0.591D-01 0.186D+00
 Coeff-Com:  0.743D+00
 Coeff:     -0.142D-02-0.575D-03 0.952D-03 0.133D-01 0.591D-01 0.186D+00
 Coeff:      0.743D+00
 Gap=     0.241 Goal=   None    Shift=    0.000
 RMSDP=1.16D-08 MaxDP=3.60D-07 DE=-2.50D-11 OVMax= 5.07D-07

 Cycle  12  Pass 1  IDiag  1:
 RMSU=  7.36D-09    CP:  1.00D+00  4.90D-01  9.29D-01  8.44D-01  7.87D-01
                    CP:  9.34D-01  9.25D-01
 E= -874.580801603229     Delta-E=       -0.000000000002 Rises=F Damp=F
 DIIS: error= 2.57D-08 at cycle   8 NSaved=   8.
 NSaved= 8 IEnMin= 8 EnMin= -874.580801603229     IErMin= 8 ErrMin= 2.57D-08
 ErrMax= 2.57D-08  0.00D+00 EMaxC= 1.00D-01 BMatC= 2.89D-13 BMatP= 1.19D-12
 IDIUse=1 WtCom= 1.00D+00 WtEn= 0.00D+00
 Coeff-Com:  0.604D-04-0.186D-03-0.613D-02-0.182D-01-0.172D-01 0.393D-01
 Coeff-Com:  0.419D+00 0.584D+00
 Coeff:      0.604D-04-0.186D-03-0.613D-02-0.182D-01-0.172D-01 0.393D-01
 Coeff:      0.419D+00 0.584D+00
 Gap=     0.241 Goal=   None    Shift=    0.000
 RMSDP=3.87D-09 MaxDP=1.12D-07 DE=-1.82D-12 OVMax= 1.80D-07

 SCF Done:  E(RB3LYP) =  -874.580801603     A.U. after   12 cycles
            NFock= 12  Conv=0.39D-08     -V/T= 2.0064
 KE= 8.689934239922D+02 PE=-3.305350195231D+03 EE= 9.389873397182D+02
 Leave Link  502 at Fri Mar 14 15:12:59 2025, MaxMem=  8589934592 cpu:              81.5 elap:              10.6
 (Enter /home/enzo/gaussian_versions/gdv.j21/gdv/l701.exe)
 ... and contract with generalized density number  0.
 Compute integral first derivatives.
 Leave Link  701 at Fri Mar 14 15:13:00 2025, MaxMem=  8589934592 cpu:               2.1 elap:               0.5
 (Enter /home/enzo/gaussian_versions/gdv.j21/gdv/l702.exe)
 L702 exits ... SP integral derivatives will be done elsewhere.
 Leave Link  702 at Fri Mar 14 15:13:00 2025, MaxMem=  8589934592 cpu:               0.4 elap:               0.2
 (Enter /home/enzo/gaussian_versions/gdv.j21/gdv/l703.exe)
 Integral derivatives from FoFJK, PRISM(SPDF).
 Compute integral first derivatives, UseDBF=F ICtDFT=           0.
 Calling FoFJK, ICntrl=      2127 FMM=F ISym2X=0 I1Cent= 0 IOpClX= 0 NMat=1 NMatS=1 NMatT=0.
 FoFJK:  IHMeth= 1 ICntrl=    2127 DoSepK=F KAlg= 0 I1Cent=           0 FoldK=F
 IRaf=         0 NMat=       1 IRICut=       1 DoRegI=T DoRafI=F ISym2E= 0 IDoP0=0 IntGTp=1.
 FoFCou: FMM=F IPFlag=           0 FMFlag=      100000 FMFlg1=         800
         NFxFlg=           0 DoJE=F BraDBF=F KetDBF=F FulRan=T
         wScrn=  0.000000 ICntrl=      2127 IOpCl=  0 I1Cent=           0 NGrid=           0
         NMat0=    1 NMatS0=      1 NMatT0=    0 NMatD0=    1 NMtDS0=    0 NMtDT0=    0
 Symmetry not used in FoFCou.
 Leave Link  703 at Fri Mar 14 15:13:02 2025, MaxMem=  8589934592 cpu:              14.6 elap:               2.0
 (Enter /home/enzo/gaussian_versions/gdv.j21/gdv/l716.exe)
 Dipole        =-5.80808163D-01 3.38675456D-01-5.20790636D-01
 ***** Axes restored to original set *****
 -------------------------------------------------------------------
 Center     Atomic                   Forces (Hartrees/Bohr)
 Number     Number              X              Y              Z
 -------------------------------------------------------------------
      1        6           0.000040948    0.000187820    0.000141225
      2        6          -0.000664181   -0.000329979    0.000495539
      3       16           0.000212842    0.000219552    0.000156095
      4        6           0.000034551    0.000176250   -0.001231871
      5        8           0.000316950   -0.000251377   -0.000139491
      6        7           0.000603409    0.000557201   -0.000104364
      7        6          -0.000266116   -0.000924592    0.000840842
      8        6          -0.000078810    0.000417313   -0.000064890
      9        8          -0.000191705    0.000258636    0.000031844
     10        8           0.000099321   -0.000438557   -0.000098676
     11        1           0.000108928   -0.000047346    0.000059570
     12        1          -0.000062483   -0.000336826    0.000079861
     13        1           0.000060600    0.000009562    0.000098511
     14        1          -0.000193856    0.000449262   -0.000078763
     15        1          -0.000329999    0.000157378   -0.000193959
     16        1           0.000159725   -0.000270634    0.000217747
     17        1          -0.000128286   -0.000012928    0.000066760
     18        1           0.000185020    0.000062617   -0.000098975
     19        1           0.000093139    0.000116649   -0.000177006
 -------------------------------------------------------------------
 Cartesian Forces:  Max     0.001231871 RMS     0.000334117
 Leave Link  716 at Fri Mar 14 15:13:03 2025, MaxMem=  8589934592 cpu:               0.2 elap:               0.3
 (Enter /home/enzo/gaussian_versions/gdv.j21/gdv/l103.exe)

 GradGradGradGradGradGradGradGradGradGradGradGradGradGradGradGradGradGrad
 Berny optimization.
 Using GEDIIS/GDIIS optimizer.
 FormGI is forming the generalized inverse of G from B-inverse, IUseBI=4.
 Internal  Forces:  Max     0.000890718 RMS     0.000261843
 Search for a local minimum.
 Step number   6 out of a maximum of   93
 All quantities printed in internal units (Hartrees-Bohrs-Radians)
 RMS Force = .26184D-03 SwitMx=.10000D-02 MixMth= 2
 Mixed Optimization -- En-DIIS/RFO-DIIS
 Swapping is turned off.
 Update second derivatives using D2CorX and points    4    5    6
 DE= -3.62D-04 DEPred=-3.46D-04 R= 1.05D+00
 TightC=F SS=  1.41D+00  RLast= 2.30D-01 DXNew= 1.4270D+00 6.8968D-01
 Trust test= 1.05D+00 RLast= 2.30D-01 DXMaxT set to 8.49D-01
 ITU=  1  0  0  1  1  0
     Eigenvalues ---    0.00329   0.00450   0.00481   0.00779   0.00886
     Eigenvalues ---    0.01049   0.01108   0.01522   0.01899   0.03876
     Eigenvalues ---    0.04871   0.05264   0.05421   0.05641   0.05742
     Eigenvalues ---    0.06706   0.07843   0.09678   0.13161   0.15788
     Eigenvalues ---    0.15979   0.16002   0.16011   0.16131   0.17249
     Eigenvalues ---    0.17680   0.20622   0.21646   0.22066   0.22121
     Eigenvalues ---    0.23514   0.24732   0.25011   0.25250   0.25648
     Eigenvalues ---    0.30144   0.30629   0.32565   0.32581   0.32607
     Eigenvalues ---    0.32612   0.32648   0.32827   0.33105   0.37151
     Eigenvalues ---    0.40742   0.41031   0.46176   0.49607   0.77888
     Eigenvalues ---    0.80694
 En-DIIS/RFO-DIIS/Sim-DIIS IScMMF=       -3 using points:     6    5    4
 RFO step:  Lambda=-2.13295091D-04.
 NNeg= 0 NGDIIS= 3 SimSw=  2.50D-01 Rises=F DC= -3.62D-04 SmlDif=  1.00D-05
 NRisDI= 0 DoIntr=F SqrtH=F CThrHd= 10.0 CDAdj=  3.0
 RMS Error=  0.2256816864D-01 NUsed= 3 OKEnD=T EnDIS=F
 InvSVX:  RCond= 4.04D-03 Info=           0 Equed=N FErr=  6.24D-15 BErr=  3.73D-17
 DidBck=FF Rises=F RFO-DIIS coefs:    1.49513   -0.07785   -0.41728
 Iteration  1 RMS(Cart)=  0.04286015 RMS(Int)=  0.00079450
 Iteration  2 RMS(Cart)=  0.00137127 RMS(Int)=  0.00016179
 Iteration  3 RMS(Cart)=  0.00000097 RMS(Int)=  0.00016179
 Variable       Old X    -DE/DX   Delta X   Delta X   Delta X     New X
                                 (Linear)    (Quad)   (Total)
    R1        2.88088   0.00017  -0.00154   0.00051  -0.00103   2.87985
    R2        2.06817   0.00011   0.00005   0.00026   0.00031   2.06848
    R3        2.06866  -0.00034   0.00085  -0.00177  -0.00092   2.06774
    R4        2.06454   0.00008   0.00046   0.00021   0.00067   2.06521
    R5        3.52625  -0.00035  -0.00110  -0.00201  -0.00311   3.52314
    R6        2.91694  -0.00089   0.00327  -0.00396  -0.00070   2.91624
    R7        2.07216  -0.00003   0.00012  -0.00043  -0.00031   2.07184
    R8        2.55261  -0.00030   0.00183  -0.00323  -0.00140   2.55121
    R9        2.30813  -0.00032   0.00137  -0.00117   0.00021   2.30833
   R10        2.58956  -0.00047   0.00096  -0.00243  -0.00147   2.58809
   R11        2.74595   0.00007  -0.00062   0.00020  -0.00042   2.74553
   R12        1.91232   0.00022   0.00075   0.00005   0.00080   1.91312
   R13        2.88483  -0.00033  -0.00112  -0.00096  -0.00207   2.88276
   R14        2.06276   0.00000   0.00044  -0.00051  -0.00007   2.06270
   R15        2.06604   0.00002   0.00027   0.00000   0.00027   2.06632
   R16        2.28802  -0.00009   0.00032  -0.00150  -0.00118   2.28683
   R17        2.55240  -0.00035   0.00196  -0.00250  -0.00054   2.55186
   R18        1.84524  -0.00022   0.00018  -0.00154  -0.00136   1.84389
    A1        1.92815   0.00005  -0.00040   0.00021  -0.00019   1.92796
    A2        1.91719  -0.00014   0.00110  -0.00177  -0.00068   1.91652
    A3        1.93342   0.00011  -0.00035   0.00114   0.00079   1.93421
    A4        1.89866   0.00004   0.00106   0.00065   0.00171   1.90037
    A5        1.90011  -0.00009  -0.00183  -0.00067  -0.00251   1.89760
    A6        1.88541   0.00003   0.00046   0.00045   0.00091   1.88633
    A7        1.97189  -0.00031   0.00135  -0.00227  -0.00093   1.97097
    A8        1.94183   0.00049  -0.00242   0.00248   0.00004   1.94188
    A9        1.92429   0.00007   0.00155   0.00172   0.00327   1.92756
   A10        1.89579  -0.00010   0.00572   0.00019   0.00591   1.90170
   A11        1.85418   0.00024  -0.00609   0.00282  -0.00326   1.85093
   A12        1.87113  -0.00040  -0.00029  -0.00514  -0.00541   1.86572
   A13        1.67585  -0.00042   0.00060  -0.00450  -0.00390   1.67195
   A14        2.12434  -0.00010  -0.00449  -0.00082  -0.00595   2.11838
   A15        2.00872  -0.00039   0.00465  -0.00214   0.00186   2.01058
   A16        2.14834   0.00051  -0.00045   0.00553   0.00443   2.15278
   A17        2.13130  -0.00012  -0.00133  -0.00080  -0.00265   2.12865
   A18        2.07913  -0.00009  -0.00333  -0.00151  -0.00534   2.07379
   A19        2.06750   0.00019   0.00286   0.00010   0.00242   2.06992
   A20        1.93222   0.00083  -0.00167   0.00616   0.00449   1.93671
   A21        1.86651  -0.00032  -0.00002  -0.00329  -0.00331   1.86320
   A22        1.92819  -0.00018   0.00166  -0.00013   0.00152   1.92972
   A23        1.93261  -0.00024  -0.00118  -0.00216  -0.00334   1.92927
   A24        1.87916  -0.00016   0.00092   0.00040   0.00131   1.88047
   A25        1.92580   0.00008   0.00028  -0.00097  -0.00069   1.92510
   A26        2.17561   0.00005   0.00123   0.00096   0.00213   2.17774
   A27        1.95175   0.00004  -0.00001  -0.00025  -0.00032   1.95143
   A28        2.15528  -0.00010  -0.00077  -0.00079  -0.00161   2.15367
   A29        1.85878  -0.00011   0.00255  -0.00355  -0.00099   1.85779
    D1        1.05665   0.00005  -0.00730  -0.00154  -0.00884   1.04782
    D2       -3.08868   0.00005  -0.00065  -0.00109  -0.00174  -3.09042
    D3       -1.01504  -0.00010  -0.00153  -0.00481  -0.00634  -1.02139
    D4       -3.13188   0.00004  -0.00554  -0.00173  -0.00727  -3.13915
    D5       -0.99403   0.00004   0.00112  -0.00129  -0.00017  -0.99421
    D6        1.07961  -0.00011   0.00023  -0.00501  -0.00478   1.07483
    D7       -1.05035   0.00005  -0.00449  -0.00159  -0.00607  -1.05642
    D8        1.08750   0.00005   0.00217  -0.00114   0.00102   1.08852
    D9       -3.12205  -0.00010   0.00128  -0.00486  -0.00358  -3.12563
   D10       -1.13073  -0.00010  -0.01158  -0.05077  -0.06233  -1.19307
   D11        2.98909  -0.00044  -0.01357  -0.05252  -0.06612   2.92297
   D12        0.98124  -0.00004  -0.01293  -0.04809  -0.06101   0.92023
   D13        0.11288   0.00009   0.03601   0.01186   0.04784   0.16071
   D14       -3.09111   0.00045  -0.00249   0.05676   0.05430  -3.03681
   D15        2.29404  -0.00005   0.04014   0.01079   0.05090   2.34494
   D16       -0.90994   0.00031   0.00163   0.05570   0.05736  -0.85258
   D17       -1.99235  -0.00002   0.03573   0.01155   0.04724  -1.94511
   D18        1.08685   0.00033  -0.00278   0.05645   0.05370   1.14055
   D19       -3.12867  -0.00051   0.02515  -0.06025  -0.03494   3.11958
   D20        0.12462  -0.00033   0.05012  -0.03682   0.01320   0.13782
   D21       -0.05042  -0.00018  -0.01394  -0.01492  -0.02876  -0.07918
   D22       -3.08032   0.00001   0.01103   0.00852   0.01938  -3.06094
   D23       -1.91803   0.00002  -0.00834  -0.00719  -0.01547  -1.93350
   D24        0.18883   0.00001  -0.01076  -0.00830  -0.01899   0.16984
   D25        2.28511  -0.00019  -0.00949  -0.01155  -0.02098   2.26414
   D26        1.11258  -0.00018  -0.03334  -0.03058  -0.06398   1.04860
   D27       -3.06375  -0.00019  -0.03576  -0.03168  -0.06751  -3.13125
   D28       -0.96746  -0.00039  -0.03449  -0.03493  -0.06949  -1.03695
   D29       -1.71262  -0.00027  -0.02448  -0.03377  -0.05826  -1.77088
   D30        1.39431  -0.00030  -0.01482  -0.03647  -0.05128   1.34303
   D31        2.50345  -0.00024  -0.02263  -0.03222  -0.05486   2.44859
   D32       -0.67281  -0.00028  -0.01298  -0.03491  -0.04789  -0.72070
   D33        0.39677  -0.00010  -0.02286  -0.02999  -0.05285   0.34391
   D34       -2.77949  -0.00013  -0.01320  -0.03269  -0.04588  -2.82537
   D35       -3.08135  -0.00001  -0.01030   0.00083  -0.00946  -3.09081
   D36        0.02605  -0.00004  -0.00070  -0.00179  -0.00251   0.02354
         Item               Value     Threshold  Converged?
 Maximum Force            0.000891     0.000450     NO 
 RMS     Force            0.000262     0.000300     YES
 Maximum Displacement     0.178641     0.001800     NO 
 RMS     Displacement     0.042920     0.001200     NO 
 Predicted change in Energy=-1.083505D-04
 Lowest energy point so far.  Saving SCF results.
 GradGradGradGradGradGradGradGradGradGradGradGradGradGradGradGradGradGrad

 Leave Link  103 at Fri Mar 14 15:13:03 2025, MaxMem=  8589934592 cpu:               1.1 elap:               0.3
 (Enter /home/enzo/gaussian_versions/gdv.j21/gdv/l202.exe)
                          Input orientation:                          
 ---------------------------------------------------------------------
 Center     Atomic      Atomic             Coordinates (Angstroms)
 Number     Number       Type             X           Y           Z
 ---------------------------------------------------------------------
      1          6           0        3.070204    1.069727    0.444368
      2          6           0        2.048818    0.210507   -0.291119
      3         16           0        1.881083   -1.498907    0.433878
      4          6           0        0.660957    0.884991   -0.311233
      5          8           0        0.508223    2.037002    0.065125
      6          7           0       -0.348844    0.125477   -0.839559
      7          6           0       -1.718485    0.605633   -0.905708
      8          6           0       -2.614768   -0.166758    0.057206
      9          8           0       -3.368842   -1.056678   -0.265060
     10          8           0       -2.444754    0.237403    1.334428
     11          1           0        4.060229    0.604419    0.406029
     12          1           0        3.125628    2.058970   -0.019964
     13          1           0        2.784961    1.201877    1.491040
     14          1           0        2.349300    0.068511   -1.335907
     15          1           0        3.107496   -1.924931    0.063706
     16          1           0       -0.163916   -0.844218   -1.064064
     17          1           0       -1.693963    1.664169   -0.640488
     18          1           0       -2.122577    0.476308   -1.913484
     19          1           0       -3.014357   -0.334062    1.883112
 ---------------------------------------------------------------------
                    Distance matrix (angstroms):
                    1          2          3          4          5
     1  C    0.000000
     2  C    1.523951   0.000000
     3  S    2.830547   1.864364   0.000000
     4  C    2.531705   1.543209   2.779725   0.000000
     5  O    2.764633   2.415870   3.810955   1.221516   0.000000
     6  N    3.772262   2.461057   3.038559   1.369557   2.281873
     7  C    4.996962   3.837501   4.379551   2.468437   2.819497
     8  C    5.830754   4.691769   4.704166   3.460101   3.822263
     9  O    6.818078   5.563945   5.314677   4.473420   4.971068
    10  O    5.647985   4.778632   4.747487   3.573935   3.683716
    11  H    1.094592   2.164938   3.028768   3.485432   3.845160
    12  H    1.094202   2.156353   3.796492   2.745481   2.618880
    13  H    1.092863   2.168135   3.037897   2.803569   2.813220
    14  H    2.165990   1.096373   2.410014   2.137078   3.037666
    15  H    3.018985   2.409730   1.350042   3.744569   4.738474
    16  H    4.049455   2.570230   2.618104   2.058479   3.166745
    17  H    4.922149   4.030335   4.892879   2.502233   2.342331
    18  H    5.733810   4.483665   5.043895   3.237636   3.643043
    19  H    6.408002   5.537109   5.236647   4.450749   4.619047
                    6          7          8          9         10
     6  N    0.000000
     7  C    1.452873   0.000000
     8  C    2.454384   1.525488   0.000000
     9  O    3.293619   2.428453   1.210140   0.000000
    10  O    3.021851   2.383541   1.350388   2.255426   0.000000
    11  H    4.606604   5.925723   6.728446   7.642035   6.581142
    12  H    4.059813   5.134409   6.157270   7.207321   6.015118
    13  H    4.051057   5.136237   5.752053   6.786328   5.320212
    14  H    2.744009   4.125584   5.161210   5.925362   5.490188
    15  H    4.119023   5.534763   5.986278   6.542546   6.092446
    16  H    1.012379   2.131626   2.779006   3.309849   3.482082
    17  H    2.053423   1.091532   2.164937   3.217013   2.549439
    18  H    2.102980   1.093447   2.130588   2.573038   3.272584
    19  H    3.837847   3.215560   1.876591   2.294008   0.975743
                   11         12         13         14         15
    11  H    0.000000
    12  H    1.780637   0.000000
    13  H    1.777783   1.770253   0.000000
    14  H    2.499763   2.509246   3.076678   0.000000
    15  H    2.724427   3.984821   3.452280   2.550998   0.000000
    16  H    4.701396   4.509961   4.405785   2.687607   3.625182
    17  H    5.943819   4.875384   4.981755   4.402012   6.035854
    18  H    6.604819   5.799473   6.016740   4.527425   6.085137
    19  H    7.287818   6.859134   6.012064   6.268410   6.581655
                   16         17         18         19
    16  H    0.000000
    17  H    2.968580   0.000000
    18  H    2.510310   1.793109   0.000000
    19  H    4.131721   3.479213   3.983229   0.000000
 Stoichiometry    C5H9NO3S
 Framework group  C1[X(C5H9NO3S)]
 Deg. of freedom    51
 Full point group                 C1      NOp   1
 RotChk:  IX=0 Diff= 3.44D-02
 Largest Abelian subgroup         C1      NOp   1
 Largest concise Abelian subgroup C1      NOp   1
                         Standard orientation:                         
 ---------------------------------------------------------------------
 Center     Atomic      Atomic             Coordinates (Angstroms)
 Number     Number       Type             X           Y           Z
 ---------------------------------------------------------------------
      1          6           0       -3.091876   -0.835493    0.434579
      2          6           0       -2.016222   -0.116408   -0.370598
      3         16           0       -1.799789    1.665038    0.134832
      4          6           0       -0.656824   -0.838153   -0.258277
      5          8           0       -0.561558   -1.936715    0.267260
      6          7           0        0.397391   -0.190690   -0.845735
      7          6           0        1.747761   -0.725145   -0.804517
      8          6           0        2.647182    0.131837    0.080774
      9          8           0        3.445474    0.944495   -0.327586
     10          8           0        2.425073   -0.097483    1.392882
     11          1           0       -4.060756   -0.343134    0.304257
     12          1           0       -3.174273   -1.873728    0.099082
     13          1           0       -2.841773   -0.841695    1.498421
     14          1           0       -2.281199   -0.099648   -1.434337
     15          1           0       -2.997029    2.084259   -0.327210
     16          1           0        0.258309    0.747997   -1.198486
     17          1           0        1.672903   -1.738948   -0.406972
     18          1           0        2.184945   -0.741935   -1.806622
     19          1           0        3.001716    0.518841    1.882476
 ---------------------------------------------------------------------
 Rotational constants (GHZ):           1.8698802           0.6164457           0.5319873
 Leave Link  202 at Fri Mar 14 15:13:03 2025, MaxMem=  8589934592 cpu:               0.3 elap:               0.3
 (Enter /home/enzo/gaussian_versions/gdv.j21/gdv/l301.exe)
 Standard basis: 6-31G(d) (6D, 7F)
 Ernie: Thresh=  0.10000D-02 Tol=  0.10000D-05 Strict=F.
 There are   172 symmetry adapted cartesian basis functions of A   symmetry.
 There are   172 symmetry adapted basis functions of A   symmetry.
   172 basis functions,   340 primitive gaussians,   172 cartesian basis functions
    43 alpha electrons       43 beta electrons
       nuclear repulsion energy       623.4966213066 Hartrees.
 IExCor=      4002 DFT=T Ex+Corr=B3LYP ScaHFX=  0.200000
 ScaDFX=  0.800000  0.720000  1.000000  0.810000  1.000000  0.000000
 ScaDFX=  0.000000  0.000000  0.000000  0.000000  0.000000  0.000000
 IRadAn=      5 IRanWt=     -1 IRanGd=            0 ICorTp=0 IEmpDi=  4
 NAtoms=   19 NActive=   19 NUniq=   19 SFac= 1.00D+00 NAtFMM=   60 NAOKFM=F Big=F
 Integral buffers will be    131072 words long.
 Raffenetti 2 integral format.
 Two-electron integral symmetry is turned on.
 Leave Link  301 at Fri Mar 14 15:13:04 2025, MaxMem=  8589934592 cpu:               0.9 elap:               0.5
 (Enter /home/enzo/gaussian_versions/gdv.j21/gdv/l302.exe)
 NPDir=0 NMtPBC=     1 NCelOv=     1 NCel=       1 NClECP=     1 NCelD=      1
         NCelK=      1 NCelE2=     1 NClLst=     1 CellRange=     0.0.
 One-electron integrals computed using PRISM.
 One-electron integral symmetry used in STVInt
 NBasis=   172 RedAO= T EigKep=  3.03D-03  NBF=   172
 NBsUse=   172 1.00D-06 EigRej= -1.00D+00 NBFU=   172
 Precomputing XC quadrature grid using
 IXCGrd= 4 IRadAn=           5 IRanWt=          -1 IRanGd=           0 AccXCQ= 0.00D+00.
 Generated NRdTot=       0 NPtTot=      407887 NUsed=           0 NTot=          64
 NSgBfM=   172   172   172   172   172 MxSgAt=    19 MxSgA2=    19 SizInc=   0.000
 NMBTot=     3486 MaxBatPerAtom=       85 MaxMicBPerAtom=      202 NBfPt=            51045427.
 Leave Link  302 at Fri Mar 14 15:13:04 2025, MaxMem=  8589934592 cpu:               3.7 elap:               0.6
 (Enter /home/enzo/gaussian_versions/gdv.j21/gdv/l303.exe)
 DipDrv:  MaxL=1.
 Leave Link  303 at Fri Mar 14 15:13:05 2025, MaxMem=  8589934592 cpu:               1.3 elap:               0.4
 (Enter /home/enzo/gaussian_versions/gdv.j21/gdv/l401.exe)
 Initial guess from the checkpoint file:  "/local/home/enzo/scratch/Gau-2337652.chk"
 B after Tr=     0.000000   -0.000000    0.000000
         Rot=    0.999953    0.008940    0.001571    0.003279 Ang=   1.11 deg.
 AO Guess basis will be translated and rotated to current coordinates.
 JPrj=2 DoOrth=T DoCkMO=T.
 Generating alternative initial guess.
 ExpMin= 1.17D-01 ExpMax= 2.19D+04 ExpMxC= 3.30D+03 IAcc=3 IRadAn=         5 AccDes= 0.00D+00
 Harris functional with IExCor= 4002 and IRadAn=       5 diagonalized for initial guess.
 HarFok:  IExCor=    4002 AccDes= 0.00D+00 IRadAn=         5 IDoV= 1 UseB2=F ITyADJ=14 ICtDFT=  3500011
 FoFCou: FMM=F IPFlag=           0 FMFlag=      100000 FMFlg1=           0
         NFxFlg=           0 DoJE=T BraDBF=F KetDBF=T FulRan=T
         wScrn=  0.000000 ICntrl=       500 IOpCl=  0 I1Cent=   200000004 NGrid=           0
         NMat0=    1 NMatS0=      1 NMatT0=    0 NMatD0=    1 NMtDS0=    0 NMtDT0=    0
 Petite list used in FoFCou.
 Harris En= -874.545804200918    
 Leave Link  401 at Fri Mar 14 15:13:07 2025, MaxMem=  8589934592 cpu:              12.8 elap:               1.9
 (Enter /home/enzo/gaussian_versions/gdv.j21/gdv/l502.exe)
 Integral symmetry usage will be decided dynamically.
 Closed shell SCF:
 Using DIIS extrapolation, IDIIS=  1040.
 NGot=  8589934592 LenX=  8589843591 LenY=  8589813566
 Requested convergence on RMS density matrix=1.00D-08 within 128 cycles.
 Requested convergence on MAX density matrix=1.00D-06.
 Requested convergence on             energy=1.00D-06.
 No special actions if energy rises.
 Fock matrices will be formed incrementally for  20 cycles.
 Integral accuracy reduced to 1.0D-05 until final iterations.

 Cycle   1  Pass 0  IDiag  1:
 FoFJK:  IHMeth= 1 ICntrl=       0 DoSepK=F KAlg= 0 I1Cent=           0 FoldK=F
 IRaf= 900000000 NMat=       1 IRICut=       1 DoRegI=T DoRafI=F ISym2E= 0 IDoP0=0 IntGTp=1.
 FoFCou: FMM=F IPFlag=           0 FMFlag=      100000 FMFlg1=           0
         NFxFlg=           0 DoJE=F BraDBF=F KetDBF=F FulRan=T
         wScrn=  0.000000 ICntrl=         0 IOpCl=  0 I1Cent=           0 NGrid=           0
         NMat0=    1 NMatS0=      1 NMatT0=    0 NMatD0=    1 NMtDS0=    0 NMtDT0=    0
 Symmetry not used in FoFCou.
 E= -874.575935514226    
 DIIS: error= 1.99D-03 at cycle   1 NSaved=   1.
 NSaved= 1 IEnMin= 1 EnMin= -874.575935514226     IErMin= 1 ErrMin= 1.99D-03
 ErrMax= 1.99D-03  0.00D+00 EMaxC= 1.00D-01 BMatC= 2.57D-03 BMatP= 2.57D-03
 IDIUse=3 WtCom= 9.80D-01 WtEn= 1.99D-02
 Coeff-Com:  0.100D+01
 Coeff-En:   0.100D+01
 Coeff:      0.100D+01
 Gap=     1.613 Goal=   None    Shift=    0.000
 GapD=    1.613 DampG=2.000 DampE=1.000 DampFc=2.0000 IDamp=-1.
 RMSDP=5.29D-04 MaxDP=1.26D-02              OVMax= 1.90D-02

 Cycle   2  Pass 0  IDiag  1:
 RMSU=  5.29D-04    CP:  1.00D+00
 E= -874.580914039729     Delta-E=       -0.004978525503 Rises=F Damp=F
 DIIS: error= 3.75D-04 at cycle   2 NSaved=   2.
 NSaved= 2 IEnMin= 2 EnMin= -874.580914039729     IErMin= 2 ErrMin= 3.75D-04
 ErrMax= 3.75D-04  0.00D+00 EMaxC= 1.00D-01 BMatC= 5.02D-05 BMatP= 2.57D-03
 IDIUse=3 WtCom= 9.96D-01 WtEn= 3.75D-03
 Coeff-Com: -0.655D-01 0.107D+01
 Coeff-En:   0.000D+00 0.100D+01
 Coeff:     -0.652D-01 0.107D+01
 Gap=     0.241 Goal=   None    Shift=    0.000
 RMSDP=8.85D-05 MaxDP=1.84D-03 DE=-4.98D-03 OVMax= 2.93D-03

 Cycle   3  Pass 0  IDiag  1:
 RMSU=  7.77D-05    CP:  1.00D+00  1.08D+00
 E= -874.580958186113     Delta-E=       -0.000044146384 Rises=F Damp=F
 DIIS: error= 4.79D-04 at cycle   3 NSaved=   3.
 NSaved= 3 IEnMin= 3 EnMin= -874.580958186113     IErMin= 2 ErrMin= 3.75D-04
 ErrMax= 4.79D-04  0.00D+00 EMaxC= 1.00D-01 BMatC= 4.53D-05 BMatP= 5.02D-05
 IDIUse=3 WtCom= 9.95D-01 WtEn= 4.79D-03
 Coeff-Com: -0.439D-01 0.557D+00 0.487D+00
 Coeff-En:   0.000D+00 0.302D-01 0.970D+00
 Coeff:     -0.437D-01 0.554D+00 0.489D+00
 Gap=     0.241 Goal=   None    Shift=    0.000
 RMSDP=4.51D-05 MaxDP=1.63D-03 DE=-4.41D-05 OVMax= 3.20D-03

 Cycle   4  Pass 0  IDiag  1:
 RMSU=  3.20D-05    CP:  1.00D+00  1.09D+00  6.02D-01
 E= -874.580985859583     Delta-E=       -0.000027673470 Rises=F Damp=F
 DIIS: error= 2.35D-04 at cycle   4 NSaved=   4.
 NSaved= 4 IEnMin= 4 EnMin= -874.580985859583     IErMin= 4 ErrMin= 2.35D-04
 ErrMax= 2.35D-04  0.00D+00 EMaxC= 1.00D-01 BMatC= 1.25D-05 BMatP= 4.53D-05
 IDIUse=3 WtCom= 9.98D-01 WtEn= 2.35D-03
 Coeff-Com: -0.166D-01 0.184D+00 0.341D+00 0.491D+00
 Coeff-En:   0.000D+00 0.000D+00 0.228D+00 0.772D+00
 Coeff:     -0.166D-01 0.184D+00 0.341D+00 0.492D+00
 Gap=     0.241 Goal=   None    Shift=    0.000
 RMSDP=1.76D-05 MaxDP=7.16D-04 DE=-2.77D-05 OVMax= 1.38D-03

 Cycle   5  Pass 0  IDiag  1:
 RMSU=  1.15D-05    CP:  1.00D+00  1.10D+00  6.65D-01  6.20D-01
 E= -874.580995024262     Delta-E=       -0.000009164679 Rises=F Damp=F
 DIIS: error= 4.01D-05 at cycle   5 NSaved=   5.
 NSaved= 5 IEnMin= 5 EnMin= -874.580995024262     IErMin= 5 ErrMin= 4.01D-05
 ErrMax= 4.01D-05  0.00D+00 EMaxC= 1.00D-01 BMatC= 4.80D-07 BMatP= 1.25D-05
 IDIUse=1 WtCom= 1.00D+00 WtEn= 0.00D+00
 Coeff-Com: -0.406D-02 0.393D-01 0.127D+00 0.244D+00 0.594D+00
 Coeff:     -0.406D-02 0.393D-01 0.127D+00 0.244D+00 0.594D+00
 Gap=     0.241 Goal=   None    Shift=    0.000
 RMSDP=5.20D-06 MaxDP=1.77D-04 DE=-9.16D-06 OVMax= 1.99D-04

 Initial convergence to 1.0D-05 achieved.  Increase integral accuracy.
 Cycle   6  Pass 1  IDiag  1:
 E= -874.580981720379     Delta-E=        0.000013303883 Rises=F Damp=F
 DIIS: error= 1.06D-05 at cycle   1 NSaved=   1.
 NSaved= 1 IEnMin= 1 EnMin= -874.580981720379     IErMin= 1 ErrMin= 1.06D-05
 ErrMax= 1.06D-05  0.00D+00 EMaxC= 1.00D-01 BMatC= 6.73D-08 BMatP= 6.73D-08
 IDIUse=1 WtCom= 1.00D+00 WtEn= 0.00D+00
 Coeff-Com:  0.100D+01
 Coeff:      0.100D+01
 Gap=     0.241 Goal=   None    Shift=    0.000
 RMSDP=5.20D-06 MaxDP=1.77D-04 DE= 1.33D-05 OVMax= 9.73D-05

 Cycle   7  Pass 1  IDiag  1:
 RMSU=  4.61D-06    CP:  1.00D+00
 E= -874.580981686943     Delta-E=        0.000000033436 Rises=F Damp=F
 DIIS: error= 1.76D-05 at cycle   2 NSaved=   2.
 NSaved= 2 IEnMin= 1 EnMin= -874.580981720379     IErMin= 1 ErrMin= 1.06D-05
 ErrMax= 1.76D-05  0.00D+00 EMaxC= 1.00D-01 BMatC= 1.18D-07 BMatP= 6.73D-08
 IDIUse=1 WtCom= 1.00D+00 WtEn= 0.00D+00
 Coeff-Com:  0.577D+00 0.423D+00
 Coeff:      0.577D+00 0.423D+00
 Gap=     0.241 Goal=   None    Shift=    0.000
 RMSDP=1.77D-06 MaxDP=6.87D-05 DE= 3.34D-08 OVMax= 8.50D-05

 Cycle   8  Pass 1  IDiag  1:
 RMSU=  1.52D-06    CP:  1.00D+00  8.04D-01
 E= -874.580981778461     Delta-E=       -0.000000091519 Rises=F Damp=F
 DIIS: error= 4.18D-06 at cycle   3 NSaved=   3.
 NSaved= 3 IEnMin= 3 EnMin= -874.580981778461     IErMin= 3 ErrMin= 4.18D-06
 ErrMax= 4.18D-06  0.00D+00 EMaxC= 1.00D-01 BMatC= 4.59D-09 BMatP= 6.73D-08
 IDIUse=1 WtCom= 1.00D+00 WtEn= 0.00D+00
 Coeff-Com:  0.143D+00 0.187D+00 0.669D+00
 Coeff:      0.143D+00 0.187D+00 0.669D+00
 Gap=     0.241 Goal=   None    Shift=    0.000
 RMSDP=5.33D-07 MaxDP=1.70D-05 DE=-9.15D-08 OVMax= 3.70D-05

 Cycle   9  Pass 1  IDiag  1:
 RMSU=  4.76D-07    CP:  1.00D+00  8.23D-01  8.57D-01
 E= -874.580981779735     Delta-E=       -0.000000001274 Rises=F Damp=F
 DIIS: error= 3.45D-06 at cycle   4 NSaved=   4.
 NSaved= 4 IEnMin= 4 EnMin= -874.580981779735     IErMin= 4 ErrMin= 3.45D-06
 ErrMax= 3.45D-06  0.00D+00 EMaxC= 1.00D-01 BMatC= 3.10D-09 BMatP= 4.59D-09
 IDIUse=1 WtCom= 1.00D+00 WtEn= 0.00D+00
 Coeff-Com:  0.858D-02 0.669D-01 0.491D+00 0.433D+00
 Coeff:      0.858D-02 0.669D-01 0.491D+00 0.433D+00
 Gap=     0.241 Goal=   None    Shift=    0.000
 RMSDP=2.67D-07 MaxDP=9.14D-06 DE=-1.27D-09 OVMax= 1.67D-05

 Cycle  10  Pass 1  IDiag  1:
 RMSU=  1.12D-07    CP:  1.00D+00  8.29D-01  9.07D-01  5.23D-01
 E= -874.580981782091     Delta-E=       -0.000000002357 Rises=F Damp=F
 DIIS: error= 2.93D-07 at cycle   5 NSaved=   5.
 NSaved= 5 IEnMin= 5 EnMin= -874.580981782091     IErMin= 5 ErrMin= 2.93D-07
 ErrMax= 2.93D-07  0.00D+00 EMaxC= 1.00D-01 BMatC= 4.26D-11 BMatP= 3.10D-09
 IDIUse=1 WtCom= 1.00D+00 WtEn= 0.00D+00
 Coeff-Com: -0.516D-02 0.189D-01 0.183D+00 0.194D+00 0.609D+00
 Coeff:     -0.516D-02 0.189D-01 0.183D+00 0.194D+00 0.609D+00
 Gap=     0.241 Goal=   None    Shift=    0.000
 RMSDP=5.41D-08 MaxDP=2.77D-06 DE=-2.36D-09 OVMax= 1.87D-06

 Cycle  11  Pass 1  IDiag  1:
 RMSU=  4.33D-08    CP:  1.00D+00  8.33D-01  9.01D-01  5.08D-01  7.78D-01
 E= -874.580981782127     Delta-E=       -0.000000000036 Rises=F Damp=F
 DIIS: error= 1.10D-07 at cycle   6 NSaved=   6.
 NSaved= 6 IEnMin= 6 EnMin= -874.580981782127     IErMin= 6 ErrMin= 1.10D-07
 ErrMax= 1.10D-07  0.00D+00 EMaxC= 1.00D-01 BMatC= 5.15D-12 BMatP= 4.26D-11
 IDIUse=1 WtCom= 1.00D+00 WtEn= 0.00D+00
 Coeff-Com: -0.351D-02 0.390D-02 0.526D-01 0.624D-01 0.308D+00 0.577D+00
 Coeff:     -0.351D-02 0.390D-02 0.526D-01 0.624D-01 0.308D+00 0.577D+00
 Gap=     0.241 Goal=   None    Shift=    0.000
 RMSDP=1.85D-08 MaxDP=7.73D-07 DE=-3.59D-11 OVMax= 8.20D-07

 Cycle  12  Pass 1  IDiag  1:
 RMSU=  1.39D-08    CP:  1.00D+00  8.33D-01  9.04D-01  5.19D-01  8.34D-01
                    CP:  8.23D-01
 E= -874.580981782128     Delta-E=       -0.000000000001 Rises=F Damp=F
 DIIS: error= 3.49D-08 at cycle   7 NSaved=   7.
 NSaved= 7 IEnMin= 7 EnMin= -874.580981782128     IErMin= 7 ErrMin= 3.49D-08
 ErrMax= 3.49D-08  0.00D+00 EMaxC= 1.00D-01 BMatC= 5.19D-13 BMatP= 5.15D-12
 IDIUse=1 WtCom= 1.00D+00 WtEn= 0.00D+00
 Coeff-Com: -0.787D-03-0.103D-02-0.307D-02-0.681D-03 0.405D-01 0.248D+00
 Coeff-Com:  0.717D+00
 Coeff:     -0.787D-03-0.103D-02-0.307D-02-0.681D-03 0.405D-01 0.248D+00
 Coeff:      0.717D+00
 Gap=     0.241 Goal=   None    Shift=    0.000
 RMSDP=7.30D-09 MaxDP=1.61D-07 DE=-9.09D-13 OVMax= 3.74D-07

 SCF Done:  E(RB3LYP) =  -874.580981782     A.U. after   12 cycles
            NFock= 12  Conv=0.73D-08     -V/T= 2.0064
 KE= 8.690100315653D+02 PE=-3.306765506496D+03 EE= 9.396778718420D+02
 Leave Link  502 at Fri Mar 14 15:13:16 2025, MaxMem=  8589934592 cpu:              70.2 elap:               9.0
 (Enter /home/enzo/gaussian_versions/gdv.j21/gdv/l701.exe)
 ... and contract with generalized density number  0.
 Compute integral first derivatives.
 Leave Link  701 at Fri Mar 14 15:13:16 2025, MaxMem=  8589934592 cpu:               1.5 elap:               0.4
 (Enter /home/enzo/gaussian_versions/gdv.j21/gdv/l702.exe)
 L702 exits ... SP integral derivatives will be done elsewhere.
 Leave Link  702 at Fri Mar 14 15:13:17 2025, MaxMem=  8589934592 cpu:               0.1 elap:               0.2
 (Enter /home/enzo/gaussian_versions/gdv.j21/gdv/l703.exe)
 Integral derivatives from FoFJK, PRISM(SPDF).
 Compute integral first derivatives, UseDBF=F ICtDFT=           0.
 Calling FoFJK, ICntrl=      2127 FMM=F ISym2X=0 I1Cent= 0 IOpClX= 0 NMat=1 NMatS=1 NMatT=0.
 FoFJK:  IHMeth= 1 ICntrl=    2127 DoSepK=F KAlg= 0 I1Cent=           0 FoldK=F
 IRaf=         0 NMat=       1 IRICut=       1 DoRegI=T DoRafI=F ISym2E= 0 IDoP0=0 IntGTp=1.
 FoFCou: FMM=F IPFlag=           0 FMFlag=      100000 FMFlg1=         800
         NFxFlg=           0 DoJE=F BraDBF=F KetDBF=F FulRan=T
         wScrn=  0.000000 ICntrl=      2127 IOpCl=  0 I1Cent=           0 NGrid=           0
         NMat0=    1 NMatS0=      1 NMatT0=    0 NMatD0=    1 NMtDS0=    0 NMtDT0=    0
 Symmetry not used in FoFCou.
 Leave Link  703 at Fri Mar 14 15:13:19 2025, MaxMem=  8589934592 cpu:              16.2 elap:               2.4
 (Enter /home/enzo/gaussian_versions/gdv.j21/gdv/l716.exe)
 Dipole        =-5.92982921D-01 3.91033223D-01-4.71179636D-01
 ***** Axes restored to original set *****
 -------------------------------------------------------------------
 Center     Atomic                   Forces (Hartrees/Bohr)
 Number     Number              X              Y              Z
 -------------------------------------------------------------------
      1        6           0.000623009    0.000131898    0.000207372
      2        6          -0.001251551   -0.000374194   -0.000161064
      3       16           0.000513753   -0.000229496    0.000314787
      4        6           0.000758120   -0.000228832    0.000220501
      5        8          -0.000564177    0.000006427   -0.000536480
      6        7           0.000157252    0.000703383    0.000460928
      7        6           0.000192472   -0.000967029   -0.000053966
      8        6          -0.000087698    0.000934701   -0.000090705
      9        8          -0.000756820   -0.000529905   -0.000404848
     10        8           0.000675017    0.000080509    0.000117506
     11        1           0.000014554    0.000089451   -0.000049463
     12        1           0.000013383   -0.000111080    0.000090245
     13        1          -0.000045332   -0.000009863   -0.000102903
     14        1           0.000274559    0.000554959   -0.000145792
     15        1          -0.000092941   -0.000251460    0.000047677
     16        1          -0.000002743    0.000043823   -0.000152203
     17        1          -0.000202954    0.000315982   -0.000110221
     18        1          -0.000045581    0.000074124    0.000093507
     19        1          -0.000172321   -0.000233399    0.000255121
 -------------------------------------------------------------------
 Cartesian Forces:  Max     0.001251551 RMS     0.000393704
 Leave Link  716 at Fri Mar 14 15:13:19 2025, MaxMem=  8589934592 cpu:               0.2 elap:               0.3
 (Enter /home/enzo/gaussian_versions/gdv.j21/gdv/l103.exe)

 GradGradGradGradGradGradGradGradGradGradGradGradGradGradGradGradGradGrad
 Berny optimization.
 Using GEDIIS/GDIIS optimizer.
 FormGI is forming the generalized inverse of G from B-inverse, IUseBI=4.
 Internal  Forces:  Max     0.001041284 RMS     0.000285980
 Search for a local minimum.
 Step number   7 out of a maximum of   93
 All quantities printed in internal units (Hartrees-Bohrs-Radians)
 RMS Force = .28598D-03 SwitMx=.10000D-02 MixMth= 2
 Mixed Optimization -- En-DIIS/RFO-DIIS
 Swapping is turned off.
 Update second derivatives using D2CorX and points    4    5    6    7
 DE= -1.80D-04 DEPred=-1.08D-04 R= 1.66D+00
 TightC=F SS=  1.41D+00  RLast= 2.49D-01 DXNew= 1.4270D+00 7.4816D-01
 Trust test= 1.66D+00 RLast= 2.49D-01 DXMaxT set to 8.49D-01
 ITU=  1  1  0  0  1  1  0
     Eigenvalues ---    0.00122   0.00407   0.00452   0.00788   0.00925
     Eigenvalues ---    0.01090   0.01331   0.01514   0.01927   0.03977
     Eigenvalues ---    0.04808   0.05294   0.05378   0.05667   0.05741
     Eigenvalues ---    0.06700   0.08115   0.09743   0.13207   0.15780
     Eigenvalues ---    0.15993   0.16005   0.16009   0.16558   0.17197
     Eigenvalues ---    0.17551   0.20796   0.21462   0.22077   0.22157
     Eigenvalues ---    0.23500   0.24821   0.25085   0.25437   0.28512
     Eigenvalues ---    0.30587   0.31499   0.32567   0.32590   0.32608
     Eigenvalues ---    0.32648   0.32796   0.33052   0.33433   0.37242
     Eigenvalues ---    0.40739   0.41116   0.46231   0.50046   0.78226
     Eigenvalues ---    0.82067
 En-DIIS/RFO-DIIS/Sim-DIIS IScMMF=       -3 using points:     7    6    5    4
 RFO step:  Lambda=-2.81981548D-04.
 NNeg= 0 NGDIIS= 4 SimSw=  2.50D-01 Rises=F DC= -1.80D-04 SmlDif=  1.00D-05
 NRisDI= 0 DoIntr=F SqrtH=F CThrHd= 10.0 CDAdj=  3.0
 RMS Error=  0.4366814158D-01 NUsed= 4 OKEnD=T EnDIS=F
 InvSVX:  RCond= 8.11D-04 Info=           0 Equed=N FErr=  9.99D-14 BErr=  5.15D-17
 DidBck=FF Rises=F RFO-DIIS coefs:    2.44096   -0.83652   -0.34190   -0.26254
 Iteration  1 RMS(Cart)=  0.06913973 RMS(Int)=  0.00293453
 Iteration  2 RMS(Cart)=  0.00392997 RMS(Int)=  0.00033938
 Iteration  3 RMS(Cart)=  0.00001229 RMS(Int)=  0.00033929
 Iteration  4 RMS(Cart)=  0.00000000 RMS(Int)=  0.00033929
 Variable       Old X    -DE/DX   Delta X   Delta X   Delta X     New X
                                 (Linear)    (Quad)   (Total)
    R1        2.87985   0.00053  -0.00293   0.00272  -0.00021   2.87964
    R2        2.06848  -0.00002   0.00043  -0.00016   0.00027   2.06875
    R3        2.06774  -0.00014  -0.00088  -0.00015  -0.00103   2.06671
    R4        2.06521  -0.00009   0.00141  -0.00053   0.00088   2.06609
    R5        3.52314   0.00054  -0.00604   0.00425  -0.00179   3.52134
    R6        2.91624   0.00013   0.00066   0.00113   0.00179   2.91804
    R7        2.07184   0.00014  -0.00055   0.00069   0.00014   2.07198
    R8        2.55121  -0.00002  -0.00146   0.00072  -0.00074   2.55047
    R9        2.30833  -0.00009   0.00134  -0.00007   0.00127   2.30960
   R10        2.58809  -0.00010  -0.00158   0.00039  -0.00120   2.58689
   R11        2.74553   0.00028  -0.00127   0.00135   0.00008   2.74561
   R12        1.91312  -0.00001   0.00138  -0.00008   0.00130   1.91442
   R13        2.88276  -0.00000  -0.00447   0.00097  -0.00350   2.87926
   R14        2.06270   0.00028  -0.00003   0.00129   0.00125   2.06395
   R15        2.06632  -0.00008   0.00065  -0.00033   0.00032   2.06664
   R16        2.28683   0.00097  -0.00225   0.00230   0.00005   2.28689
   R17        2.55186   0.00037  -0.00056   0.00188   0.00132   2.55319
   R18        1.84389   0.00038  -0.00264   0.00207  -0.00057   1.84332
    A1        1.92796   0.00008  -0.00101   0.00112   0.00011   1.92807
    A2        1.91652   0.00004  -0.00045   0.00032  -0.00013   1.91639
    A3        1.93421  -0.00010   0.00110  -0.00112  -0.00003   1.93418
    A4        1.90037  -0.00007   0.00378  -0.00122   0.00256   1.90293
    A5        1.89760   0.00004  -0.00527   0.00165  -0.00363   1.89398
    A6        1.88633  -0.00000   0.00194  -0.00079   0.00115   1.88748
    A7        1.97097  -0.00051  -0.00113  -0.00242  -0.00362   1.96735
    A8        1.94188   0.00023  -0.00249   0.00169  -0.00086   1.94102
    A9        1.92756  -0.00023   0.00593  -0.00673  -0.00084   1.92672
   A10        1.90170   0.00037   0.01523   0.00258   0.01782   1.91952
   A11        1.85093   0.00034  -0.01019   0.00619  -0.00394   1.84698
   A12        1.86572  -0.00017  -0.00795  -0.00102  -0.00893   1.85679
   A13        1.67195   0.00066  -0.00572   0.00718   0.00146   1.67341
   A14        2.11838   0.00050  -0.01355   0.00484  -0.00919   2.10919
   A15        2.01058   0.00053   0.00687   0.00192   0.00831   2.01889
   A16        2.15278  -0.00104   0.00778  -0.00733  -0.00003   2.15274
   A17        2.12865  -0.00017  -0.00484   0.00035  -0.00610   2.12255
   A18        2.07379   0.00013  -0.01073   0.00339  -0.00889   2.06490
   A19        2.06992   0.00005   0.00566   0.00001   0.00396   2.07388
   A20        1.93671   0.00058   0.00624   0.00277   0.00897   1.94568
   A21        1.86320  -0.00028  -0.00516  -0.00163  -0.00676   1.85644
   A22        1.92972   0.00015   0.00337   0.00338   0.00668   1.93640
   A23        1.92927  -0.00014  -0.00587  -0.00100  -0.00685   1.92242
   A24        1.88047  -0.00026   0.00238  -0.00103   0.00125   1.88172
   A25        1.92510  -0.00005  -0.00099  -0.00247  -0.00345   1.92165
   A26        2.17774  -0.00004   0.00418  -0.00109   0.00295   2.18070
   A27        1.95143  -0.00019  -0.00018  -0.00117  -0.00147   1.94995
   A28        2.15367   0.00022  -0.00354   0.00141  -0.00226   2.15140
   A29        1.85779   0.00008  -0.00089   0.00165   0.00076   1.85855
    D1        1.04782  -0.00009  -0.02097   0.00579  -0.01516   1.03265
    D2       -3.09042   0.00020  -0.00372   0.00867   0.00494  -3.08548
    D3       -1.02139  -0.00002  -0.01138   0.00413  -0.00725  -1.02864
    D4       -3.13915  -0.00009  -0.01721   0.00520  -0.01200   3.13204
    D5       -0.99421   0.00019   0.00004   0.00807   0.00811  -0.98610
    D6        1.07483  -0.00003  -0.00762   0.00354  -0.00408   1.07075
    D7       -1.05642  -0.00013  -0.01440   0.00372  -0.01066  -1.06709
    D8        1.08852   0.00015   0.00285   0.00660   0.00944   1.09796
    D9       -3.12563  -0.00006  -0.00481   0.00206  -0.00275  -3.12838
   D10       -1.19307   0.00013  -0.06506  -0.00857  -0.07362  -1.26668
   D11        2.92297  -0.00009  -0.07230  -0.01098  -0.08332   2.83965
   D12        0.92023  -0.00024  -0.06522  -0.01419  -0.07938   0.84085
   D13        0.16071   0.00014   0.09463  -0.00666   0.08793   0.24864
   D14       -3.03681  -0.00007   0.09038  -0.01788   0.07251  -2.96430
   D15        2.34494  -0.00009   0.10233  -0.00672   0.09563   2.44057
   D16       -0.85258  -0.00029   0.09808  -0.01795   0.08022  -0.77236
   D17       -1.94511   0.00040   0.09388   0.00122   0.09504  -1.85007
   D18        1.14055   0.00019   0.08964  -0.01000   0.07963   1.22018
   D19        3.11958   0.00006  -0.03813   0.01566  -0.02204   3.09754
   D20        0.13782  -0.00003   0.05615  -0.01181   0.04395   0.18178
   D21       -0.07918  -0.00010  -0.04322   0.00463  -0.03820  -0.11738
   D22       -3.06094  -0.00019   0.05106  -0.02284   0.02779  -3.03314
   D23       -1.93350  -0.00004  -0.02786  -0.00425  -0.03190  -1.96540
   D24        0.16984  -0.00005  -0.03459  -0.00489  -0.03931   0.13052
   D25        2.26414  -0.00019  -0.03701  -0.00696  -0.04384   2.22030
   D26        1.04860   0.00006  -0.12270   0.02346  -0.09936   0.94924
   D27       -3.13125   0.00005  -0.12944   0.02283  -0.10677   3.04516
   D28       -1.03695  -0.00009  -0.13185   0.02076  -0.11130  -1.14825
   D29       -1.77088  -0.00032  -0.10295  -0.01111  -0.11408  -1.88496
   D30        1.34303  -0.00053  -0.09126  -0.04494  -0.13622   1.20680
   D31        2.44859  -0.00026  -0.09676  -0.01020  -0.10695   2.34164
   D32       -0.72070  -0.00046  -0.08507  -0.04402  -0.12909  -0.84978
   D33        0.34391   0.00005  -0.09356  -0.00594  -0.09948   0.24443
   D34       -2.82537  -0.00016  -0.08187  -0.03977  -0.12162  -2.94700
   D35       -3.09081   0.00015  -0.01930   0.02314   0.00383  -3.08698
   D36        0.02354  -0.00006  -0.00761  -0.01018  -0.01778   0.00576
         Item               Value     Threshold  Converged?
 Maximum Force            0.001041     0.000450     NO 
 RMS     Force            0.000286     0.000300     YES
 Maximum Displacement     0.275006     0.001800     NO 
 RMS     Displacement     0.068908     0.001200     NO 
 Predicted change in Energy=-1.621049D-04
 Lowest energy point so far.  Saving SCF results.
 GradGradGradGradGradGradGradGradGradGradGradGradGradGradGradGradGradGrad

 Leave Link  103 at Fri Mar 14 15:13:20 2025, MaxMem=  8589934592 cpu:               0.6 elap:               0.3
 (Enter /home/enzo/gaussian_versions/gdv.j21/gdv/l202.exe)
                          Input orientation:                          
 ---------------------------------------------------------------------
 Center     Atomic      Atomic             Coordinates (Angstroms)
 Number     Number       Type             X           Y           Z
 ---------------------------------------------------------------------
      1          6           0        3.045006    1.077662    0.479791
      2          6           0        2.051567    0.215607   -0.289647
      3         16           0        1.887173   -1.499865    0.419187
      4          6           0        0.665036    0.891311   -0.363008
      5          8           0        0.527745    2.072425   -0.080402
      6          7           0       -0.351392    0.109033   -0.841412
      7          6           0       -1.718072    0.596705   -0.914400
      8          6           0       -2.626920   -0.142314    0.059929
      9          8           0       -3.471218   -0.949674   -0.256041
     10          8           0       -2.338590    0.164615    1.343713
     11          1           0        4.037080    0.614824    0.475673
     12          1           0        3.111307    2.067339    0.019105
     13          1           0        2.725984    1.205894    1.517648
     14          1           0        2.384994    0.080459   -1.325388
     15          1           0        3.088641   -1.941798   -0.008272
     16          1           0       -0.179488   -0.882212   -0.960519
     17          1           0       -1.679850    1.658555   -0.661608
     18          1           0       -2.127313    0.464182   -1.919865
     19          1           0       -2.925297   -0.383309    1.897826
 ---------------------------------------------------------------------
                    Distance matrix (angstroms):
                    1          2          3          4          5
     1  C    0.000000
     2  C    1.523842   0.000000
     3  S    2.826287   1.863415   0.000000
     4  C    2.531658   1.544159   2.796993   0.000000
     5  O    2.764050   2.411139   3.854723   1.222189   0.000000
     6  N    3.770853   2.467795   3.031309   1.368925   2.281870
     7  C    4.986181   3.840017   4.378567   2.463743   2.813716
     8  C    5.816817   4.705162   4.727477   3.476238   3.857029
     9  O    6.863870   5.644481   5.428719   4.528716   5.015540
    10  O    5.528393   4.684437   4.634901   3.530263   3.726087
    11  H    1.094735   2.165029   3.016157   3.485758   3.840475
    12  H    1.093658   2.155757   3.792560   2.741039   2.585483
    13  H    1.093328   2.168369   3.038314   2.807728   2.852524
    14  H    2.165340   1.096447   2.405991   2.131176   2.994544
    15  H    3.058962   2.410206   1.349649   3.745158   4.762077
    16  H    4.038930   2.575438   2.560502   2.053198   3.163015
    17  H    4.895354   4.017950   4.885426   2.485219   2.320035
    18  H    5.734771   4.492487   5.044278   3.225439   3.608242
    19  H    6.307913   5.469270   5.156833   4.430182   4.676271
                    6          7          8          9         10
     6  N    0.000000
     7  C    1.452916   0.000000
     8  C    2.460410   1.523637   0.000000
     9  O    3.346167   2.428630   1.210169   0.000000
    10  O    2.954119   2.381349   1.351089   2.254706   0.000000
    11  H    4.609687   5.920676   6.719746   7.704388   6.450221
    12  H    4.070103   5.133917   6.149104   7.246220   5.922527
    13  H    4.029704   5.102510   5.709307   6.796893   5.173435
    14  H    2.779002   4.155787   5.204614   6.041514   5.426180
    15  H    4.090703   5.510858   5.992531   6.639084   5.976594
    16  H    1.013066   2.134610   2.752941   3.366946   3.326718
    17  H    2.048939   1.092196   2.158862   3.190039   2.585945
    18  H    2.107864   1.093618   2.130030   2.563860   3.284102
    19  H    3.790885   3.213477   1.877491   2.293020   0.975441
                   11         12         13         14         15
    11  H    0.000000
    12  H    1.781939   0.000000
    13  H    1.775963   1.770930   0.000000
    14  H    2.501750   2.506568   3.076643   0.000000
    15  H    2.769487   4.009294   3.516805   2.513849   0.000000
    16  H    4.699277   4.526461   4.352386   2.763409   3.565132
    17  H    5.921661   4.856507   4.936135   4.410662   6.010648
    18  H    6.615213   5.811443   5.993424   4.567446   6.053850
    19  H    7.175895   6.780550   5.882778   6.229235   6.498426
                   16         17         18         19
    16  H    0.000000
    17  H    2.965793   0.000000
    18  H    2.554828   1.791637   0.000000
    19  H    3.994810   3.503006   3.991213   0.000000
 Stoichiometry    C5H9NO3S
 Framework group  C1[X(C5H9NO3S)]
 Deg. of freedom    51
 Full point group                 C1      NOp   1
 RotChk:  IX=0 Diff= 6.25D-02
 Largest Abelian subgroup         C1      NOp   1
 Largest concise Abelian subgroup C1      NOp   1
                         Standard orientation:                         
 ---------------------------------------------------------------------
 Center     Atomic      Atomic             Coordinates (Angstroms)
 Number     Number       Type             X           Y           Z
 ---------------------------------------------------------------------
      1          6           0       -3.066606   -0.814106    0.516856
      2          6           0       -2.017642   -0.131709   -0.352684
      3         16           0       -1.807193    1.673910    0.056912
      4          6           0       -0.657136   -0.856055   -0.259023
      5          8           0       -0.574785   -1.974545    0.226719
      6          7           0        0.402999   -0.202698   -0.827523
      7          6           0        1.751048   -0.741216   -0.766458
      8          6           0        2.658817    0.124058    0.098833
      9          8           0        3.543184    0.835934   -0.320257
     10          8           0        2.320596    0.053305    1.404988
     11          1           0       -4.039184   -0.325919    0.397648
     12          1           0       -3.157972   -1.865684    0.230635
     13          1           0       -2.783881   -0.771798    1.572150
     14          1           0       -2.314545   -0.166360   -1.407599
     15          1           0       -2.977137    2.075430   -0.483054
     16          1           0        0.273760    0.758282   -1.120982
     17          1           0        1.663668   -1.741563   -0.336852
     18          1           0        2.194908   -0.798136   -1.764330
     19          1           0        2.911615    0.668698    1.877718
 ---------------------------------------------------------------------
 Rotational constants (GHZ):           1.8706710           0.6153300           0.5304833
 Leave Link  202 at Fri Mar 14 15:13:20 2025, MaxMem=  8589934592 cpu:               0.1 elap:               0.3
 (Enter /home/enzo/gaussian_versions/gdv.j21/gdv/l301.exe)
 Standard basis: 6-31G(d) (6D, 7F)
 Ernie: Thresh=  0.10000D-02 Tol=  0.10000D-05 Strict=F.
 There are   172 symmetry adapted cartesian basis functions of A   symmetry.
 There are   172 symmetry adapted basis functions of A   symmetry.
   172 basis functions,   340 primitive gaussians,   172 cartesian basis functions
    43 alpha electrons       43 beta electrons
       nuclear repulsion energy       623.5481066849 Hartrees.
 IExCor=      4002 DFT=T Ex+Corr=B3LYP ScaHFX=  0.200000
 ScaDFX=  0.800000  0.720000  1.000000  0.810000  1.000000  0.000000
 ScaDFX=  0.000000  0.000000  0.000000  0.000000  0.000000  0.000000
 IRadAn=      5 IRanWt=     -1 IRanGd=            0 ICorTp=0 IEmpDi=  4
 NAtoms=   19 NActive=   19 NUniq=   19 SFac= 1.00D+00 NAtFMM=   60 NAOKFM=F Big=F
 Integral buffers will be    131072 words long.
 Raffenetti 2 integral format.
 Two-electron integral symmetry is turned on.
 Leave Link  301 at Fri Mar 14 15:13:20 2025, MaxMem=  8589934592 cpu:               0.3 elap:               0.3
 (Enter /home/enzo/gaussian_versions/gdv.j21/gdv/l302.exe)
 NPDir=0 NMtPBC=     1 NCelOv=     1 NCel=       1 NClECP=     1 NCelD=      1
         NCelK=      1 NCelE2=     1 NClLst=     1 CellRange=     0.0.
 One-electron integrals computed using PRISM.
 One-electron integral symmetry used in STVInt
 NBasis=   172 RedAO= T EigKep=  3.00D-03  NBF=   172
 NBsUse=   172 1.00D-06 EigRej= -1.00D+00 NBFU=   172
 Precomputing XC quadrature grid using
 IXCGrd= 4 IRadAn=           5 IRanWt=          -1 IRanGd=           0 AccXCQ= 0.00D+00.
 Generated NRdTot=       0 NPtTot=      407753 NUsed=           0 NTot=          64
 NSgBfM=   172   172   172   172   172 MxSgAt=    19 MxSgA2=    19 SizInc=   0.000
 NMBTot=     3482 MaxBatPerAtom=       85 MaxMicBPerAtom=      204 NBfPt=            51079979.
 Leave Link  302 at Fri Mar 14 15:13:21 2025, MaxMem=  8589934592 cpu:               3.2 elap:               0.6
 (Enter /home/enzo/gaussian_versions/gdv.j21/gdv/l303.exe)
 DipDrv:  MaxL=1.
 Leave Link  303 at Fri Mar 14 15:13:21 2025, MaxMem=  8589934592 cpu:               0.8 elap:               0.4
 (Enter /home/enzo/gaussian_versions/gdv.j21/gdv/l401.exe)
 Initial guess from the checkpoint file:  "/local/home/enzo/scratch/Gau-2337652.chk"
 B after Tr=    -0.000000   -0.000000    0.000000
         Rot=    0.999820    0.018634    0.003321    0.001002 Ang=   2.17 deg.
 AO Guess basis will be translated and rotated to current coordinates.
 JPrj=2 DoOrth=T DoCkMO=T.
 Generating alternative initial guess.
 ExpMin= 1.17D-01 ExpMax= 2.19D+04 ExpMxC= 3.30D+03 IAcc=3 IRadAn=         5 AccDes= 0.00D+00
 Harris functional with IExCor= 4002 and IRadAn=       5 diagonalized for initial guess.
 HarFok:  IExCor=    4002 AccDes= 0.00D+00 IRadAn=         5 IDoV= 1 UseB2=F ITyADJ=14 ICtDFT=  3500011
 FoFCou: FMM=F IPFlag=           0 FMFlag=      100000 FMFlg1=           0
         NFxFlg=           0 DoJE=T BraDBF=F KetDBF=T FulRan=T
         wScrn=  0.000000 ICntrl=       500 IOpCl=  0 I1Cent=   200000004 NGrid=           0
         NMat0=    1 NMatS0=      1 NMatT0=    0 NMatD0=    1 NMtDS0=    0 NMtDT0=    0
 Petite list used in FoFCou.
 Harris En= -874.545701049409    
 Leave Link  401 at Fri Mar 14 15:13:22 2025, MaxMem=  8589934592 cpu:               7.6 elap:               1.1
 (Enter /home/enzo/gaussian_versions/gdv.j21/gdv/l502.exe)
 Integral symmetry usage will be decided dynamically.
 Closed shell SCF:
 Using DIIS extrapolation, IDIIS=  1040.
 NGot=  8589934592 LenX=  8589843591 LenY=  8589813566
 Requested convergence on RMS density matrix=1.00D-08 within 128 cycles.
 Requested convergence on MAX density matrix=1.00D-06.
 Requested convergence on             energy=1.00D-06.
 No special actions if energy rises.
 Fock matrices will be formed incrementally for  20 cycles.
 Integral accuracy reduced to 1.0D-05 until final iterations.

 Cycle   1  Pass 0  IDiag  1:
 FoFJK:  IHMeth= 1 ICntrl=       0 DoSepK=F KAlg= 0 I1Cent=           0 FoldK=F
 IRaf= 900000000 NMat=       1 IRICut=       1 DoRegI=T DoRafI=F ISym2E= 0 IDoP0=0 IntGTp=1.
 FoFCou: FMM=F IPFlag=           0 FMFlag=      100000 FMFlg1=           0
         NFxFlg=           0 DoJE=F BraDBF=F KetDBF=F FulRan=T
         wScrn=  0.000000 ICntrl=         0 IOpCl=  0 I1Cent=           0 NGrid=           0
         NMat0=    1 NMatS0=      1 NMatT0=    0 NMatD0=    1 NMtDS0=    0 NMtDT0=    0
 Symmetry not used in FoFCou.
 E= -874.561360468450    
 DIIS: error= 4.76D-03 at cycle   1 NSaved=   1.
 NSaved= 1 IEnMin= 1 EnMin= -874.561360468450     IErMin= 1 ErrMin= 4.76D-03
 ErrMax= 4.76D-03  0.00D+00 EMaxC= 1.00D-01 BMatC= 1.02D-02 BMatP= 1.02D-02
 IDIUse=3 WtCom= 9.52D-01 WtEn= 4.76D-02
 Coeff-Com:  0.100D+01
 Coeff-En:   0.100D+01
 Coeff:      0.100D+01
 Gap=     1.612 Goal=   None    Shift=    0.000
 GapD=    1.612 DampG=2.000 DampE=1.000 DampFc=2.0000 IDamp=-1.
 RMSDP=1.02D-03 MaxDP=2.89D-02              OVMax= 4.09D-02

 Cycle   2  Pass 0  IDiag  1:
 RMSU=  1.02D-03    CP:  9.99D-01
 E= -874.580807842998     Delta-E=       -0.019447374548 Rises=F Damp=F
 DIIS: error= 9.38D-04 at cycle   2 NSaved=   2.
 NSaved= 2 IEnMin= 2 EnMin= -874.580807842998     IErMin= 2 ErrMin= 9.38D-04
 ErrMax= 9.38D-04  0.00D+00 EMaxC= 1.00D-01 BMatC= 2.25D-04 BMatP= 1.02D-02
 IDIUse=3 WtCom= 9.91D-01 WtEn= 9.38D-03
 Coeff-Com: -0.622D-01 0.106D+01
 Coeff-En:   0.000D+00 0.100D+01
 Coeff:     -0.616D-01 0.106D+01
 Gap=     0.242 Goal=   None    Shift=    0.000
 RMSDP=1.67D-04 MaxDP=4.62D-03 DE=-1.94D-02 OVMax= 7.00D-03

 Cycle   3  Pass 0  IDiag  1:
 RMSU=  1.50D-04    CP:  9.99D-01  1.07D+00
 E= -874.580942108745     Delta-E=       -0.000134265747 Rises=F Damp=F
 DIIS: error= 9.13D-04 at cycle   3 NSaved=   3.
 NSaved= 3 IEnMin= 3 EnMin= -874.580942108745     IErMin= 3 ErrMin= 9.13D-04
 ErrMax= 9.13D-04  0.00D+00 EMaxC= 1.00D-01 BMatC= 2.50D-04 BMatP= 2.25D-04
 IDIUse=3 WtCom= 2.49D-01 WtEn= 7.51D-01
 Coeff-Com: -0.467D-01 0.582D+00 0.465D+00
 Coeff-En:   0.000D+00 0.239D+00 0.761D+00
 Coeff:     -0.116D-01 0.324D+00 0.687D+00
 Gap=     0.243 Goal=   None    Shift=    0.000
 RMSDP=1.41D-04 MaxDP=5.50D-03 DE=-1.34D-04 OVMax= 8.07D-03

 Cycle   4  Pass 0  IDiag  1:
 RMSU=  9.13D-05    CP:  9.99D-01  1.09D+00  2.98D-01
 E= -874.580919185450     Delta-E=        0.000022923295 Rises=F Damp=F
 DIIS: error= 9.29D-04 at cycle   4 NSaved=   4.
 NSaved= 4 IEnMin= 3 EnMin= -874.580942108745     IErMin= 3 ErrMin= 9.13D-04
 ErrMax= 9.29D-04  0.00D+00 EMaxC= 1.00D-01 BMatC= 2.89D-04 BMatP= 2.25D-04
 IDIUse=3 WtCom= 2.47D-01 WtEn= 7.53D-01
 Coeff-Com: -0.167D-01 0.177D+00 0.482D+00 0.358D+00
 Coeff-En:   0.000D+00 0.000D+00 0.522D+00 0.478D+00
 Coeff:     -0.412D-02 0.438D-01 0.512D+00 0.449D+00
 Gap=     0.242 Goal=   None    Shift=    0.000
 RMSDP=7.98D-05 MaxDP=3.19D-03 DE= 2.29D-05 OVMax= 5.43D-03

 Cycle   5  Pass 0  IDiag  1:
 RMSU=  2.80D-05    CP:  9.99D-01  1.09D+00  6.22D-01  3.82D-01
 E= -874.581129794465     Delta-E=       -0.000210609015 Rises=F Damp=F
 DIIS: error= 1.74D-04 at cycle   5 NSaved=   5.
 NSaved= 5 IEnMin= 5 EnMin= -874.581129794465     IErMin= 5 ErrMin= 1.74D-04
 ErrMax= 1.74D-04  0.00D+00 EMaxC= 1.00D-01 BMatC= 1.02D-05 BMatP= 2.25D-04
 IDIUse=3 WtCom= 9.98D-01 WtEn= 1.74D-03
 Coeff-Com: -0.547D-02 0.482D-01 0.300D+00 0.270D+00 0.387D+00
 Coeff-En:   0.000D+00 0.000D+00 0.000D+00 0.000D+00 0.100D+01
 Coeff:     -0.546D-02 0.481D-01 0.300D+00 0.270D+00 0.388D+00
 Gap=     0.242 Goal=   None    Shift=    0.000
 RMSDP=1.66D-05 MaxDP=5.29D-04 DE=-2.11D-04 OVMax= 9.78D-04

 Cycle   6  Pass 0  IDiag  1:
 RMSU=  6.53D-06    CP:  9.99D-01  1.09D+00  6.39D-01  4.66D-01  5.38D-01
 E= -874.581137838976     Delta-E=       -0.000008044511 Rises=F Damp=F
 DIIS: error= 2.79D-05 at cycle   6 NSaved=   6.
 NSaved= 6 IEnMin= 6 EnMin= -874.581137838976     IErMin= 6 ErrMin= 2.79D-05
 ErrMax= 2.79D-05  0.00D+00 EMaxC= 1.00D-01 BMatC= 2.30D-07 BMatP= 1.02D-05
 IDIUse=1 WtCom= 1.00D+00 WtEn= 0.00D+00
 Coeff-Com:  0.353D-03-0.112D-01 0.546D-01 0.626D-01 0.175D+00 0.719D+00
 Coeff:      0.353D-03-0.112D-01 0.546D-01 0.626D-01 0.175D+00 0.719D+00
 Gap=     0.242 Goal=   None    Shift=    0.000
 RMSDP=3.31D-06 MaxDP=1.05D-04 DE=-8.04D-06 OVMax= 1.38D-04

 Initial convergence to 1.0D-05 achieved.  Increase integral accuracy.
 Cycle   7  Pass 1  IDiag  1:
 E= -874.581126898841     Delta-E=        0.000010940135 Rises=F Damp=F
 DIIS: error= 8.79D-06 at cycle   1 NSaved=   1.
 NSaved= 1 IEnMin= 1 EnMin= -874.581126898841     IErMin= 1 ErrMin= 8.79D-06
 ErrMax= 8.79D-06  0.00D+00 EMaxC= 1.00D-01 BMatC= 4.70D-08 BMatP= 4.70D-08
 IDIUse=1 WtCom= 1.00D+00 WtEn= 0.00D+00
 Coeff-Com:  0.100D+01
 Coeff:      0.100D+01
 Gap=     0.242 Goal=   None    Shift=    0.000
 RMSDP=3.31D-06 MaxDP=1.05D-04 DE= 1.09D-05 OVMax= 7.53D-05

 Cycle   8  Pass 1  IDiag  1:
 RMSU=  5.03D-06    CP:  1.00D+00
 E= -874.581126882100     Delta-E=        0.000000016741 Rises=F Damp=F
 DIIS: error= 1.43D-05 at cycle   2 NSaved=   2.
 NSaved= 2 IEnMin= 1 EnMin= -874.581126898841     IErMin= 1 ErrMin= 8.79D-06
 ErrMax= 1.43D-05  0.00D+00 EMaxC= 1.00D-01 BMatC= 7.26D-08 BMatP= 4.70D-08
 IDIUse=1 WtCom= 1.00D+00 WtEn= 0.00D+00
 Coeff-Com:  0.562D+00 0.438D+00
 Coeff:      0.562D+00 0.438D+00
 Gap=     0.242 Goal=   None    Shift=    0.000
 RMSDP=1.82D-06 MaxDP=6.03D-05 DE= 1.67D-08 OVMax= 6.91D-05

 Cycle   9  Pass 1  IDiag  1:
 RMSU=  1.54D-06    CP:  1.00D+00  8.11D-01
 E= -874.581126935579     Delta-E=       -0.000000053479 Rises=F Damp=F
 DIIS: error= 6.29D-06 at cycle   3 NSaved=   3.
 NSaved= 3 IEnMin= 3 EnMin= -874.581126935579     IErMin= 3 ErrMin= 6.29D-06
 ErrMax= 6.29D-06  0.00D+00 EMaxC= 1.00D-01 BMatC= 7.99D-09 BMatP= 4.70D-08
 IDIUse=1 WtCom= 1.00D+00 WtEn= 0.00D+00
 Coeff-Com:  0.169D+00 0.258D+00 0.573D+00
 Coeff:      0.169D+00 0.258D+00 0.573D+00
 Gap=     0.242 Goal=   None    Shift=    0.000
 RMSDP=6.63D-07 MaxDP=2.54D-05 DE=-5.35D-08 OVMax= 2.99D-05

 Cycle  10  Pass 1  IDiag  1:
 RMSU=  5.66D-07    CP:  1.00D+00  8.36D-01  7.94D-01
 E= -874.581126940250     Delta-E=       -0.000000004671 Rises=F Damp=F
 DIIS: error= 2.30D-06 at cycle   4 NSaved=   4.
 NSaved= 4 IEnMin= 4 EnMin= -874.581126940250     IErMin= 4 ErrMin= 2.30D-06
 ErrMax= 2.30D-06  0.00D+00 EMaxC= 1.00D-01 BMatC= 1.72D-09 BMatP= 7.99D-09
 IDIUse=1 WtCom= 1.00D+00 WtEn= 0.00D+00
 Coeff-Com:  0.550D-02 0.864D-01 0.373D+00 0.536D+00
 Coeff:      0.550D-02 0.864D-01 0.373D+00 0.536D+00
 Gap=     0.242 Goal=   None    Shift=    0.000
 RMSDP=2.53D-07 MaxDP=6.76D-06 DE=-4.67D-09 OVMax= 1.10D-05

 Cycle  11  Pass 1  IDiag  1:
 RMSU=  8.93D-08    CP:  1.00D+00  8.42D-01  8.30D-01  5.97D-01
 E= -874.581126941666     Delta-E=       -0.000000001416 Rises=F Damp=F
 DIIS: error= 4.72D-07 at cycle   5 NSaved=   5.
 NSaved= 5 IEnMin= 5 EnMin= -874.581126941666     IErMin= 5 ErrMin= 4.72D-07
 ErrMax= 4.72D-07  0.00D+00 EMaxC= 1.00D-01 BMatC= 8.88D-11 BMatP= 1.72D-09
 IDIUse=1 WtCom= 1.00D+00 WtEn= 0.00D+00
 Coeff-Com: -0.420D-02 0.401D-01 0.195D+00 0.319D+00 0.450D+00
 Coeff:     -0.420D-02 0.401D-01 0.195D+00 0.319D+00 0.450D+00
 Gap=     0.242 Goal=   None    Shift=    0.000
 RMSDP=5.03D-08 MaxDP=1.32D-06 DE=-1.42D-09 OVMax= 1.88D-06

 Cycle  12  Pass 1  IDiag  1:
 RMSU=  2.87D-08    CP:  1.00D+00  8.46D-01  8.21D-01  5.94D-01  6.09D-01
 E= -874.581126941744     Delta-E=       -0.000000000078 Rises=F Damp=F
 DIIS: error= 6.15D-08 at cycle   6 NSaved=   6.
 NSaved= 6 IEnMin= 6 EnMin= -874.581126941744     IErMin= 6 ErrMin= 6.15D-08
 ErrMax= 6.15D-08  0.00D+00 EMaxC= 1.00D-01 BMatC= 1.19D-12 BMatP= 8.88D-11
 IDIUse=1 WtCom= 1.00D+00 WtEn= 0.00D+00
 Coeff-Com: -0.185D-02 0.891D-02 0.458D-01 0.792D-01 0.147D+00 0.721D+00
 Coeff:     -0.185D-02 0.891D-02 0.458D-01 0.792D-01 0.147D+00 0.721D+00
 Gap=     0.242 Goal=   None    Shift=    0.000
 RMSDP=1.05D-08 MaxDP=3.76D-07 DE=-7.82D-11 OVMax= 5.12D-07

 Cycle  13  Pass 1  IDiag  1:
 RMSU=  9.82D-09    CP:  1.00D+00  8.46D-01  8.22D-01  5.97D-01  6.37D-01
                    CP:  1.01D+00
 E= -874.581126941740     Delta-E=        0.000000000005 Rises=F Damp=F
 DIIS: error= 3.61D-08 at cycle   7 NSaved=   7.
 NSaved= 7 IEnMin= 6 EnMin= -874.581126941744     IErMin= 7 ErrMin= 3.61D-08
 ErrMax= 3.61D-08  0.00D+00 EMaxC= 1.00D-01 BMatC= 5.47D-13 BMatP= 1.19D-12
 IDIUse=1 WtCom= 1.00D+00 WtEn= 0.00D+00
 Coeff-Com: -0.406D-03-0.113D-02-0.431D-02-0.423D-02 0.125D-01 0.418D+00
 Coeff-Com:  0.580D+00
 Coeff:     -0.406D-03-0.113D-02-0.431D-02-0.423D-02 0.125D-01 0.418D+00
 Coeff:      0.580D+00
 Gap=     0.242 Goal=   None    Shift=    0.000
 RMSDP=5.37D-09 MaxDP=1.68D-07 DE= 4.55D-12 OVMax= 3.36D-07

 SCF Done:  E(RB3LYP) =  -874.581126942     A.U. after   13 cycles
            NFock= 13  Conv=0.54D-08     -V/T= 2.0064
 KE= 8.690123965194D+02 PE=-3.306850895468D+03 EE= 9.397092653219D+02
 Leave Link  502 at Fri Mar 14 15:13:32 2025, MaxMem=  8589934592 cpu:              75.9 elap:               9.1
 (Enter /home/enzo/gaussian_versions/gdv.j21/gdv/l701.exe)
 ... and contract with generalized density number  0.
 Compute integral first derivatives.
 Leave Link  701 at Fri Mar 14 15:13:33 2025, MaxMem=  8589934592 cpu:               5.6 elap:               0.9
 (Enter /home/enzo/gaussian_versions/gdv.j21/gdv/l702.exe)
 L702 exits ... SP integral derivatives will be done elsewhere.
 Leave Link  702 at Fri Mar 14 15:13:33 2025, MaxMem=  8589934592 cpu:               0.3 elap:               0.2
 (Enter /home/enzo/gaussian_versions/gdv.j21/gdv/l703.exe)
 Integral derivatives from FoFJK, PRISM(SPDF).
 Compute integral first derivatives, UseDBF=F ICtDFT=           0.
 Calling FoFJK, ICntrl=      2127 FMM=F ISym2X=0 I1Cent= 0 IOpClX= 0 NMat=1 NMatS=1 NMatT=0.
 FoFJK:  IHMeth= 1 ICntrl=    2127 DoSepK=F KAlg= 0 I1Cent=           0 FoldK=F
 IRaf=         0 NMat=       1 IRICut=       1 DoRegI=T DoRafI=F ISym2E= 0 IDoP0=0 IntGTp=1.
 FoFCou: FMM=F IPFlag=           0 FMFlag=      100000 FMFlg1=         800
         NFxFlg=           0 DoJE=F BraDBF=F KetDBF=F FulRan=T
         wScrn=  0.000000 ICntrl=      2127 IOpCl=  0 I1Cent=           0 NGrid=           0
         NMat0=    1 NMatS0=      1 NMatT0=    0 NMatD0=    1 NMtDS0=    0 NMtDT0=    0
 Symmetry not used in FoFCou.
 Leave Link  703 at Fri Mar 14 15:13:35 2025, MaxMem=  8589934592 cpu:              15.3 elap:               2.4
 (Enter /home/enzo/gaussian_versions/gdv.j21/gdv/l716.exe)
 Dipole        =-6.27230847D-01 4.65114920D-01-3.93937330D-01
 ***** Axes restored to original set *****
 -------------------------------------------------------------------
 Center     Atomic                   Forces (Hartrees/Bohr)
 Number     Number              X              Y              Z
 -------------------------------------------------------------------
      1        6           0.001045984    0.000239942    0.000621202
      2        6          -0.001437668   -0.000630737   -0.000760871
      3       16           0.000010766   -0.000440047    0.000701822
      4        6           0.001390277    0.000630481   -0.000136841
      5        8          -0.000927257   -0.000412170   -0.000112332
      6        7          -0.000107024   -0.000129600    0.001860857
      7        6           0.000127356    0.000132778   -0.000688668
      8        6           0.002164701   -0.002809013    0.000569195
      9        8          -0.001777084    0.000990173   -0.000575715
     10        8           0.000274298    0.001094213    0.000154494
     11        1          -0.000120352    0.000206113   -0.000229220
     12        1           0.000050773    0.000033499    0.000092038
     13        1          -0.000079158    0.000028340   -0.000243489
     14        1           0.000332370    0.000602941   -0.000126498
     15        1          -0.000121696   -0.000238305    0.000008248
     16        1          -0.000176409    0.000432903   -0.001018199
     17        1          -0.000301680    0.000634084   -0.000593959
     18        1          -0.000020785   -0.000081391    0.000288851
     19        1          -0.000327412   -0.000284203    0.000189087
 -------------------------------------------------------------------
 Cartesian Forces:  Max     0.002809013 RMS     0.000777873
 Leave Link  716 at Fri Mar 14 15:13:35 2025, MaxMem=  8589934592 cpu:               0.1 elap:               0.3
 (Enter /home/enzo/gaussian_versions/gdv.j21/gdv/l103.exe)

 GradGradGradGradGradGradGradGradGradGradGradGradGradGradGradGradGradGrad
 Berny optimization.
 Using GEDIIS/GDIIS optimizer.
 FormGI is forming the generalized inverse of G from B-inverse, IUseBI=4.
 Internal  Forces:  Max     0.001234036 RMS     0.000409526
 Search for a local minimum.
 Step number   8 out of a maximum of   93
 All quantities printed in internal units (Hartrees-Bohrs-Radians)
 RMS Force = .40953D-03 SwitMx=.10000D-02 MixMth= 2
 Mixed Optimization -- En-DIIS/RFO-DIIS
 Swapping is turned off.
 Update second derivatives using D2CorX and points    7    8
 DE= -1.45D-04 DEPred=-1.62D-04 R= 8.95D-01
 TightC=F SS=  1.41D+00  RLast= 4.38D-01 DXNew= 1.4270D+00 1.3140D+00
 Trust test= 8.95D-01 RLast= 4.38D-01 DXMaxT set to 1.31D+00
 ITU=  1  1  1  0  0  1  1  0
     Eigenvalues ---    0.00054   0.00398   0.00452   0.00791   0.00959
     Eigenvalues ---    0.01281   0.01505   0.01910   0.02809   0.03980
     Eigenvalues ---    0.04860   0.05321   0.05349   0.05680   0.05734
     Eigenvalues ---    0.06673   0.08041   0.09821   0.13251   0.15708
     Eigenvalues ---    0.15992   0.16005   0.16017   0.16552   0.17327
     Eigenvalues ---    0.17718   0.20998   0.21491   0.22120   0.22168
     Eigenvalues ---    0.23503   0.24836   0.25073   0.25633   0.28436
     Eigenvalues ---    0.30720   0.31441   0.32568   0.32597   0.32619
     Eigenvalues ---    0.32665   0.32796   0.33130   0.33479   0.37308
     Eigenvalues ---    0.40770   0.41118   0.46229   0.50033   0.78226
     Eigenvalues ---    0.81967
 En-DIIS/RFO-DIIS/Sim-DIIS IScMMF=       -3 using points:     8    7    6    5    4
 RFO step:  Lambda=-3.60975760D-04.
 NNeg= 0 NGDIIS= 5 SimSw=  2.50D-01 Rises=F DC= -1.45D-04 SmlDif=  1.00D-05
 NRisDI= 0 DoIntr=F SqrtH=F CThrHd= 10.0 CDAdj=  3.0
 RMS Error=  0.4824675199D-01 NUsed= 5 OKEnD=T EnDIS=F
 InvSVX:  RCond= 1.65D-04 Info=           0 Equed=N FErr=  8.11D-13 BErr=  3.57D-17
 DidBck=TT Rises=F RFO-DIIS coefs:    0.55351    1.81260   -0.81371   -0.31719   -0.23521
 Iteration  1 RMS(Cart)=  0.03104985 RMS(Int)=  0.00086521
 Iteration  2 RMS(Cart)=  0.00082246 RMS(Int)=  0.00048839
 Iteration  3 RMS(Cart)=  0.00000052 RMS(Int)=  0.00048839
 Variable       Old X    -DE/DX   Delta X   Delta X   Delta X     New X
                                 (Linear)    (Quad)   (Total)
    R1        2.87964   0.00099  -0.00262   0.00319   0.00057   2.88021
    R2        2.06875  -0.00020   0.00028  -0.00040  -0.00011   2.06864
    R3        2.06671  -0.00001  -0.00040  -0.00012  -0.00051   2.06620
    R4        2.06609  -0.00021   0.00092  -0.00073   0.00020   2.06629
    R5        3.52134   0.00090  -0.00488   0.00495   0.00008   3.52142
    R6        2.91804  -0.00020  -0.00027   0.00100   0.00073   2.91877
    R7        2.07198   0.00015  -0.00059   0.00063   0.00005   2.07203
    R8        2.55047  -0.00003  -0.00111   0.00038  -0.00073   2.54974
    R9        2.30960  -0.00032   0.00066  -0.00032   0.00034   2.30994
   R10        2.58689   0.00005  -0.00100   0.00024  -0.00076   2.58614
   R11        2.74561  -0.00021  -0.00122   0.00098  -0.00024   2.74538
   R12        1.91442  -0.00033   0.00071  -0.00055   0.00016   1.91457
   R13        2.87926   0.00051  -0.00263   0.00149  -0.00114   2.87812
   R14        2.06395   0.00047  -0.00060   0.00136   0.00075   2.06470
   R15        2.06664  -0.00025   0.00046  -0.00055  -0.00009   2.06655
   R16        2.28689   0.00073  -0.00215   0.00197  -0.00019   2.28670
   R17        2.55319   0.00050  -0.00117   0.00161   0.00044   2.55363
   R18        1.84332   0.00046  -0.00224   0.00189  -0.00035   1.84297
    A1        1.92807   0.00000  -0.00098   0.00098  -0.00001   1.92806
    A2        1.91639   0.00013  -0.00040   0.00038  -0.00002   1.91637
    A3        1.93418  -0.00013   0.00106  -0.00114  -0.00009   1.93409
    A4        1.90293  -0.00012   0.00240  -0.00138   0.00101   1.90395
    A5        1.89398   0.00016  -0.00331   0.00207  -0.00125   1.89273
    A6        1.88748  -0.00005   0.00130  -0.00094   0.00036   1.88784
    A7        1.96735  -0.00017   0.00051  -0.00220  -0.00177   1.96558
    A8        1.94102   0.00052  -0.00188   0.00161  -0.00034   1.94068
    A9        1.92672  -0.00048   0.00595  -0.00709  -0.00119   1.92553
   A10        1.91952  -0.00035   0.00624   0.00153   0.00780   1.92732
   A11        1.84698   0.00054  -0.00767   0.00697  -0.00062   1.84636
   A12        1.85679  -0.00006  -0.00354  -0.00057  -0.00404   1.85275
   A13        1.67341   0.00061  -0.00609   0.00750   0.00141   1.67482
   A14        2.10919   0.00123  -0.00857   0.00578  -0.00319   2.10601
   A15        2.01889  -0.00025   0.00263   0.00117   0.00340   2.02229
   A16        2.15274  -0.00098   0.00738  -0.00717  -0.00019   2.15255
   A17        2.12255  -0.00012  -0.00182   0.00109  -0.00311   2.11943
   A18        2.06490   0.00039  -0.00608   0.00510  -0.00328   2.06162
   A19        2.07388  -0.00019   0.00350   0.00053   0.00148   2.07536
   A20        1.94568   0.00007   0.00195   0.00229   0.00420   1.94988
   A21        1.85644  -0.00007  -0.00187  -0.00128  -0.00311   1.85333
   A22        1.93640   0.00026   0.00015   0.00341   0.00349   1.93989
   A23        1.92242   0.00014  -0.00246  -0.00024  -0.00268   1.91974
   A24        1.88172  -0.00017   0.00167  -0.00132   0.00025   1.88197
   A25        1.92165  -0.00023   0.00060  -0.00290  -0.00229   1.91937
   A26        2.18070  -0.00014   0.00260  -0.00081   0.00178   2.18248
   A27        1.94995  -0.00028   0.00049  -0.00129  -0.00082   1.94914
   A28        2.15140   0.00048  -0.00231   0.00210  -0.00022   2.15118
   A29        1.85855  -0.00016  -0.00125   0.00048  -0.00077   1.85778
    D1        1.03265   0.00025  -0.01282   0.00791  -0.00490   1.02776
    D2       -3.08548   0.00005  -0.00570   0.00952   0.00381  -3.08168
    D3       -1.02864  -0.00000  -0.00748   0.00531  -0.00217  -1.03081
    D4        3.13204   0.00018  -0.01073   0.00706  -0.00365   3.12838
    D5       -0.98610  -0.00001  -0.00361   0.00867   0.00505  -0.98105
    D6        1.07075  -0.00007  -0.00539   0.00446  -0.00093   1.06982
    D7       -1.06709   0.00012  -0.00870   0.00542  -0.00327  -1.07036
    D8        1.09796  -0.00007  -0.00158   0.00703   0.00543   1.10339
    D9       -3.12838  -0.00013  -0.00337   0.00282  -0.00055  -3.12893
   D10       -1.26668   0.00011  -0.02892  -0.00518  -0.03408  -1.30076
   D11        2.83965  -0.00018  -0.03137  -0.00685  -0.03829   2.80136
   D12        0.84085  -0.00023  -0.02643  -0.01059  -0.03697   0.80388
   D13        0.24864  -0.00020   0.04922  -0.01590   0.03328   0.28192
   D14       -2.96430  -0.00017   0.05319  -0.01958   0.03363  -2.93066
   D15        2.44057  -0.00031   0.05294  -0.01644   0.03652   2.47709
   D16       -0.77236  -0.00027   0.05690  -0.02013   0.03687  -0.73549
   D17       -1.85007   0.00013   0.04535  -0.00786   0.03741  -1.81266
   D18        1.22018   0.00016   0.04931  -0.01154   0.03776   1.25794
   D19        3.09754   0.00005  -0.02708   0.01640  -0.01003   3.08751
   D20        0.18178  -0.00034   0.03188  -0.01789   0.01344   0.19521
   D21       -0.11738   0.00019  -0.02356   0.01322  -0.00979  -0.12717
   D22       -3.03314  -0.00020   0.03540  -0.02108   0.01367  -3.01947
   D23       -1.96540  -0.00013  -0.01189  -0.00238  -0.01401  -1.97941
   D24        0.13052   0.00003  -0.01488  -0.00218  -0.01684   0.11369
   D25        2.22030  -0.00015  -0.01519  -0.00455  -0.01955   2.20074
   D26        0.94924   0.00034  -0.07072   0.03266  -0.03825   0.91098
   D27        3.04516   0.00050  -0.07372   0.03286  -0.04108   3.00408
   D28       -1.14825   0.00032  -0.07403   0.03049  -0.04380  -1.19205
   D29       -1.88496  -0.00110  -0.04581  -0.03015  -0.07599  -1.96095
   D30        1.20680   0.00022  -0.02509  -0.03013  -0.05524   1.15156
   D31        2.34164  -0.00114  -0.04319  -0.02983  -0.07302   2.26862
   D32       -0.84978   0.00018  -0.02247  -0.02982  -0.05227  -0.90206
   D33        0.24443  -0.00083  -0.04349  -0.02536  -0.06883   0.17560
   D34       -2.94700   0.00048  -0.02277  -0.02534  -0.04809  -2.99508
   D35       -3.08698  -0.00065  -0.01968   0.00609  -0.01358  -3.10056
   D36        0.00576   0.00062   0.00080   0.00601   0.00679   0.01256
         Item               Value     Threshold  Converged?
 Maximum Force            0.001234     0.000450     NO 
 RMS     Force            0.000410     0.000300     NO 
 Maximum Displacement     0.121027     0.001800     NO 
 RMS     Displacement     0.031066     0.001200     NO 
 Predicted change in Energy=-1.047982D-04
 Lowest energy point so far.  Saving SCF results.
 GradGradGradGradGradGradGradGradGradGradGradGradGradGradGradGradGradGrad

 Leave Link  103 at Fri Mar 14 15:13:36 2025, MaxMem=  8589934592 cpu:               1.7 elap:               0.6
 (Enter /home/enzo/gaussian_versions/gdv.j21/gdv/l202.exe)
                          Input orientation:                          
 ---------------------------------------------------------------------
 Center     Atomic      Atomic             Coordinates (Angstroms)
 Number     Number       Type             X           Y           Z
 ---------------------------------------------------------------------
      1          6           0        3.034128    1.082560    0.494961
      2          6           0        2.054927    0.217778   -0.290101
      3         16           0        1.895640   -1.501421    0.410938
      4          6           0        0.668297    0.891268   -0.386466
      5          8           0        0.534531    2.080942   -0.139556
      6          7           0       -0.350223    0.098525   -0.841477
      7          6           0       -1.715870    0.588359   -0.916766
      8          6           0       -2.629334   -0.136057    0.063255
      9          8           0       -3.526983   -0.885630   -0.247609
     10          8           0       -2.296170    0.129333    1.345691
     11          1           0        4.027908    0.623613    0.504199
     12          1           0        3.102112    2.073423    0.037727
     13          1           0        2.700616    1.206393    1.528900
     14          1           0        2.403512    0.088242   -1.321586
     15          1           0        3.084970   -1.948575   -0.043001
     16          1           0       -0.182282   -0.897665   -0.918112
     17          1           0       -1.672031    1.651891   -0.670311
     18          1           0       -2.128320    0.454276   -1.920658
     19          1           0       -2.899034   -0.397816    1.902280
 ---------------------------------------------------------------------
                    Distance matrix (angstroms):
                    1          2          3          4          5
     1  C    0.000000
     2  C    1.524141   0.000000
     3  S    2.824920   1.863457   0.000000
     4  C    2.531929   1.544544   2.804850   0.000000
     5  O    2.765387   2.409491   3.871561   1.222367   0.000000
     6  N    3.769380   2.470421   3.028576   1.368525   2.281548
     7  C    4.979929   3.840436   4.378697   2.461143   2.810011
     8  C    5.809149   4.710877   4.739251   3.483105   3.868625
     9  O    6.890092   5.690082   5.497065   4.558182   5.030717
    10  O    5.481283   4.649267   4.593952   3.516956   3.745344
    11  H    1.094676   2.165241   3.011815   3.485958   3.839519
    12  H    1.093386   2.155803   3.791354   2.738774   2.573705
    13  H    1.093432   2.168649   3.038105   2.810382   2.870628
    14  H    2.164761   1.096473   2.405535   2.128443   2.976766
    15  H    3.078924   2.411459   1.349264   3.744728   4.769808
    16  H    4.032786   2.577541   2.539420   2.050955   3.161024
    17  H    4.881591   4.011416   4.882700   2.477146   2.309697
    18  H    5.734181   4.496021   5.045131   3.219592   3.592929
    19  H    6.274909   5.452268   5.141104   4.430119   4.701351
                    6          7          8          9         10
     6  N    0.000000
     7  C    1.452791   0.000000
     8  C    2.463315   1.523036   0.000000
     9  O    3.378320   2.429104   1.210069   0.000000
    10  O    2.927690   2.380371   1.351323   2.254696   0.000000
    11  H    4.610270   5.917041   6.714939   7.740762   6.398936
    12  H    4.073308   5.131221   6.142632   7.265143   5.884871
    13  H    4.019164   5.086119   5.688468   6.805552   5.114831
    14  H    2.795293   4.169329   5.224714   6.105130   5.403986
    15  H    4.077834   5.499780   5.995814   6.699973   5.933198
    16  H    1.013149   2.135454   2.744302   3.411267   3.263136
    17  H    2.046808   1.092594   2.156689   3.171519   2.602306
    18  H    2.110171   1.093569   2.129653   2.559434   3.286761
    19  H    3.777698   3.212389   1.877038   2.292227   0.975256
                   11         12         13         14         15
    11  H    0.000000
    12  H    1.782314   0.000000
    13  H    1.775203   1.771026   0.000000
    14  H    2.501754   2.505338   3.076329   0.000000
    15  H    2.793692   4.022845   3.545762   2.499558   0.000000
    16  H    4.697122   4.530810   4.327359   2.796629   3.541916
    17  H    5.909834   4.844735   4.914778   4.413526   5.998828
    18  H    6.618742   5.815009   5.981953   4.585888   6.039676
    19  H    7.140061   6.752580   5.836865   6.224673   6.480531
                   16         17         18         19
    16  H    0.000000
    17  H    2.963275   0.000000
    18  H    2.572918   1.790489   0.000000
    19  H    3.947810   3.510707   3.991857   0.000000
 Stoichiometry    C5H9NO3S
 Framework group  C1[X(C5H9NO3S)]
 Deg. of freedom    51
 Full point group                 C1      NOp   1
 RotChk:  IX=0 Diff= 2.65D-02
 Largest Abelian subgroup         C1      NOp   1
 Largest concise Abelian subgroup C1      NOp   1
                         Standard orientation:                         
 ---------------------------------------------------------------------
 Center     Atomic      Atomic             Coordinates (Angstroms)
 Number     Number       Type             X           Y           Z
 ---------------------------------------------------------------------
      1          6           0       -3.053541   -0.810368    0.555025
      2          6           0       -2.020246   -0.141657   -0.343937
      3         16           0       -1.818542    1.674058    0.023443
      4          6           0       -0.657148   -0.863203   -0.260555
      5          8           0       -0.574733   -1.987398    0.212281
      6          7           0        0.402969   -0.203377   -0.820591
      7          6           0        1.751256   -0.740068   -0.752137
      8          6           0        2.661326    0.129833    0.104999
      9          8           0        3.594837    0.778509   -0.309783
     10          8           0        2.280687    0.124405    1.401594
     11          1           0       -4.029556   -0.327950    0.441071
     12          1           0       -3.144421   -1.867737    0.291959
     13          1           0       -2.755656   -0.744707    1.605047
     14          1           0       -2.333049   -0.200792   -1.393179
     15          1           0       -2.976576    2.062474   -0.549797
     16          1           0        0.274230    0.764529   -1.090881
     17          1           0        1.660930   -1.735161   -0.310105
     18          1           0        2.197983   -0.812727   -1.747651
     19          1           0        2.885796    0.729429    1.869473
 ---------------------------------------------------------------------
 Rotational constants (GHZ):           1.8756252           0.6132148           0.5288684
 Leave Link  202 at Fri Mar 14 15:13:36 2025, MaxMem=  8589934592 cpu:               0.5 elap:               0.3
 (Enter /home/enzo/gaussian_versions/gdv.j21/gdv/l301.exe)
 Standard basis: 6-31G(d) (6D, 7F)
 Ernie: Thresh=  0.10000D-02 Tol=  0.10000D-05 Strict=F.
 There are   172 symmetry adapted cartesian basis functions of A   symmetry.
 There are   172 symmetry adapted basis functions of A   symmetry.
   172 basis functions,   340 primitive gaussians,   172 cartesian basis functions
    43 alpha electrons       43 beta electrons
       nuclear repulsion energy       623.4273598721 Hartrees.
 IExCor=      4002 DFT=T Ex+Corr=B3LYP ScaHFX=  0.200000
 ScaDFX=  0.800000  0.720000  1.000000  0.810000  1.000000  0.000000
 ScaDFX=  0.000000  0.000000  0.000000  0.000000  0.000000  0.000000
 IRadAn=      5 IRanWt=     -1 IRanGd=            0 ICorTp=0 IEmpDi=  4
 NAtoms=   19 NActive=   19 NUniq=   19 SFac= 1.00D+00 NAtFMM=   60 NAOKFM=F Big=F
 Integral buffers will be    131072 words long.
 Raffenetti 2 integral format.
 Two-electron integral symmetry is turned on.
 Leave Link  301 at Fri Mar 14 15:13:37 2025, MaxMem=  8589934592 cpu:               0.6 elap:               0.3
 (Enter /home/enzo/gaussian_versions/gdv.j21/gdv/l302.exe)
 NPDir=0 NMtPBC=     1 NCelOv=     1 NCel=       1 NClECP=     1 NCelD=      1
         NCelK=      1 NCelE2=     1 NClLst=     1 CellRange=     0.0.
 One-electron integrals computed using PRISM.
 One-electron integral symmetry used in STVInt
 NBasis=   172 RedAO= T EigKep=  2.98D-03  NBF=   172
 NBsUse=   172 1.00D-06 EigRej= -1.00D+00 NBFU=   172
 Precomputing XC quadrature grid using
 IXCGrd= 4 IRadAn=           5 IRanWt=          -1 IRanGd=           0 AccXCQ= 0.00D+00.
 Generated NRdTot=       0 NPtTot=      407762 NUsed=           0 NTot=          64
 NSgBfM=   172   172   172   172   172 MxSgAt=    19 MxSgA2=    19 SizInc=   0.000
 NMBTot=     3476 MaxBatPerAtom=       85 MaxMicBPerAtom=      202 NBfPt=            51086486.
 Leave Link  302 at Fri Mar 14 15:13:38 2025, MaxMem=  8589934592 cpu:               4.8 elap:               0.8
 (Enter /home/enzo/gaussian_versions/gdv.j21/gdv/l303.exe)
 DipDrv:  MaxL=1.
 Leave Link  303 at Fri Mar 14 15:13:38 2025, MaxMem=  8589934592 cpu:               1.3 elap:               0.4
 (Enter /home/enzo/gaussian_versions/gdv.j21/gdv/l401.exe)
 Initial guess from the checkpoint file:  "/local/home/enzo/scratch/Gau-2337652.chk"
 B after Tr=     0.000000    0.000000    0.000000
         Rot=    0.999967    0.008071    0.001140   -0.000234 Ang=   0.93 deg.
 AO Guess basis will be translated and rotated to current coordinates.
 JPrj=2 DoOrth=T DoCkMO=T.
 Generating alternative initial guess.
 ExpMin= 1.17D-01 ExpMax= 2.19D+04 ExpMxC= 3.30D+03 IAcc=3 IRadAn=         5 AccDes= 0.00D+00
 Harris functional with IExCor= 4002 and IRadAn=       5 diagonalized for initial guess.
 HarFok:  IExCor=    4002 AccDes= 0.00D+00 IRadAn=         5 IDoV= 1 UseB2=F ITyADJ=14 ICtDFT=  3500011
 FoFCou: FMM=F IPFlag=           0 FMFlag=      100000 FMFlg1=           0
         NFxFlg=           0 DoJE=T BraDBF=F KetDBF=T FulRan=T
         wScrn=  0.000000 ICntrl=       500 IOpCl=  0 I1Cent=   200000004 NGrid=           0
         NMat0=    1 NMatS0=      1 NMatT0=    0 NMatD0=    1 NMtDS0=    0 NMtDT0=    0
 Petite list used in FoFCou.
 Harris En= -874.545732398444    
 Leave Link  401 at Fri Mar 14 15:13:40 2025, MaxMem=  8589934592 cpu:              12.1 elap:               1.8
 (Enter /home/enzo/gaussian_versions/gdv.j21/gdv/l502.exe)
 Integral symmetry usage will be decided dynamically.
 Closed shell SCF:
 Using DIIS extrapolation, IDIIS=  1040.
 NGot=  8589934592 LenX=  8589843591 LenY=  8589813566
 Requested convergence on RMS density matrix=1.00D-08 within 128 cycles.
 Requested convergence on MAX density matrix=1.00D-06.
 Requested convergence on             energy=1.00D-06.
 No special actions if energy rises.
 Fock matrices will be formed incrementally for  20 cycles.
 Integral accuracy reduced to 1.0D-05 until final iterations.

 Cycle   1  Pass 0  IDiag  1:
 FoFJK:  IHMeth= 1 ICntrl=       0 DoSepK=F KAlg= 0 I1Cent=           0 FoldK=F
 IRaf= 900000000 NMat=       1 IRICut=       1 DoRegI=T DoRafI=F ISym2E= 0 IDoP0=0 IntGTp=1.
 FoFCou: FMM=F IPFlag=           0 FMFlag=      100000 FMFlg1=           0
         NFxFlg=           0 DoJE=F BraDBF=F KetDBF=F FulRan=T
         wScrn=  0.000000 ICntrl=         0 IOpCl=  0 I1Cent=           0 NGrid=           0
         NMat0=    1 NMatS0=      1 NMatT0=    0 NMatD0=    1 NMtDS0=    0 NMtDT0=    0
 Symmetry not used in FoFCou.
 E= -874.576369420255    
 DIIS: error= 2.51D-03 at cycle   1 NSaved=   1.
 NSaved= 1 IEnMin= 1 EnMin= -874.576369420255     IErMin= 1 ErrMin= 2.51D-03
 ErrMax= 2.51D-03  0.00D+00 EMaxC= 1.00D-01 BMatC= 2.55D-03 BMatP= 2.55D-03
 IDIUse=3 WtCom= 9.75D-01 WtEn= 2.51D-02
 Coeff-Com:  0.100D+01
 Coeff-En:   0.100D+01
 Coeff:      0.100D+01
 Gap=     1.612 Goal=   None    Shift=    0.000
 GapD=    1.612 DampG=2.000 DampE=1.000 DampFc=2.0000 IDamp=-1.
 RMSDP=5.12D-04 MaxDP=1.84D-02              OVMax= 2.30D-02

 Cycle   2  Pass 0  IDiag  1:
 RMSU=  5.12D-04    CP:  1.00D+00
 E= -874.581159697355     Delta-E=       -0.004790277100 Rises=F Damp=F
 DIIS: error= 3.63D-04 at cycle   2 NSaved=   2.
 NSaved= 2 IEnMin= 2 EnMin= -874.581159697355     IErMin= 2 ErrMin= 3.63D-04
 ErrMax= 3.63D-04  0.00D+00 EMaxC= 1.00D-01 BMatC= 5.24D-05 BMatP= 2.55D-03
 IDIUse=3 WtCom= 9.96D-01 WtEn= 3.63D-03
 Coeff-Com: -0.688D-01 0.107D+01
 Coeff-En:   0.000D+00 0.100D+01
 Coeff:     -0.685D-01 0.107D+01
 Gap=     0.243 Goal=   None    Shift=    0.000
 RMSDP=7.79D-05 MaxDP=2.17D-03 DE=-4.79D-03 OVMax= 3.76D-03

 Cycle   3  Pass 0  IDiag  1:
 RMSU=  6.87D-05    CP:  1.00D+00  1.07D+00
 E= -874.581192363830     Delta-E=       -0.000032666475 Rises=F Damp=F
 DIIS: error= 4.43D-04 at cycle   3 NSaved=   3.
 NSaved= 3 IEnMin= 3 EnMin= -874.581192363830     IErMin= 2 ErrMin= 3.63D-04
 ErrMax= 4.43D-04  0.00D+00 EMaxC= 1.00D-01 BMatC= 5.75D-05 BMatP= 5.24D-05
 IDIUse=3 WtCom= 9.96D-01 WtEn= 4.43D-03
 Coeff-Com: -0.472D-01 0.592D+00 0.455D+00
 Coeff-En:   0.000D+00 0.210D+00 0.790D+00
 Coeff:     -0.470D-01 0.590D+00 0.457D+00
 Gap=     0.243 Goal=   None    Shift=    0.000
 RMSDP=4.80D-05 MaxDP=2.08D-03 DE=-3.27D-05 OVMax= 3.62D-03

 Cycle   4  Pass 0  IDiag  1:
 RMSU=  3.11D-05    CP:  1.00D+00  1.08D+00  4.78D-01
 E= -874.581227946267     Delta-E=       -0.000035582437 Rises=F Damp=F
 DIIS: error= 2.08D-04 at cycle   4 NSaved=   4.
 NSaved= 4 IEnMin= 4 EnMin= -874.581227946267     IErMin= 4 ErrMin= 2.08D-04
 ErrMax= 2.08D-04  0.00D+00 EMaxC= 1.00D-01 BMatC= 1.25D-05 BMatP= 5.24D-05
 IDIUse=3 WtCom= 9.98D-01 WtEn= 2.08D-03
 Coeff-Com: -0.142D-01 0.160D+00 0.317D+00 0.537D+00
 Coeff-En:   0.000D+00 0.000D+00 0.211D+00 0.789D+00
 Coeff:     -0.141D-01 0.160D+00 0.317D+00 0.538D+00
 Gap=     0.243 Goal=   None    Shift=    0.000
 RMSDP=1.70D-05 MaxDP=6.57D-04 DE=-3.56D-05 OVMax= 1.33D-03

 Cycle   5  Pass 0  IDiag  1:
 RMSU=  9.21D-06    CP:  1.00D+00  1.09D+00  6.00D-01  6.33D-01
 E= -874.581237290498     Delta-E=       -0.000009344230 Rises=F Damp=F
 DIIS: error= 2.84D-05 at cycle   5 NSaved=   5.
 NSaved= 5 IEnMin= 5 EnMin= -874.581237290498     IErMin= 5 ErrMin= 2.84D-05
 ErrMax= 2.84D-05  0.00D+00 EMaxC= 1.00D-01 BMatC= 3.35D-07 BMatP= 1.25D-05
 IDIUse=1 WtCom= 1.00D+00 WtEn= 0.00D+00
 Coeff-Com: -0.365D-02 0.363D-01 0.122D+00 0.252D+00 0.593D+00
 Coeff:     -0.365D-02 0.363D-01 0.122D+00 0.252D+00 0.593D+00
 Gap=     0.243 Goal=   None    Shift=    0.000
 RMSDP=4.34D-06 MaxDP=1.55D-04 DE=-9.34D-06 OVMax= 1.47D-04

 Initial convergence to 1.0D-05 achieved.  Increase integral accuracy.
 Cycle   6  Pass 1  IDiag  1:
 E= -874.581226539587     Delta-E=        0.000010750911 Rises=F Damp=F
 DIIS: error= 1.54D-05 at cycle   1 NSaved=   1.
 NSaved= 1 IEnMin= 1 EnMin= -874.581226539587     IErMin= 1 ErrMin= 1.54D-05
 ErrMax= 1.54D-05  0.00D+00 EMaxC= 1.00D-01 BMatC= 7.24D-08 BMatP= 7.24D-08
 IDIUse=1 WtCom= 1.00D+00 WtEn= 0.00D+00
 Coeff-Com:  0.100D+01
 Coeff:      0.100D+01
 Gap=     0.243 Goal=   None    Shift=    0.000
 RMSDP=4.34D-06 MaxDP=1.55D-04 DE= 1.08D-05 OVMax= 1.02D-04

 Cycle   7  Pass 1  IDiag  1:
 RMSU=  5.08D-06    CP:  1.00D+00
 E= -874.581226487541     Delta-E=        0.000000052046 Rises=F Damp=F
 DIIS: error= 2.34D-05 at cycle   2 NSaved=   2.
 NSaved= 2 IEnMin= 1 EnMin= -874.581226539587     IErMin= 1 ErrMin= 1.54D-05
 ErrMax= 2.34D-05  0.00D+00 EMaxC= 1.00D-01 BMatC= 1.42D-07 BMatP= 7.24D-08
 IDIUse=1 WtCom= 1.00D+00 WtEn= 0.00D+00
 Coeff-Com:  0.591D+00 0.409D+00
 Coeff:      0.591D+00 0.409D+00
 Gap=     0.243 Goal=   None    Shift=    0.000
 RMSDP=2.04D-06 MaxDP=6.12D-05 DE= 5.20D-08 OVMax= 7.46D-05

 Cycle   8  Pass 1  IDiag  1:
 RMSU=  1.76D-06    CP:  1.00D+00  8.00D-01
 E= -874.581226598625     Delta-E=       -0.000000111084 Rises=F Damp=F
 DIIS: error= 4.26D-06 at cycle   3 NSaved=   3.
 NSaved= 3 IEnMin= 3 EnMin= -874.581226598625     IErMin= 3 ErrMin= 4.26D-06
 ErrMax= 4.26D-06  0.00D+00 EMaxC= 1.00D-01 BMatC= 5.42D-09 BMatP= 7.24D-08
 IDIUse=1 WtCom= 1.00D+00 WtEn= 0.00D+00
 Coeff-Com:  0.150D+00 0.187D+00 0.663D+00
 Coeff:      0.150D+00 0.187D+00 0.663D+00
 Gap=     0.243 Goal=   None    Shift=    0.000
 RMSDP=5.93D-07 MaxDP=2.13D-05 DE=-1.11D-07 OVMax= 2.57D-05

 Cycle   9  Pass 1  IDiag  1:
 RMSU=  5.06D-07    CP:  1.00D+00  8.25D-01  8.44D-01
 E= -874.581226600249     Delta-E=       -0.000000001624 Rises=F Damp=F
 DIIS: error= 3.32D-06 at cycle   4 NSaved=   4.
 NSaved= 4 IEnMin= 4 EnMin= -874.581226600249     IErMin= 4 ErrMin= 3.32D-06
 ErrMax= 3.32D-06  0.00D+00 EMaxC= 1.00D-01 BMatC= 3.35D-09 BMatP= 5.42D-09
 IDIUse=1 WtCom= 1.00D+00 WtEn= 0.00D+00
 Coeff-Com:  0.907D-02 0.683D-01 0.486D+00 0.437D+00
 Coeff:      0.907D-02 0.683D-01 0.486D+00 0.437D+00
 Gap=     0.243 Goal=   None    Shift=    0.000
 RMSDP=3.07D-07 MaxDP=1.01D-05 DE=-1.62D-09 OVMax= 1.33D-05

 Cycle  10  Pass 1  IDiag  1:
 RMSU=  1.01D-07    CP:  1.00D+00  8.29D-01  8.89D-01  4.54D-01
 E= -874.581226602829     Delta-E=       -0.000000002580 Rises=F Damp=F
 DIIS: error= 2.81D-07 at cycle   5 NSaved=   5.
 NSaved= 5 IEnMin= 5 EnMin= -874.581226602829     IErMin= 5 ErrMin= 2.81D-07
 ErrMax= 2.81D-07  0.00D+00 EMaxC= 1.00D-01 BMatC= 4.79D-11 BMatP= 3.35D-09
 IDIUse=1 WtCom= 1.00D+00 WtEn= 0.00D+00
 Coeff-Com: -0.388D-02 0.230D-01 0.199D+00 0.207D+00 0.575D+00
 Coeff:     -0.388D-02 0.230D-01 0.199D+00 0.207D+00 0.575D+00
 Gap=     0.243 Goal=   None    Shift=    0.000
 RMSDP=4.78D-08 MaxDP=1.73D-06 DE=-2.58D-09 OVMax= 1.95D-06

 Cycle  11  Pass 1  IDiag  1:
 RMSU=  3.59D-08    CP:  1.00D+00  8.30D-01  8.86D-01  4.70D-01  7.14D-01
 E= -874.581226602878     Delta-E=       -0.000000000049 Rises=F Damp=F
 DIIS: error= 9.46D-08 at cycle   6 NSaved=   6.
 NSaved= 6 IEnMin= 6 EnMin= -874.581226602878     IErMin= 6 ErrMin= 9.46D-08
 ErrMax= 9.46D-08  0.00D+00 EMaxC= 1.00D-01 BMatC= 5.53D-12 BMatP= 4.79D-11
 IDIUse=1 WtCom= 1.00D+00 WtEn= 0.00D+00
 Coeff-Com: -0.332D-02 0.546D-02 0.594D-01 0.678D-01 0.299D+00 0.572D+00
 Coeff:     -0.332D-02 0.546D-02 0.594D-01 0.678D-01 0.299D+00 0.572D+00
 Gap=     0.243 Goal=   None    Shift=    0.000
 RMSDP=1.42D-08 MaxDP=5.58D-07 DE=-4.89D-11 OVMax= 5.17D-07

 Cycle  12  Pass 1  IDiag  1:
 RMSU=  1.02D-08    CP:  1.00D+00  8.30D-01  8.88D-01  4.71D-01  7.76D-01
                    CP:  8.07D-01
 E= -874.581226602874     Delta-E=        0.000000000004 Rises=F Damp=F
 DIIS: error= 2.39D-08 at cycle   7 NSaved=   7.
 NSaved= 7 IEnMin= 6 EnMin= -874.581226602878     IErMin= 7 ErrMin= 2.39D-08
 ErrMax= 2.39D-08  0.00D+00 EMaxC= 1.00D-01 BMatC= 2.39D-13 BMatP= 5.53D-12
 IDIUse=1 WtCom= 1.00D+00 WtEn= 0.00D+00
 Coeff-Com: -0.569D-03-0.845D-03-0.376D-02-0.275D-02 0.167D-01 0.161D+00
 Coeff-Com:  0.830D+00
 Coeff:     -0.569D-03-0.845D-03-0.376D-02-0.275D-02 0.167D-01 0.161D+00
 Coeff:      0.830D+00
 Gap=     0.243 Goal=   None    Shift=    0.000
 RMSDP=4.86D-09 MaxDP=1.64D-07 DE= 3.64D-12 OVMax= 2.71D-07

 SCF Done:  E(RB3LYP) =  -874.581226603     A.U. after   12 cycles
            NFock= 12  Conv=0.49D-08     -V/T= 2.0064
 KE= 8.690147526899D+02 PE=-3.306605111170D+03 EE= 9.395817720049D+02
 Leave Link  502 at Fri Mar 14 15:13:48 2025, MaxMem=  8589934592 cpu:              67.6 elap:               7.8
 (Enter /home/enzo/gaussian_versions/gdv.j21/gdv/l701.exe)
 ... and contract with generalized density number  0.
 Compute integral first derivatives.
 Leave Link  701 at Fri Mar 14 15:13:48 2025, MaxMem=  8589934592 cpu:               1.8 elap:               0.4
 (Enter /home/enzo/gaussian_versions/gdv.j21/gdv/l702.exe)
 L702 exits ... SP integral derivatives will be done elsewhere.
 Leave Link  702 at Fri Mar 14 15:13:48 2025, MaxMem=  8589934592 cpu:               0.2 elap:               0.2
 (Enter /home/enzo/gaussian_versions/gdv.j21/gdv/l703.exe)
 Integral derivatives from FoFJK, PRISM(SPDF).
 Compute integral first derivatives, UseDBF=F ICtDFT=           0.
 Calling FoFJK, ICntrl=      2127 FMM=F ISym2X=0 I1Cent= 0 IOpClX= 0 NMat=1 NMatS=1 NMatT=0.
 FoFJK:  IHMeth= 1 ICntrl=    2127 DoSepK=F KAlg= 0 I1Cent=           0 FoldK=F
 IRaf=         0 NMat=       1 IRICut=       1 DoRegI=T DoRafI=F ISym2E= 0 IDoP0=0 IntGTp=1.
 FoFCou: FMM=F IPFlag=           0 FMFlag=      100000 FMFlg1=         800
         NFxFlg=           0 DoJE=F BraDBF=F KetDBF=F FulRan=T
         wScrn=  0.000000 ICntrl=      2127 IOpCl=  0 I1Cent=           0 NGrid=           0
         NMat0=    1 NMatS0=      1 NMatT0=    0 NMatD0=    1 NMtDS0=    0 NMtDT0=    0
 Symmetry not used in FoFCou.
 Leave Link  703 at Fri Mar 14 15:13:51 2025, MaxMem=  8589934592 cpu:              14.2 elap:               2.2
 (Enter /home/enzo/gaussian_versions/gdv.j21/gdv/l716.exe)
 Dipole        =-6.47613512D-01 4.99337594D-01-3.68665940D-01
 ***** Axes restored to original set *****
 -------------------------------------------------------------------
 Center     Atomic                   Forces (Hartrees/Bohr)
 Number     Number              X              Y              Z
 -------------------------------------------------------------------
      1        6           0.001046011    0.000215864    0.000727957
      2        6          -0.001295542   -0.000553868   -0.001117749
      3       16          -0.000328615   -0.000365696    0.000823998
      4        6           0.001495262    0.000381597    0.000369664
      5        8          -0.000952481   -0.000259150   -0.000193100
      6        7           0.000007109   -0.000124589    0.002083473
      7        6           0.000702768   -0.000493606   -0.000757761
      8        6           0.000664306   -0.001282323    0.000434537
      9        8          -0.001201846    0.000673015   -0.000531877
     10        8           0.000808952    0.000497440    0.000206843
     11        1          -0.000119197    0.000215810   -0.000285406
     12        1           0.000057393    0.000123148    0.000056534
     13        1          -0.000098042    0.000040082   -0.000236972
     14        1           0.000378453    0.000489630   -0.000102285
     15        1          -0.000019588   -0.000213823   -0.000069535
     16        1          -0.000140087    0.000456424   -0.001412833
     17        1          -0.000553803    0.000685491   -0.000585009
     18        1          -0.000017848   -0.000204811    0.000268430
     19        1          -0.000433204   -0.000280636    0.000321091
 -------------------------------------------------------------------
 Cartesian Forces:  Max     0.002083473 RMS     0.000661279
 Leave Link  716 at Fri Mar 14 15:13:51 2025, MaxMem=  8589934592 cpu:               0.2 elap:               0.2
 (Enter /home/enzo/gaussian_versions/gdv.j21/gdv/l103.exe)

 GradGradGradGradGradGradGradGradGradGradGradGradGradGradGradGradGradGrad
 Berny optimization.
 Using GEDIIS/GDIIS optimizer.
 FormGI is forming the generalized inverse of G from B-inverse, IUseBI=4.
 Internal  Forces:  Max     0.001358832 RMS     0.000404440
 Search for a local minimum.
 Step number   9 out of a maximum of   93
 All quantities printed in internal units (Hartrees-Bohrs-Radians)
 RMS Force = .40444D-03 SwitMx=.10000D-02 MixMth= 2
 Mixed Optimization -- En-DIIS/RFO-DIIS
 Swapping is turned off.
 Update second derivatives using D2CorX and points    8    9
 DE= -9.97D-05 DEPred=-1.05D-04 R= 9.51D-01
 TightC=F SS=  1.41D+00  RLast= 2.07D-01 DXNew= 2.2099D+00 6.2017D-01
 Trust test= 9.51D-01 RLast= 2.07D-01 DXMaxT set to 1.31D+00
 ITU=  1  1  1  1  0  0  1  1  0
     Eigenvalues ---    0.00037   0.00395   0.00452   0.00792   0.00975
     Eigenvalues ---    0.01431   0.01525   0.01925   0.03933   0.04513
     Eigenvalues ---    0.04887   0.05329   0.05366   0.05685   0.05733
     Eigenvalues ---    0.06695   0.08001   0.10027   0.13386   0.15637
     Eigenvalues ---    0.15997   0.16005   0.16019   0.16548   0.17330
     Eigenvalues ---    0.17936   0.21021   0.21815   0.22159   0.22715
     Eigenvalues ---    0.23504   0.24851   0.25082   0.26044   0.28338
     Eigenvalues ---    0.30628   0.31294   0.32570   0.32599   0.32623
     Eigenvalues ---    0.32671   0.32792   0.33118   0.33196   0.37354
     Eigenvalues ---    0.40769   0.41079   0.46237   0.50152   0.78235
     Eigenvalues ---    0.81930
 En-DIIS/RFO-DIIS/Sim-DIIS IScMMF=       -3 using points:     9    8    7    6    5    4
 RFO step:  Lambda=-4.30997479D-04.
 NNeg= 0 NGDIIS= 6 SimSw=  2.50D-01 Rises=F DC= -9.97D-05 SmlDif=  1.00D-05
 NRisDI= 0 DoIntr=F SqrtH=F CThrHd= 10.0 CDAdj=  3.0
 RMS Error=  0.5880285387D-01 NUsed= 6 OKEnD=T EnDIS=F
 InvSVX:  RCond= 1.23D-05 Info=           0 Equed=N FErr=  1.21D-11 BErr=  6.20D-17
 Old DIIS coefficients:     -2.10881      1.13484      5.80718     -2.29560     -0.75732
 Old DIIS coefficients:     -0.78029
 DidBck=TT Rises=F RFO-DIIS coefs:   -0.89572    0.48203    3.00000   -0.93321   -0.32167
                   RFO-DIIS coefs:   -0.33143
 Iteration  1 RMS(Cart)=  0.00754828 RMS(Int)=  0.00043516
 Iteration  2 RMS(Cart)=  0.00006137 RMS(Int)=  0.00043282
 Iteration  3 RMS(Cart)=  0.00000000 RMS(Int)=  0.00043282
 Variable       Old X    -DE/DX   Delta X   Delta X   Delta X     New X
                                 (Linear)    (Quad)   (Total)
    R1        2.88021   0.00104  -0.00406   0.00447   0.00042   2.88063
    R2        2.06864  -0.00020   0.00031  -0.00036  -0.00004   2.06859
    R3        2.06620   0.00009   0.00157  -0.00173  -0.00016   2.06604
    R4        2.06629  -0.00019  -0.00005  -0.00012  -0.00017   2.06611
    R5        3.52142   0.00085  -0.00419   0.00500   0.00081   3.52223
    R6        2.91877  -0.00033  -0.00277   0.00282   0.00005   2.91881
    R7        2.07203   0.00016  -0.00085   0.00091   0.00006   2.07209
    R8        2.54974   0.00008   0.00113  -0.00136  -0.00023   2.54951
    R9        2.30994  -0.00019  -0.00086   0.00061  -0.00025   2.30969
   R10        2.58614   0.00015   0.00149  -0.00161  -0.00013   2.58601
   R11        2.74538  -0.00007  -0.00107   0.00113   0.00006   2.74544
   R12        1.91457  -0.00037  -0.00048   0.00036  -0.00012   1.91446
   R13        2.87812   0.00056   0.00223  -0.00195   0.00028   2.87840
   R14        2.06470   0.00051  -0.00315   0.00317   0.00002   2.06473
   R15        2.06655  -0.00021   0.00044  -0.00058  -0.00014   2.06641
   R16        2.28670   0.00061  -0.00200   0.00230   0.00029   2.28699
   R17        2.55363   0.00064  -0.00291   0.00282  -0.00009   2.55354
   R18        1.84297   0.00060  -0.00125   0.00136   0.00011   1.84308
    A1        1.92806  -0.00003  -0.00119   0.00142   0.00023   1.92829
    A2        1.91637   0.00014  -0.00013   0.00014   0.00001   1.91638
    A3        1.93409  -0.00013   0.00134  -0.00148  -0.00014   1.93395
    A4        1.90395  -0.00012  -0.00141   0.00113  -0.00028   1.90367
    A5        1.89273   0.00020   0.00161  -0.00126   0.00034   1.89307
    A6        1.88784  -0.00005  -0.00021   0.00004  -0.00017   1.88767
    A7        1.96558   0.00000   0.00750  -0.00785  -0.00034   1.96523
    A8        1.94068   0.00056  -0.00091   0.00134   0.00041   1.94108
    A9        1.92553  -0.00054   0.01009  -0.01115  -0.00106   1.92447
   A10        1.92732  -0.00064  -0.02330   0.02319  -0.00010   1.92722
   A11        1.84636   0.00056  -0.00472   0.00586   0.00120   1.84756
   A12        1.85275   0.00005   0.01150  -0.01167  -0.00007   1.85268
   A13        1.67482   0.00042  -0.01088   0.01213   0.00126   1.67608
   A14        2.10601   0.00136   0.00412  -0.00235   0.00123   2.10724
   A15        2.02229  -0.00042  -0.01043   0.01091  -0.00006   2.02223
   A16        2.15255  -0.00095   0.00858  -0.00896  -0.00092   2.15163
   A17        2.11943  -0.00004   0.00910  -0.00726  -0.00024   2.11919
   A18        2.06162   0.00040   0.00683  -0.00376   0.00106   2.06268
   A19        2.07536  -0.00023  -0.00195   0.00382  -0.00036   2.07500
   A20        1.94988   0.00052  -0.01411   0.01345  -0.00065   1.94923
   A21        1.85333  -0.00001   0.00985  -0.01030  -0.00048   1.85286
   A22        1.93989   0.00011  -0.01222   0.01246   0.00025   1.94014
   A23        1.91974  -0.00017   0.00825  -0.00728   0.00097   1.92071
   A24        1.88197  -0.00027   0.00049  -0.00051   0.00004   1.88201
   A25        1.91937  -0.00018   0.00819  -0.00831  -0.00012   1.91925
   A26        2.18248  -0.00036  -0.00290   0.00308   0.00011   2.18258
   A27        1.94914  -0.00010   0.00337  -0.00360  -0.00030   1.94884
   A28        2.15118   0.00047  -0.00021   0.00080   0.00052   2.15170
   A29        1.85778  -0.00005  -0.00010  -0.00027  -0.00037   1.85741
    D1        1.02776   0.00037   0.00767  -0.00706   0.00059   1.02835
    D2       -3.08168  -0.00004  -0.01819   0.01868   0.00051  -3.08117
    D3       -1.03081   0.00003   0.00196  -0.00196   0.00001  -1.03080
    D4        3.12838   0.00029   0.00508  -0.00466   0.00040   3.12878
    D5       -0.98105  -0.00013  -0.02078   0.02109   0.00031  -0.98074
    D6        1.06982  -0.00005  -0.00063   0.00044  -0.00019   1.06963
    D7       -1.07036   0.00023   0.00557  -0.00545   0.00011  -1.07025
    D8        1.10339  -0.00019  -0.02028   0.02030   0.00002   1.10341
    D9       -3.12893  -0.00011  -0.00014  -0.00034  -0.00048  -3.12940
   D10       -1.30076   0.00007   0.08902  -0.07651   0.01252  -1.28824
   D11        2.80136  -0.00018   0.10267  -0.09025   0.01232   2.81368
   D12        0.80388  -0.00023   0.10260  -0.09088   0.01180   0.81568
   D13        0.28192  -0.00021  -0.08020   0.07100  -0.00925   0.27267
   D14       -2.93066  -0.00030  -0.06995   0.06451  -0.00537  -2.93604
   D15        2.47709  -0.00027  -0.08849   0.07908  -0.00947   2.46762
   D16       -0.73549  -0.00037  -0.07824   0.07259  -0.00560  -0.74109
   D17       -1.81266   0.00010  -0.09900   0.09091  -0.00815  -1.82081
   D18        1.25794   0.00000  -0.08876   0.08442  -0.00428   1.25366
   D19        3.08751   0.00014   0.01152  -0.01381  -0.00171   3.08580
   D20        0.19521  -0.00040  -0.02190   0.01856  -0.00378   0.19143
   D21       -0.12717   0.00015   0.02208  -0.02016   0.00237  -0.12480
   D22       -3.01947  -0.00039  -0.01134   0.01221   0.00030  -3.01917
   D23       -1.97941  -0.00011   0.04021  -0.03600   0.00437  -1.97504
   D24        0.11369  -0.00003   0.04842  -0.04372   0.00488   0.11857
   D25        2.20074  -0.00019   0.05751  -0.05314   0.00459   2.20533
   D26        0.91098   0.00052   0.07656  -0.06969   0.00665   0.91764
   D27        3.00408   0.00060   0.08476  -0.07741   0.00716   3.01124
   D28       -1.19205   0.00044   0.09386  -0.08683   0.00687  -1.18518
   D29       -1.96095  -0.00076   0.19028  -0.18641   0.00385  -1.95709
   D30        1.15156  -0.00016   0.19705  -0.17572   0.02135   1.17290
   D31        2.26862  -0.00096   0.18154  -0.17728   0.00423   2.27285
   D32       -0.90206  -0.00036   0.18831  -0.16659   0.02172  -0.88034
   D33        0.17560  -0.00048   0.16645  -0.16266   0.00379   0.17938
   D34       -2.99508   0.00012   0.17322  -0.15197   0.02128  -2.97380
   D35       -3.10056  -0.00035  -0.00214  -0.00397  -0.00606  -3.10663
   D36        0.01256   0.00022   0.00456   0.00654   0.01106   0.02361
         Item               Value     Threshold  Converged?
 Maximum Force            0.001359     0.000450     NO 
 RMS     Force            0.000404     0.000300     NO 
 Maximum Displacement     0.024788     0.001800     NO 
 RMS     Displacement     0.007549     0.001200     NO 
 Predicted change in Energy=-1.192637D-05
 Lowest energy point so far.  Saving SCF results.
 GradGradGradGradGradGradGradGradGradGradGradGradGradGradGradGradGradGrad

 Leave Link  103 at Fri Mar 14 15:13:51 2025, MaxMem=  8589934592 cpu:               1.1 elap:               0.4
 (Enter /home/enzo/gaussian_versions/gdv.j21/gdv/l202.exe)
                          Input orientation:                          
 ---------------------------------------------------------------------
 Center     Atomic      Atomic             Coordinates (Angstroms)
 Number     Number       Type             X           Y           Z
 ---------------------------------------------------------------------
      1          6           0        3.035705    1.081076    0.492948
      2          6           0        2.055027    0.217099   -0.291585
      3         16           0        1.897865   -1.503405    0.407866
      4          6           0        0.667794    0.889892   -0.384501
      5          8           0        0.530611    2.076723   -0.126679
      6          7           0       -0.349638    0.099022   -0.844973
      7          6           0       -1.716009    0.587589   -0.915874
      8          6           0       -2.626032   -0.141814    0.063879
      9          8           0       -3.520962   -0.894748   -0.247302
     10          8           0       -2.306712    0.140633    1.346144
     11          1           0        4.029811    0.622838    0.499216
     12          1           0        3.102282    2.072678    0.037316
     13          1           0        2.704135    1.203137    1.527624
     14          1           0        2.402273    0.090286   -1.323894
     15          1           0        3.093320   -1.945861   -0.034066
     16          1           0       -0.180594   -0.896130   -0.931229
     17          1           0       -1.672280    1.650417   -0.666323
     18          1           0       -2.130595    0.456394   -1.919188
     19          1           0       -2.909606   -0.386384    1.902931
 ---------------------------------------------------------------------
                    Distance matrix (angstroms):
                    1          2          3          4          5
     1  C    0.000000
     2  C    1.524362   0.000000
     3  S    2.825148   1.863885   0.000000
     4  C    2.532483   1.544570   2.805136   0.000000
     5  O    2.765999   2.410236   3.869424   1.222235   0.000000
     6  N    3.770280   2.470343   3.031279   1.368458   2.280808
     7  C    4.980672   3.840275   4.380026   2.460947   2.808495
     8  C    5.808169   4.708236   4.736866   3.480625   3.862980
     9  O    6.887797   5.685932   5.492122   4.555156   5.025877
    10  O    5.491247   4.659696   4.611041   3.521961   3.737385
    11  H    1.094653   2.165586   3.012382   3.486463   3.840563
    12  H    1.093302   2.155944   3.791610   2.739278   2.576899
    13  H    1.093340   2.168671   3.037976   2.810877   2.867766
    14  H    2.164213   1.096505   2.406922   2.128437   2.980331
    15  H    3.073012   2.413040   1.349141   3.747995   4.770454
    16  H    4.035121   2.578066   2.545967   2.051475   3.160849
    17  H    4.881924   4.010941   4.883279   2.476645   2.307744
    18  H    5.735790   4.497308   5.048216   3.220896   3.594520
    19  H    6.283965   5.461471   5.157008   4.433849   4.692686
                    6          7          8          9         10
     6  N    0.000000
     7  C    1.452823   0.000000
     8  C    2.462922   1.523183   0.000000
     9  O    3.376698   2.429438   1.210225   0.000000
    10  O    2.938174   2.380215   1.351275   2.255103   0.000000
    11  H    4.610943   5.917615   6.713751   7.737864   6.411031
    12  H    4.073022   5.131276   6.141520   7.263195   5.890929
    13  H    4.021668   5.087952   5.688772   6.804654   5.125469
    14  H    2.793288   4.168217   5.221459   6.100333   5.413518
    15  H    4.085716   5.506868   5.997930   6.700674   5.951368
    16  H    1.013087   2.135219   2.745797   3.409666   3.283548
    17  H    2.046491   1.092607   2.157529   3.173495   2.594605
    18  H    2.110323   1.093496   2.129758   2.560061   3.285288
    19  H    3.786823   3.212313   1.876789   2.292530   0.975315
                   11         12         13         14         15
    11  H    0.000000
    12  H    1.782048   0.000000
    13  H    1.775327   1.770775   0.000000
    14  H    2.501245   2.504553   3.075828   0.000000
    15  H    2.785609   4.019183   3.536456   2.507408   0.000000
    16  H    4.699037   4.530914   4.332960   2.792562   3.553216
    17  H    5.910012   4.844570   4.915941   4.412300   6.003657
    18  H    6.620195   5.815780   5.984376   4.586426   6.050934
    19  H    7.151534   6.757981   5.846496   6.233431   6.497618
                   16         17         18         19
    16  H    0.000000
    17  H    2.963141   0.000000
    18  H    2.570582   1.790367   0.000000
    19  H    3.967343   3.504369   3.990705   0.000000
 Stoichiometry    C5H9NO3S
 Framework group  C1[X(C5H9NO3S)]
 Deg. of freedom    51
 Full point group                 C1      NOp   1
 RotChk:  IX=0 Diff= 9.01D-03
 Largest Abelian subgroup         C1      NOp   1
 Largest concise Abelian subgroup C1      NOp   1
                         Standard orientation:                         
 ---------------------------------------------------------------------
 Center     Atomic      Atomic             Coordinates (Angstroms)
 Number     Number       Type             X           Y           Z
 ---------------------------------------------------------------------
      1          6           0       -3.054296   -0.815164    0.549602
      2          6           0       -2.020493   -0.141073   -0.345122
      3         16           0       -1.821346    1.673426    0.031708
      4          6           0       -0.656498   -0.861231   -0.263976
      5          8           0       -0.570064   -1.983652    0.212007
      6          7           0        0.401944   -0.200233   -0.825634
      7          6           0        1.751152   -0.734722   -0.757415
      8          6           0        2.658200    0.135098    0.103261
      9          8           0        3.588554    0.790115   -0.309094
     10          8           0        2.291691    0.104103    1.403513
     11          1           0       -4.030864   -0.333699    0.436585
     12          1           0       -3.143571   -1.871364    0.281683
     13          1           0       -2.757597   -0.754073    1.600140
     14          1           0       -2.332748   -0.196582   -1.394760
     15          1           0       -2.986589    2.062736   -0.525812
     16          1           0        0.271734    0.766542   -1.099013
     17          1           0        1.661613   -1.731368   -0.318701
     18          1           0        2.199221   -0.803690   -1.752509
     19          1           0        2.896888    0.706329    1.875001
 ---------------------------------------------------------------------
 Rotational constants (GHZ):           1.8748474           0.6127807           0.5287856
 Leave Link  202 at Fri Mar 14 15:13:52 2025, MaxMem=  8589934592 cpu:               0.4 elap:               0.2
 (Enter /home/enzo/gaussian_versions/gdv.j21/gdv/l301.exe)
 Standard basis: 6-31G(d) (6D, 7F)
 Ernie: Thresh=  0.10000D-02 Tol=  0.10000D-05 Strict=F.
 There are   172 symmetry adapted cartesian basis functions of A   symmetry.
 There are   172 symmetry adapted basis functions of A   symmetry.
   172 basis functions,   340 primitive gaussians,   172 cartesian basis functions
    43 alpha electrons       43 beta electrons
       nuclear repulsion energy       623.3164232109 Hartrees.
 IExCor=      4002 DFT=T Ex+Corr=B3LYP ScaHFX=  0.200000
 ScaDFX=  0.800000  0.720000  1.000000  0.810000  1.000000  0.000000
 ScaDFX=  0.000000  0.000000  0.000000  0.000000  0.000000  0.000000
 IRadAn=      5 IRanWt=     -1 IRanGd=            0 ICorTp=0 IEmpDi=  4
 NAtoms=   19 NActive=   19 NUniq=   19 SFac= 1.00D+00 NAtFMM=   60 NAOKFM=F Big=F
 Integral buffers will be    131072 words long.
 Raffenetti 2 integral format.
 Two-electron integral symmetry is turned on.
 Leave Link  301 at Fri Mar 14 15:13:52 2025, MaxMem=  8589934592 cpu:               0.4 elap:               0.3
 (Enter /home/enzo/gaussian_versions/gdv.j21/gdv/l302.exe)
 NPDir=0 NMtPBC=     1 NCelOv=     1 NCel=       1 NClECP=     1 NCelD=      1
         NCelK=      1 NCelE2=     1 NClLst=     1 CellRange=     0.0.
 One-electron integrals computed using PRISM.
 One-electron integral symmetry used in STVInt
 NBasis=   172 RedAO= T EigKep=  2.99D-03  NBF=   172
 NBsUse=   172 1.00D-06 EigRej= -1.00D+00 NBFU=   172
 Precomputing XC quadrature grid using
 IXCGrd= 4 IRadAn=           5 IRanWt=          -1 IRanGd=           0 AccXCQ= 0.00D+00.
 Generated NRdTot=       0 NPtTot=      407776 NUsed=           0 NTot=          64
 NSgBfM=   172   172   172   172   172 MxSgAt=    19 MxSgA2=    19 SizInc=   0.000
 NMBTot=     3475 MaxBatPerAtom=       85 MaxMicBPerAtom=      202 NBfPt=            51086081.
 Leave Link  302 at Fri Mar 14 15:13:53 2025, MaxMem=  8589934592 cpu:               3.3 elap:               0.6
 (Enter /home/enzo/gaussian_versions/gdv.j21/gdv/l303.exe)
 DipDrv:  MaxL=1.
 Leave Link  303 at Fri Mar 14 15:13:53 2025, MaxMem=  8589934592 cpu:               0.5 elap:               0.3
 (Enter /home/enzo/gaussian_versions/gdv.j21/gdv/l401.exe)
 Initial guess from the checkpoint file:  "/local/home/enzo/scratch/Gau-2337652.chk"
 B after Tr=    -0.000000   -0.000000   -0.000000
         Rot=    0.999996   -0.002684   -0.000377   -0.000378 Ang=  -0.31 deg.
 AO Guess basis will be translated and rotated to current coordinates.
 JPrj=2 DoOrth=T DoCkMO=T.
 Generating alternative initial guess.
 ExpMin= 1.17D-01 ExpMax= 2.19D+04 ExpMxC= 3.30D+03 IAcc=3 IRadAn=         5 AccDes= 0.00D+00
 Harris functional with IExCor= 4002 and IRadAn=       5 diagonalized for initial guess.
 HarFok:  IExCor=    4002 AccDes= 0.00D+00 IRadAn=         5 IDoV= 1 UseB2=F ITyADJ=14 ICtDFT=  3500011
 FoFCou: FMM=F IPFlag=           0 FMFlag=      100000 FMFlg1=           0
         NFxFlg=           0 DoJE=T BraDBF=F KetDBF=T FulRan=T
         wScrn=  0.000000 ICntrl=       500 IOpCl=  0 I1Cent=   200000004 NGrid=           0
         NMat0=    1 NMatS0=      1 NMatT0=    0 NMatD0=    1 NMtDS0=    0 NMtDT0=    0
 Petite list used in FoFCou.
 Harris En= -874.545744926660    
 Leave Link  401 at Fri Mar 14 15:13:54 2025, MaxMem=  8589934592 cpu:               9.2 elap:               1.5
 (Enter /home/enzo/gaussian_versions/gdv.j21/gdv/l502.exe)
 Integral symmetry usage will be decided dynamically.
 Closed shell SCF:
 Using DIIS extrapolation, IDIIS=  1040.
 NGot=  8589934592 LenX=  8589843591 LenY=  8589813566
 Requested convergence on RMS density matrix=1.00D-08 within 128 cycles.
 Requested convergence on MAX density matrix=1.00D-06.
 Requested convergence on             energy=1.00D-06.
 No special actions if energy rises.
 Fock matrices will be formed incrementally for  20 cycles.
 Integral accuracy reduced to 1.0D-05 until final iterations.

 Cycle   1  Pass 0  IDiag  1:
 FoFJK:  IHMeth= 1 ICntrl=       0 DoSepK=F KAlg= 0 I1Cent=           0 FoldK=F
 IRaf= 900000000 NMat=       1 IRICut=       1 DoRegI=T DoRafI=F ISym2E= 0 IDoP0=0 IntGTp=1.
 FoFCou: FMM=F IPFlag=           0 FMFlag=      100000 FMFlg1=           0
         NFxFlg=           0 DoJE=F BraDBF=F KetDBF=F FulRan=T
         wScrn=  0.000000 ICntrl=         0 IOpCl=  0 I1Cent=           0 NGrid=           0
         NMat0=    1 NMatS0=      1 NMatT0=    0 NMatD0=    1 NMtDS0=    0 NMtDT0=    0
 Symmetry not used in FoFCou.
 E= -874.580991101491    
 DIIS: error= 5.28D-04 at cycle   1 NSaved=   1.
 NSaved= 1 IEnMin= 1 EnMin= -874.580991101491     IErMin= 1 ErrMin= 5.28D-04
 ErrMax= 5.28D-04  0.00D+00 EMaxC= 1.00D-01 BMatC= 1.18D-04 BMatP= 1.18D-04
 IDIUse=3 WtCom= 9.95D-01 WtEn= 5.28D-03
 Coeff-Com:  0.100D+01
 Coeff-En:   0.100D+01
 Coeff:      0.100D+01
 Gap=     1.612 Goal=   None    Shift=    0.000
 RMSDP=1.18D-04 MaxDP=3.29D-03              OVMax= 3.57D-03

 Cycle   2  Pass 0  IDiag  1:
 RMSU=  1.18D-04    CP:  1.00D+00
 E= -874.581222912622     Delta-E=       -0.000231811131 Rises=F Damp=F
 DIIS: error= 8.20D-05 at cycle   2 NSaved=   2.
 NSaved= 2 IEnMin= 2 EnMin= -874.581222912622     IErMin= 2 ErrMin= 8.20D-05
 ErrMax= 8.20D-05  0.00D+00 EMaxC= 1.00D-01 BMatC= 2.05D-06 BMatP= 1.18D-04
 IDIUse=1 WtCom= 1.00D+00 WtEn= 0.00D+00
 Coeff-Com: -0.723D-01 0.107D+01
 Coeff:     -0.723D-01 0.107D+01
 Gap=     0.243 Goal=   None    Shift=    0.000
 RMSDP=1.74D-05 MaxDP=3.68D-04 DE=-2.32D-04 OVMax= 7.17D-04

 Cycle   3  Pass 0  IDiag  1:
 RMSU=  1.43D-05    CP:  1.00D+00  1.08D+00
 E= -874.581225357168     Delta-E=       -0.000002444546 Rises=F Damp=F
 DIIS: error= 7.80D-05 at cycle   3 NSaved=   3.
 NSaved= 3 IEnMin= 3 EnMin= -874.581225357168     IErMin= 3 ErrMin= 7.80D-05
 ErrMax= 7.80D-05  0.00D+00 EMaxC= 1.00D-01 BMatC= 1.44D-06 BMatP= 2.05D-06
 IDIUse=1 WtCom= 1.00D+00 WtEn= 0.00D+00
 Coeff-Com: -0.422D-01 0.532D+00 0.511D+00
 Coeff:     -0.422D-01 0.532D+00 0.511D+00
 Gap=     0.243 Goal=   None    Shift=    0.000
 RMSDP=8.62D-06 MaxDP=2.45D-04 DE=-2.44D-06 OVMax= 5.92D-04

 Initial convergence to 1.0D-05 achieved.  Increase integral accuracy.
 Cycle   4  Pass 1  IDiag  1:
 E= -874.581215090691     Delta-E=        0.000010266477 Rises=F Damp=F
 DIIS: error= 3.72D-05 at cycle   1 NSaved=   1.
 NSaved= 1 IEnMin= 1 EnMin= -874.581215090691     IErMin= 1 ErrMin= 3.72D-05
 ErrMax= 3.72D-05  0.00D+00 EMaxC= 1.00D-01 BMatC= 5.37D-07 BMatP= 5.37D-07
 IDIUse=1 WtCom= 1.00D+00 WtEn= 0.00D+00
 Coeff-Com:  0.100D+01
 Coeff:      0.100D+01
 Gap=     0.243 Goal=   None    Shift=    0.000
 RMSDP=8.62D-06 MaxDP=2.45D-04 DE= 1.03D-05 OVMax= 7.56D-04

 Cycle   5  Pass 1  IDiag  1:
 RMSU=  1.11D-05    CP:  1.00D+00
 E= -874.581213538202     Delta-E=        0.000001552489 Rises=F Damp=F
 DIIS: error= 8.70D-05 at cycle   2 NSaved=   2.
 NSaved= 2 IEnMin= 1 EnMin= -874.581215090691     IErMin= 1 ErrMin= 3.72D-05
 ErrMax= 8.70D-05  0.00D+00 EMaxC= 1.00D-01 BMatC= 2.59D-06 BMatP= 5.37D-07
 IDIUse=1 WtCom= 1.00D+00 WtEn= 0.00D+00
 Coeff-Com:  0.689D+00 0.311D+00
 Coeff:      0.689D+00 0.311D+00
 Gap=     0.243 Goal=   None    Shift=    0.000
 RMSDP=7.40D-06 MaxDP=2.48D-04 DE= 1.55D-06 OVMax= 5.33D-04

 Cycle   6  Pass 1  IDiag  1:
 RMSU=  2.93D-06    CP:  1.00D+00  3.88D-01
 E= -874.581215503081     Delta-E=       -0.000001964879 Rises=F Damp=F
 DIIS: error= 2.95D-06 at cycle   3 NSaved=   3.
 NSaved= 3 IEnMin= 3 EnMin= -874.581215503081     IErMin= 3 ErrMin= 2.95D-06
 ErrMax= 2.95D-06  0.00D+00 EMaxC= 1.00D-01 BMatC= 3.49D-09 BMatP= 5.37D-07
 IDIUse=1 WtCom= 1.00D+00 WtEn= 0.00D+00
 Coeff-Com:  0.168D+00 0.877D-01 0.744D+00
 Coeff:      0.168D+00 0.877D-01 0.744D+00
 Gap=     0.243 Goal=   None    Shift=    0.000
 RMSDP=4.46D-07 MaxDP=1.31D-05 DE=-1.96D-06 OVMax= 1.63D-05

 Cycle   7  Pass 1  IDiag  1:
 RMSU=  4.15D-07    CP:  1.00D+00  4.02D-01  9.83D-01
 E= -874.581215504444     Delta-E=       -0.000000001363 Rises=F Damp=F
 DIIS: error= 3.08D-06 at cycle   4 NSaved=   4.
 NSaved= 4 IEnMin= 4 EnMin= -874.581215504444     IErMin= 3 ErrMin= 2.95D-06
 ErrMax= 3.08D-06  0.00D+00 EMaxC= 1.00D-01 BMatC= 2.04D-09 BMatP= 3.49D-09
 IDIUse=1 WtCom= 1.00D+00 WtEn= 0.00D+00
 Coeff-Com:  0.226D-01 0.175D-01 0.455D+00 0.505D+00
 Coeff:      0.226D-01 0.175D-01 0.455D+00 0.505D+00
 Gap=     0.243 Goal=   None    Shift=    0.000
 RMSDP=2.00D-07 MaxDP=7.85D-06 DE=-1.36D-09 OVMax= 9.08D-06

 Cycle   8  Pass 1  IDiag  1:
 RMSU=  1.27D-07    CP:  1.00D+00  4.02D-01  1.00D+00  6.47D-01
 E= -874.581215505918     Delta-E=       -0.000000001474 Rises=F Damp=F
 DIIS: error= 4.02D-07 at cycle   5 NSaved=   5.
 NSaved= 5 IEnMin= 5 EnMin= -874.581215505918     IErMin= 5 ErrMin= 4.02D-07
 ErrMax= 4.02D-07  0.00D+00 EMaxC= 1.00D-01 BMatC= 4.13D-11 BMatP= 2.04D-09
 IDIUse=1 WtCom= 1.00D+00 WtEn= 0.00D+00
 Coeff-Com: -0.641D-02-0.159D-02 0.933D-01 0.177D+00 0.738D+00
 Coeff:     -0.641D-02-0.159D-02 0.933D-01 0.177D+00 0.738D+00
 Gap=     0.243 Goal=   None    Shift=    0.000
 RMSDP=4.80D-08 MaxDP=1.48D-06 DE=-1.47D-09 OVMax= 2.35D-06

 Cycle   9  Pass 1  IDiag  1:
 RMSU=  4.42D-08    CP:  1.00D+00  4.02D-01  1.00D+00  6.72D-01  9.20D-01
 E= -874.581215505953     Delta-E=       -0.000000000035 Rises=F Damp=F
 DIIS: error= 1.11D-07 at cycle   6 NSaved=   6.
 NSaved= 6 IEnMin= 6 EnMin= -874.581215505953     IErMin= 6 ErrMin= 1.11D-07
 ErrMax= 1.11D-07  0.00D+00 EMaxC= 1.00D-01 BMatC= 4.30D-12 BMatP= 4.13D-11
 IDIUse=1 WtCom= 1.00D+00 WtEn= 0.00D+00
 Coeff-Com: -0.353D-02-0.129D-02 0.246D-01 0.589D-01 0.333D+00 0.588D+00
 Coeff:     -0.353D-02-0.129D-02 0.246D-01 0.589D-01 0.333D+00 0.588D+00
 Gap=     0.243 Goal=   None    Shift=    0.000
 RMSDP=1.95D-08 MaxDP=6.40D-07 DE=-3.55D-11 OVMax= 7.07D-07

 Cycle  10  Pass 1  IDiag  1:
 RMSU=  1.54D-08    CP:  1.00D+00  4.02D-01  1.00D+00  6.83D-01  9.86D-01
                    CP:  8.44D-01
 E= -874.581215505950     Delta-E=        0.000000000003 Rises=F Damp=F
 DIIS: error= 7.27D-08 at cycle   7 NSaved=   7.
 NSaved= 7 IEnMin= 6 EnMin= -874.581215505953     IErMin= 7 ErrMin= 7.27D-08
 ErrMax= 7.27D-08  0.00D+00 EMaxC= 1.00D-01 BMatC= 1.56D-12 BMatP= 4.30D-12
 IDIUse=1 WtCom= 1.00D+00 WtEn= 0.00D+00
 Coeff-Com: -0.741D-03-0.459D-03-0.692D-02-0.558D-02 0.334D-01 0.383D+00
 Coeff-Com:  0.597D+00
 Coeff:     -0.741D-03-0.459D-03-0.692D-02-0.558D-02 0.334D-01 0.383D+00
 Coeff:      0.597D+00
 Gap=     0.243 Goal=   None    Shift=    0.000
 RMSDP=9.30D-09 MaxDP=3.07D-07 DE= 3.18D-12 OVMax= 4.74D-07

 SCF Done:  E(RB3LYP) =  -874.581215506     A.U. after   10 cycles
            NFock= 10  Conv=0.93D-08     -V/T= 2.0064
 KE= 8.690135471139D+02 PE=-3.306381718700D+03 EE= 9.394705328693D+02
 Leave Link  502 at Fri Mar 14 15:14:02 2025, MaxMem=  8589934592 cpu:              63.1 elap:               7.3
 (Enter /home/enzo/gaussian_versions/gdv.j21/gdv/l701.exe)
 ... and contract with generalized density number  0.
 Compute integral first derivatives.
 Leave Link  701 at Fri Mar 14 15:14:03 2025, MaxMem=  8589934592 cpu:               5.0 elap:               0.8
 (Enter /home/enzo/gaussian_versions/gdv.j21/gdv/l702.exe)
 L702 exits ... SP integral derivatives will be done elsewhere.
 Leave Link  702 at Fri Mar 14 15:14:03 2025, MaxMem=  8589934592 cpu:               0.2 elap:               0.3
 (Enter /home/enzo/gaussian_versions/gdv.j21/gdv/l703.exe)
 Integral derivatives from FoFJK, PRISM(SPDF).
 Compute integral first derivatives, UseDBF=F ICtDFT=           0.
 Calling FoFJK, ICntrl=      2127 FMM=F ISym2X=0 I1Cent= 0 IOpClX= 0 NMat=1 NMatS=1 NMatT=0.
 FoFJK:  IHMeth= 1 ICntrl=    2127 DoSepK=F KAlg= 0 I1Cent=           0 FoldK=F
 IRaf=         0 NMat=       1 IRICut=       1 DoRegI=T DoRafI=F ISym2E= 0 IDoP0=0 IntGTp=1.
 FoFCou: FMM=F IPFlag=           0 FMFlag=      100000 FMFlg1=         800
         NFxFlg=           0 DoJE=F BraDBF=F KetDBF=F FulRan=T
         wScrn=  0.000000 ICntrl=      2127 IOpCl=  0 I1Cent=           0 NGrid=           0
         NMat0=    1 NMatS0=      1 NMatT0=    0 NMatD0=    1 NMtDS0=    0 NMtDT0=    0
 Symmetry not used in FoFCou.
 Leave Link  703 at Fri Mar 14 15:14:05 2025, MaxMem=  8589934592 cpu:              13.9 elap:               2.1
 (Enter /home/enzo/gaussian_versions/gdv.j21/gdv/l716.exe)
 Dipole        =-6.49884025D-01 4.92521697D-01-3.70918382D-01
 ***** Axes restored to original set *****
 -------------------------------------------------------------------
 Center     Atomic                   Forces (Hartrees/Bohr)
 Number     Number              X              Y              Z
 -------------------------------------------------------------------
      1        6           0.000851718    0.000169361    0.000720164
      2        6          -0.000966242   -0.000454411   -0.001242000
      3       16          -0.000618146   -0.000172447    0.000798665
      4        6           0.001350721    0.000106451    0.000902877
      5        8          -0.000689453   -0.000030526   -0.000315886
      6        7           0.000128077   -0.000285336    0.001840482
      7        6           0.000995036   -0.000966754   -0.000744697
      8        6          -0.000949374    0.000628351    0.000274509
      9        8          -0.000394896    0.000129398   -0.000406158
     10        8           0.001169266   -0.000222421    0.000185705
     11        1          -0.000120189    0.000180859   -0.000288002
     12        1           0.000058552    0.000189354    0.000014630
     13        1          -0.000093716    0.000043196   -0.000182200
     14        1           0.000372833    0.000347224   -0.000102307
     15        1           0.000058020   -0.000125438   -0.000181116
     16        1          -0.000085335    0.000429281   -0.001395660
     17        1          -0.000695363    0.000564002   -0.000428441
     18        1           0.000041158   -0.000299288    0.000189817
     19        1          -0.000412666   -0.000230856    0.000359616
 -------------------------------------------------------------------
 Cartesian Forces:  Max     0.001840482 RMS     0.000614119
 Leave Link  716 at Fri Mar 14 15:14:05 2025, MaxMem=  8589934592 cpu:               0.3 elap:               0.2
 (Enter /home/enzo/gaussian_versions/gdv.j21/gdv/l103.exe)

 GradGradGradGradGradGradGradGradGradGradGradGradGradGradGradGradGradGrad
 Berny optimization.
 Using GEDIIS/GDIIS optimizer.
 FormGI is forming the generalized inverse of G from B-inverse, IUseBI=4.
 Internal  Forces:  Max     0.001176697 RMS     0.000377223
 Search for a local minimum.
 Step number  10 out of a maximum of   93
 All quantities printed in internal units (Hartrees-Bohrs-Radians)
 RMS Force = .37722D-03 SwitMx=.10000D-02 MixMth= 2
 Mixed Optimization -- En-DIIS/RFO-DIIS
 Swapping is turned off.
 Update second derivatives using D2CorX and points    7    8    9   10
 DE=  1.11D-05 DEPred=-1.19D-05 R=-9.30D-01
 Trust test=-9.30D-01 RLast= 5.10D-02 DXMaxT set to 6.57D-01
 ITU= -1  1  1  1  1  0  0  1  1  0
     Eigenvalues ---    0.00044   0.00401   0.00453   0.00785   0.00938
     Eigenvalues ---    0.01253   0.01505   0.01918   0.03937   0.04472
     Eigenvalues ---    0.04782   0.05357   0.05389   0.05676   0.05734
     Eigenvalues ---    0.06654   0.08006   0.09882   0.13311   0.15632
     Eigenvalues ---    0.15997   0.16005   0.16020   0.16585   0.17322
     Eigenvalues ---    0.17966   0.20985   0.21693   0.22129   0.22182
     Eigenvalues ---    0.23513   0.24815   0.25086   0.25716   0.28655
     Eigenvalues ---    0.30599   0.31634   0.32589   0.32594   0.32619
     Eigenvalues ---    0.32669   0.32855   0.33055   0.33303   0.37365
     Eigenvalues ---    0.40774   0.41194   0.46229   0.50006   0.78240
     Eigenvalues ---    0.82124
 En-DIIS/RFO-DIIS/Sim-DIIS IScMMF=       -3 using points:    10    9    8    7    6    5    4
 RFO step:  Lambda=-4.21979964D-04.
 NNeg= 0 NGDIIS= 7 SimSw=  2.50D-03 Rises=T DC=  1.11D-05 SmlDif=  1.00D-05
 NRisDI= 1 DoIntr=F SqrtH=F CThrHd= 10.0 CDAdj=  3.0
 RMS Error=  0.5515337365D-01 NUsed= 7 OKEnD=T EnDIS=T
 InvSVX:  RCond= 1.87D-06 Info=           0 Equed=N FErr=  8.64D-11 BErr=  2.96D-17
 Old DIIS coefficients:      1.28436     -6.01505      4.28227      5.49037     -2.56818
 Old DIIS coefficients:     -0.66989     -0.80388
 EnCoef did   100 forward-backward iterations
 IWarn =    2
 Energies =   -874.580126502      -874.580439329      -874.580801603      -874.580981782      -874.581126942    
 Energies =   -874.581226603      -874.581215506    
 Point number   1 has energy  -0.8745801265D+03 and has been removed
 EnCoef did   100 forward-backward iterations
 IWarn =    2
 Energies =   -874.580439329      -874.580801603      -874.580981782      -874.581126942      -874.581226603    
 Energies =   -874.581215506    
 Point number   1 has energy  -0.8745804393D+03 and has been removed
 EnCoef did   100 forward-backward iterations
 IWarn =    2
 Energies =   -874.580801603      -874.580981782      -874.581126942      -874.581226603      -874.581215506    
 Point number   1 has energy  -0.8745808016D+03 and has been removed
 EnCoef did     3 forward-backward iterations
 IWarn =    0
 DidBck=TT Rises=T En-DIIS coefs:    0.22351    0.64821    0.00000    0.12829    0.00000
                   En-DIIS coefs:    0.00000    0.00000
 Iteration  1 RMS(Cart)=  0.06891321 RMS(Int)=  0.00468190
 Iteration  2 RMS(Cart)=  0.00542896 RMS(Int)=  0.00003968
 Iteration  3 RMS(Cart)=  0.00003340 RMS(Int)=  0.00003316
 Iteration  4 RMS(Cart)=  0.00000000 RMS(Int)=  0.00003316
 Variable       Old X    -DE/DX   Delta X   Delta X   Delta X     New X
                                 (Linear)    (Quad)   (Total)
    R1        2.88063   0.00091  -0.00037   0.00326   0.00289   2.88351
    R2        2.06859  -0.00019   0.00001  -0.00070  -0.00069   2.06791
    R3        2.06604   0.00017   0.00032  -0.00048  -0.00016   2.06588
    R4        2.06611  -0.00014  -0.00000   0.00045   0.00045   2.06656
    R5        3.52223   0.00055  -0.00041  -0.00007  -0.00048   3.52175
    R6        2.91881  -0.00051  -0.00036  -0.00159  -0.00196   2.91686
    R7        2.07209   0.00017  -0.00007   0.00030   0.00023   2.07232
    R8        2.54951   0.00015   0.00037  -0.00122  -0.00085   2.54866
    R9        2.30969  -0.00002  -0.00001   0.00118   0.00117   2.31086
   R10        2.58601   0.00034   0.00035  -0.00067  -0.00033   2.58569
   R11        2.74544   0.00013  -0.00003  -0.00096  -0.00098   2.74445
   R12        1.91446  -0.00032  -0.00009  -0.00051  -0.00060   1.91385
   R13        2.87840   0.00047   0.00038  -0.00229  -0.00191   2.87649
   R14        2.06473   0.00042  -0.00028   0.00266   0.00238   2.06711
   R15        2.06641  -0.00015   0.00008  -0.00038  -0.00030   2.06611
   R16        2.28699   0.00032  -0.00021  -0.00121  -0.00142   2.28557
   R17        2.55354   0.00060  -0.00016   0.00096   0.00080   2.55434
   R18        1.84308   0.00058   0.00003  -0.00059  -0.00056   1.84252
    A1        1.92829  -0.00008  -0.00019  -0.00124  -0.00144   1.92685
    A2        1.91638   0.00013   0.00001  -0.00007  -0.00006   1.91632
    A3        1.93395  -0.00010   0.00013   0.00013   0.00026   1.93421
    A4        1.90367  -0.00010  -0.00024   0.00180   0.00156   1.90523
    A5        1.89307   0.00020   0.00036  -0.00131  -0.00095   1.89212
    A6        1.88767  -0.00005  -0.00006   0.00075   0.00069   1.88836
    A7        1.96523   0.00019   0.00096  -0.00381  -0.00284   1.96239
    A8        1.94108   0.00053  -0.00016  -0.00141  -0.00157   1.93951
    A9        1.92447  -0.00050   0.00108  -0.00282  -0.00174   1.92273
   A10        1.92722  -0.00085  -0.00321   0.01209   0.00888   1.93610
   A11        1.84756   0.00047  -0.00035   0.00197   0.00162   1.84918
   A12        1.85268   0.00013   0.00172  -0.00606  -0.00436   1.84832
   A13        1.67608   0.00007  -0.00134   0.00011  -0.00124   1.67484
   A14        2.10724   0.00118   0.00063  -0.00577  -0.00514   2.10211
   A15        2.02223  -0.00062  -0.00146   0.00505   0.00359   2.02583
   A16        2.15163  -0.00057   0.00075   0.00064   0.00139   2.15301
   A17        2.11919   0.00011   0.00137  -0.00457  -0.00306   2.11613
   A18        2.06268   0.00028   0.00074  -0.00328  -0.00240   2.06028
   A19        2.07500  -0.00026  -0.00042   0.00567   0.00541   2.08041
   A20        1.94923   0.00076  -0.00118   0.01463   0.01342   1.96265
   A21        1.85286   0.00006   0.00164  -0.00407  -0.00240   1.85045
   A22        1.94014  -0.00005  -0.00150   0.00751   0.00597   1.94612
   A23        1.92071  -0.00041   0.00047  -0.00948  -0.00902   1.91169
   A24        1.88201  -0.00029  -0.00022  -0.00111  -0.00142   1.88059
   A25        1.91925  -0.00008   0.00083  -0.00796  -0.00716   1.91209
   A26        2.18258  -0.00038  -0.00069   0.00156   0.00089   2.18348
   A27        1.94884   0.00001   0.00053  -0.00052   0.00003   1.94887
   A28        2.15170   0.00036  -0.00008  -0.00082  -0.00088   2.15083
   A29        1.85741   0.00006   0.00029  -0.00181  -0.00152   1.85588
    D1        1.02835   0.00044   0.00211  -0.00002   0.00209   1.03044
    D2       -3.08117  -0.00013  -0.00151   0.01197   0.01046  -3.07071
    D3       -1.03080   0.00005   0.00120   0.00182   0.00302  -1.02778
    D4        3.12878   0.00035   0.00170   0.00138   0.00308   3.13186
    D5       -0.98074  -0.00022  -0.00193   0.01338   0.01145  -0.96929
    D6        1.06963  -0.00004   0.00079   0.00322   0.00401   1.07364
    D7       -1.07025   0.00030   0.00170   0.00236   0.00406  -1.06619
    D8        1.10341  -0.00027  -0.00192   0.01435   0.01242   1.11584
    D9       -3.12940  -0.00009   0.00079   0.00419   0.00499  -3.12442
   D10       -1.28824  -0.00002   0.00410  -0.08411  -0.08001  -1.36826
   D11        2.81368  -0.00020   0.00604  -0.08869  -0.08265   2.73103
   D12        0.81568  -0.00021   0.00576  -0.08848  -0.08272   0.73296
   D13        0.27267  -0.00012  -0.00837   0.06161   0.05325   0.32592
   D14       -2.93604  -0.00035  -0.00944   0.06031   0.05087  -2.88517
   D15        2.46762  -0.00011  -0.00960   0.06463   0.05502   2.52264
   D16       -0.74109  -0.00034  -0.01067   0.06332   0.05264  -0.68845
   D17       -1.82081   0.00010  -0.01066   0.06954   0.05887  -1.76194
   D18        1.25366  -0.00012  -0.01174   0.06823   0.05649   1.31015
   D19        3.08580   0.00023   0.00544  -0.00640  -0.00099   3.08481
   D20        0.19143  -0.00034  -0.00443   0.00285  -0.00154   0.18988
   D21       -0.12480   0.00007   0.00432  -0.00801  -0.00372  -0.12853
   D22       -3.01917  -0.00050  -0.00555   0.00124  -0.00428  -3.02345
   D23       -1.97504  -0.00008   0.00249  -0.03447  -0.03196  -2.00700
   D24        0.11857  -0.00012   0.00341  -0.04029  -0.03689   0.08168
   D25        2.20533  -0.00021   0.00457  -0.04823  -0.04370   2.16163
   D26        0.91764   0.00056   0.01249  -0.04502  -0.03249   0.88514
   D27        3.01124   0.00053   0.01341  -0.05084  -0.03742   2.97382
   D28       -1.18518   0.00043   0.01456  -0.05878  -0.04423  -1.22941
   D29       -1.95709  -0.00028   0.02139  -0.20387  -0.18249  -2.13959
   D30        1.17290  -0.00057   0.00799  -0.18331  -0.17534   0.99756
   D31        2.27285  -0.00056   0.01980  -0.20181  -0.18198   2.09087
   D32       -0.88034  -0.00086   0.00640  -0.18126  -0.17483  -1.05516
   D33        0.17938  -0.00005   0.01865  -0.18597  -0.16733   0.01205
   D34       -2.97380  -0.00034   0.00525  -0.16542  -0.16018  -3.13398
   D35       -3.10663   0.00006   0.00596  -0.02888  -0.02292  -3.12954
   D36        0.02361  -0.00023  -0.00718  -0.00873  -0.01591   0.00770
         Item               Value     Threshold  Converged?
 Maximum Force            0.001177     0.000450     NO 
 RMS     Force            0.000377     0.000300     NO 
 Maximum Displacement     0.335654     0.001800     NO 
 RMS     Displacement     0.068734     0.001200     NO 
 Predicted change in Energy=-2.592564D-04
 GradGradGradGradGradGradGradGradGradGradGradGradGradGradGradGradGradGrad

 Leave Link  103 at Fri Mar 14 15:14:06 2025, MaxMem=  8589934592 cpu:               1.7 elap:               0.5
 (Enter /home/enzo/gaussian_versions/gdv.j21/gdv/l202.exe)
                          Input orientation:                          
 ---------------------------------------------------------------------
 Center     Atomic      Atomic             Coordinates (Angstroms)
 Number     Number       Type             X           Y           Z
 ---------------------------------------------------------------------
      1          6           0        3.022747    1.098214    0.510139
      2          6           0        2.060837    0.220756   -0.285560
      3         16           0        1.909432   -1.495145    0.425689
      4          6           0        0.675234    0.888684   -0.413913
      5          8           0        0.546573    2.089941   -0.224695
      6          7           0       -0.347066    0.078295   -0.826683
      7          6           0       -1.709711    0.572180   -0.918652
      8          6           0       -2.645151   -0.116084    0.065345
      9          8           0       -3.650774   -0.717128   -0.235137
     10          8           0       -2.214756    0.017407    1.339720
     11          1           0        4.019881    0.648008    0.532677
     12          1           0        3.086405    2.088423    0.051275
     13          1           0        2.675763    1.220740    1.539946
     14          1           0        2.427821    0.090730   -1.310747
     15          1           0        3.067568   -1.961067   -0.084809
     16          1           0       -0.180256   -0.920148   -0.858049
     17          1           0       -1.659729    1.640615   -0.689543
     18          1           0       -2.119952    0.431940   -1.922357
     19          1           0       -2.858473   -0.456921    1.897662
 ---------------------------------------------------------------------
                    Distance matrix (angstroms):
                    1          2          3          4          5
     1  C    0.000000
     2  C    1.525890   0.000000
     3  S    2.823494   1.863630   0.000000
     4  C    2.531520   1.543535   2.812618   0.000000
     5  O    2.766757   2.406357   3.890145   1.222855   0.000000
     6  N    3.766028   2.472065   3.022570   1.368286   2.282039
     7  C    4.971350   3.839446   4.379416   2.458231   2.806420
     8  C    5.813556   4.731059   4.772408   3.502028   3.890729
     9  O    6.956061   5.788322   5.653131   4.617893   5.049502
    10  O    5.411819   4.578601   4.486891   3.490901   3.790478
    11  H    1.094290   2.165620   3.009742   3.484340   3.836229
    12  H    1.093216   2.157181   3.790437   2.733043   2.554782
    13  H    1.093579   2.170386   3.033952   2.816016   2.898779
    14  H    2.164390   1.096627   2.408098   2.124290   2.952194
    15  H    3.116917   2.411257   1.348692   3.735325   4.773432
    16  H    4.025538   2.579129   2.519008   2.049632   3.160704
    17  H    4.864054   4.002726   4.880127   2.468485   2.299075
    18  H    5.727854   4.494742   5.046079   3.208907   3.569507
    19  H    6.239585   5.424511   5.096815   4.431829   4.752393
                    6          7          8          9         10
     6  N    0.000000
     7  C    1.452303   0.000000
     8  C    2.472790   1.522171   0.000000
     9  O    3.449219   2.428422   1.209471   0.000000
    10  O    2.860991   2.379724   1.351700   2.254299   0.000000
    11  H    4.608976   5.911035   6.724945   7.828926   6.318201
    12  H    4.074328   5.122743   6.140911   7.303611   5.835367
    13  H    4.005447   5.069292   5.680992   6.850644   5.040364
    14  H    2.816819   4.183863   5.260365   6.225664   5.346388
    15  H    4.045874   5.471291   6.005136   6.834186   5.817781
    16  H    1.012767   2.137743   2.752249   3.531817   3.138213
    17  H    2.045173   1.093866   2.151024   3.119246   2.657210
    18  H    2.113928   1.093338   2.127704   2.551566   3.289676
    19  H    3.743751   3.210970   1.875917   2.290039   0.975017
                   11         12         13         14         15
    11  H    0.000000
    12  H    1.782673   0.000000
    13  H    1.774617   1.771339   0.000000
    14  H    2.498685   2.505916   3.076499   0.000000
    15  H    2.845253   4.051820   3.594055   2.474281   0.000000
    16  H    4.694080   4.533150   4.300073   2.833527   3.497109
    17  H    5.893815   4.824431   4.893200   4.415439   5.973704
    18  H    6.615998   5.809072   5.967297   4.601384   6.001119
    19  H    7.099000   6.725288   5.793986   6.207956   6.427333
                   16         17         18         19
    16  H    0.000000
    17  H    2.962218   0.000000
    18  H    2.592935   1.786765   0.000000
    19  H    3.870577   3.539813   3.990994   0.000000
 Stoichiometry    C5H9NO3S
 Framework group  C1[X(C5H9NO3S)]
 Deg. of freedom    51
 Full point group                 C1      NOp   1
 RotChk:  IX=3 Diff= 7.89D-02
 Largest Abelian subgroup         C1      NOp   1
 Largest concise Abelian subgroup C1      NOp   1
                         Standard orientation:                         
 ---------------------------------------------------------------------
 Center     Atomic      Atomic             Coordinates (Angstroms)
 Number     Number       Type             X           Y           Z
 ---------------------------------------------------------------------
      1          6           0       -3.039514   -0.805239    0.610554
      2          6           0       -2.025184   -0.165251   -0.332786
      3         16           0       -1.843019    1.666905   -0.044446
      4          6           0       -0.657844   -0.875953   -0.244573
      5          8           0       -0.573237   -1.999942    0.229629
      6          7           0        0.402288   -0.211057   -0.797962
      7          6           0        1.750989   -0.743586   -0.716702
      8          6           0        2.675217    0.138116    0.111191
      9          8           0        3.708463    0.626956   -0.284105
     10          8           0        2.199741    0.322514    1.362995
     11          1           0       -4.022198   -0.340028    0.486540
     12          1           0       -3.119377   -1.874633    0.398092
     13          1           0       -2.730129   -0.686311    1.652692
     14          1           0       -2.354462   -0.275337   -1.373002
     15          1           0       -2.968764    2.023819   -0.695814
     16          1           0        0.268073    0.754580   -1.072238
     17          1           0        1.660019   -1.725028   -0.242321
     18          1           0        2.197766   -0.856368   -1.708195
     19          1           0        2.839631    0.901485    1.816858
 ---------------------------------------------------------------------
 Rotational constants (GHZ):           1.9021858           0.6076816           0.5242631
 Leave Link  202 at Fri Mar 14 15:14:06 2025, MaxMem=  8589934592 cpu:               0.4 elap:               0.2
 (Enter /home/enzo/gaussian_versions/gdv.j21/gdv/l301.exe)
 Standard basis: 6-31G(d) (6D, 7F)
 Ernie: Thresh=  0.10000D-02 Tol=  0.10000D-05 Strict=F.
 There are   172 symmetry adapted cartesian basis functions of A   symmetry.
 There are   172 symmetry adapted basis functions of A   symmetry.
   172 basis functions,   340 primitive gaussians,   172 cartesian basis functions
    43 alpha electrons       43 beta electrons
       nuclear repulsion energy       623.2393837716 Hartrees.
 IExCor=      4002 DFT=T Ex+Corr=B3LYP ScaHFX=  0.200000
 ScaDFX=  0.800000  0.720000  1.000000  0.810000  1.000000  0.000000
 ScaDFX=  0.000000  0.000000  0.000000  0.000000  0.000000  0.000000
 IRadAn=      5 IRanWt=     -1 IRanGd=            0 ICorTp=0 IEmpDi=  4
 NAtoms=   19 NActive=   19 NUniq=   19 SFac= 1.00D+00 NAtFMM=   60 NAOKFM=F Big=F
 Integral buffers will be    131072 words long.
 Raffenetti 2 integral format.
 Two-electron integral symmetry is turned on.
 Leave Link  301 at Fri Mar 14 15:14:06 2025, MaxMem=  8589934592 cpu:               0.7 elap:               0.3
 (Enter /home/enzo/gaussian_versions/gdv.j21/gdv/l302.exe)
 NPDir=0 NMtPBC=     1 NCelOv=     1 NCel=       1 NClECP=     1 NCelD=      1
         NCelK=      1 NCelE2=     1 NClLst=     1 CellRange=     0.0.
 One-electron integrals computed using PRISM.
 One-electron integral symmetry used in STVInt
 NBasis=   172 RedAO= T EigKep=  2.93D-03  NBF=   172
 NBsUse=   172 1.00D-06 EigRej= -1.00D+00 NBFU=   172
 Precomputing XC quadrature grid using
 IXCGrd= 4 IRadAn=           5 IRanWt=          -1 IRanGd=           0 AccXCQ= 0.00D+00.
 Generated NRdTot=       0 NPtTot=      407751 NUsed=           0 NTot=          64
 NSgBfM=   172   172   172   172   172 MxSgAt=    19 MxSgA2=    19 SizInc=   0.000
 NMBTot=     3448 MaxBatPerAtom=       85 MaxMicBPerAtom=      199 NBfPt=            51095679.
 Leave Link  302 at Fri Mar 14 15:14:07 2025, MaxMem=  8589934592 cpu:               5.0 elap:               0.9
 (Enter /home/enzo/gaussian_versions/gdv.j21/gdv/l303.exe)
 DipDrv:  MaxL=1.
 Leave Link  303 at Fri Mar 14 15:14:08 2025, MaxMem=  8589934592 cpu:               0.9 elap:               0.3
 (Enter /home/enzo/gaussian_versions/gdv.j21/gdv/l401.exe)
 Lowest energy guess from the checkpoint file:  "/local/home/enzo/scratch/Gau-2337652.chk"
 B after Tr=    -0.000000   -0.000000   -0.000000
         Rot=    0.999744    0.022470    0.002402   -0.000614 Ang=   2.59 deg.
 AO Guess basis will be translated and rotated to current coordinates.
 B after Tr=    -0.000000   -0.000000   -0.000000
         Rot=    0.999680    0.025149    0.002783   -0.000240 Ang=   2.90 deg.
 AO Guess basis will be translated and rotated to current coordinates.
 CkInt1:  FT= 2.24D-01
 Max alpha theta=  0.449 degrees.
 JPrj=2 DoOrth=T DoCkMO=T.
 Leave Link  401 at Fri Mar 14 15:14:08 2025, MaxMem=  8589934592 cpu:               1.5 elap:               0.4
 (Enter /home/enzo/gaussian_versions/gdv.j21/gdv/l502.exe)
 Integral symmetry usage will be decided dynamically.
 Closed shell SCF:
 Using DIIS extrapolation, IDIIS=  1040.
 NGot=  8589934592 LenX=  8589843591 LenY=  8589813566
 Requested convergence on RMS density matrix=1.00D-08 within 128 cycles.
 Requested convergence on MAX density matrix=1.00D-06.
 Requested convergence on             energy=1.00D-06.
 No special actions if energy rises.
 Fock matrices will be formed incrementally for  20 cycles.
 Integral accuracy reduced to 1.0D-05 until final iterations.

 Cycle   1  Pass 0  IDiag  1:
 FoFJK:  IHMeth= 1 ICntrl=       0 DoSepK=F KAlg= 0 I1Cent=           0 FoldK=F
 IRaf= 900000000 NMat=       1 IRICut=       1 DoRegI=T DoRafI=F ISym2E= 0 IDoP0=0 IntGTp=1.
 FoFCou: FMM=F IPFlag=           0 FMFlag=      100000 FMFlg1=           0
         NFxFlg=           0 DoJE=F BraDBF=F KetDBF=F FulRan=T
         wScrn=  0.000000 ICntrl=         0 IOpCl=  0 I1Cent=           0 NGrid=           0
         NMat0=    1 NMatS0=      1 NMatT0=    0 NMatD0=    1 NMtDS0=    0 NMtDT0=    0
 Symmetry not used in FoFCou.
 E= -874.555437743117    
 DIIS: error= 7.77D-03 at cycle   1 NSaved=   1.
 NSaved= 1 IEnMin= 1 EnMin= -874.555437743117     IErMin= 1 ErrMin= 7.77D-03
 ErrMax= 7.77D-03  0.00D+00 EMaxC= 1.00D-01 BMatC= 1.38D-02 BMatP= 1.38D-02
 IDIUse=3 WtCom= 9.22D-01 WtEn= 7.77D-02
 Coeff-Com:  0.100D+01
 Coeff-En:   0.100D+01
 Coeff:      0.100D+01
 Gap=    87.343 Goal=   None    Shift=    0.000
 GapD=   87.343 DampG=2.000 DampE=1.000 DampFc=2.0000 IDamp=-1.
 RMSDP=1.17D-03 MaxDP=4.14D-02              OVMax= 5.46D-02

 Cycle   2  Pass 0  IDiag  1:
 RMSU=  1.17D-03    CP:  9.99D-01
 E= -874.581187160289     Delta-E=       -0.025749417172 Rises=F Damp=F
 DIIS: error= 1.09D-03 at cycle   2 NSaved=   2.
 NSaved= 2 IEnMin= 2 EnMin= -874.581187160289     IErMin= 2 ErrMin= 1.09D-03
 ErrMax= 1.09D-03  0.00D+00 EMaxC= 1.00D-01 BMatC= 3.39D-04 BMatP= 1.38D-02
 IDIUse=3 WtCom= 9.89D-01 WtEn= 1.09D-02
 Coeff-Com: -0.595D-01 0.106D+01
 Coeff-En:   0.000D+00 0.100D+01
 Coeff:     -0.589D-01 0.106D+01
 Gap=     0.244 Goal=   None    Shift=    0.000
 RMSDP=1.80D-04 MaxDP=6.39D-03 DE=-2.57D-02 OVMax= 9.60D-03

 Cycle   3  Pass 0  IDiag  1:
 RMSU=  1.60D-04    CP:  9.99D-01  1.07D+00
 E= -874.581271293474     Delta-E=       -0.000084133185 Rises=F Damp=F
 DIIS: error= 1.44D-03 at cycle   3 NSaved=   3.
 NSaved= 3 IEnMin= 3 EnMin= -874.581271293474     IErMin= 2 ErrMin= 1.09D-03
 ErrMax= 1.44D-03  0.00D+00 EMaxC= 1.00D-01 BMatC= 4.89D-04 BMatP= 3.39D-04
 IDIUse=3 WtCom= 2.09D-01 WtEn= 7.91D-01
 Coeff-Com: -0.504D-01 0.616D+00 0.435D+00
 Coeff-En:   0.000D+00 0.415D+00 0.585D+00
 Coeff:     -0.105D-01 0.457D+00 0.554D+00
 Gap=     0.244 Goal=   None    Shift=    0.000
 RMSDP=1.52D-04 MaxDP=7.11D-03 DE=-8.41D-05 OVMax= 9.51D-03

 Cycle   4  Pass 0  IDiag  1:
 RMSU=  8.48D-05    CP:  9.99D-01  1.09D+00  2.25D-01
 E= -874.581457623690     Delta-E=       -0.000186330216 Rises=F Damp=F
 DIIS: error= 8.97D-04 at cycle   4 NSaved=   4.
 NSaved= 4 IEnMin= 4 EnMin= -874.581457623690     IErMin= 4 ErrMin= 8.97D-04
 ErrMax= 8.97D-04  0.00D+00 EMaxC= 1.00D-01 BMatC= 2.41D-04 BMatP= 3.39D-04
 IDIUse=3 WtCom= 9.91D-01 WtEn= 8.97D-03
 Coeff-Com: -0.164D-01 0.169D+00 0.400D+00 0.447D+00
 Coeff-En:   0.000D+00 0.000D+00 0.365D+00 0.635D+00
 Coeff:     -0.162D-01 0.168D+00 0.400D+00 0.448D+00
 Gap=     0.244 Goal=   None    Shift=    0.000
 RMSDP=7.24D-05 MaxDP=3.24D-03 DE=-1.86D-04 OVMax= 5.25D-03

 Cycle   5  Pass 0  IDiag  1:
 RMSU=  2.36D-05    CP:  9.99D-01  1.09D+00  5.64D-01  5.12D-01
 E= -874.581633614892     Delta-E=       -0.000175991202 Rises=F Damp=F
 DIIS: error= 2.09D-04 at cycle   5 NSaved=   5.
 NSaved= 5 IEnMin= 5 EnMin= -874.581633614892     IErMin= 5 ErrMin= 2.09D-04
 ErrMax= 2.09D-04  0.00D+00 EMaxC= 1.00D-01 BMatC= 8.01D-06 BMatP= 2.41D-04
 IDIUse=3 WtCom= 9.98D-01 WtEn= 2.09D-03
 Coeff-Com: -0.543D-02 0.481D-01 0.219D+00 0.291D+00 0.447D+00
 Coeff-En:   0.000D+00 0.000D+00 0.000D+00 0.000D+00 0.100D+01
 Coeff:     -0.542D-02 0.480D-01 0.219D+00 0.291D+00 0.448D+00
 Gap=     0.244 Goal=   None    Shift=    0.000
 RMSDP=1.31D-05 MaxDP=5.67D-04 DE=-1.76D-04 OVMax= 9.15D-04

 Cycle   6  Pass 0  IDiag  1:
 RMSU=  6.63D-06    CP:  9.99D-01  1.09D+00  5.59D-01  5.87D-01  6.08D-01
 E= -874.581639604523     Delta-E=       -0.000005989630 Rises=F Damp=F
 DIIS: error= 2.98D-05 at cycle   6 NSaved=   6.
 NSaved= 6 IEnMin= 6 EnMin= -874.581639604523     IErMin= 6 ErrMin= 2.98D-05
 ErrMax= 2.98D-05  0.00D+00 EMaxC= 1.00D-01 BMatC= 2.03D-07 BMatP= 8.01D-06
 IDIUse=1 WtCom= 1.00D+00 WtEn= 0.00D+00
 Coeff-Com:  0.688D-03-0.142D-01 0.173D-01 0.388D-01 0.157D+00 0.801D+00
 Coeff:      0.688D-03-0.142D-01 0.173D-01 0.388D-01 0.157D+00 0.801D+00
 Gap=     0.244 Goal=   None    Shift=    0.000
 RMSDP=3.06D-06 MaxDP=8.03D-05 DE=-5.99D-06 OVMax= 1.50D-04

 Initial convergence to 1.0D-05 achieved.  Increase integral accuracy.
 Cycle   7  Pass 1  IDiag  1:
 E= -874.581640189275     Delta-E=       -0.000000584753 Rises=F Damp=F
 DIIS: error= 1.29D-05 at cycle   1 NSaved=   1.
 NSaved= 1 IEnMin= 1 EnMin= -874.581640189275     IErMin= 1 ErrMin= 1.29D-05
 ErrMax= 1.29D-05  0.00D+00 EMaxC= 1.00D-01 BMatC= 5.83D-08 BMatP= 5.83D-08
 IDIUse=1 WtCom= 1.00D+00 WtEn= 0.00D+00
 Coeff-Com:  0.100D+01
 Coeff:      0.100D+01
 Gap=     0.244 Goal=   None    Shift=    0.000
 RMSDP=3.06D-06 MaxDP=8.03D-05 DE=-5.85D-07 OVMax= 1.14D-04

 Cycle   8  Pass 1  IDiag  1:
 RMSU=  4.93D-06    CP:  1.00D+00
 E= -874.581640124621     Delta-E=        0.000000064654 Rises=F Damp=F
 DIIS: error= 2.55D-05 at cycle   2 NSaved=   2.
 NSaved= 2 IEnMin= 1 EnMin= -874.581640189275     IErMin= 1 ErrMin= 1.29D-05
 ErrMax= 2.55D-05  0.00D+00 EMaxC= 1.00D-01 BMatC= 1.45D-07 BMatP= 5.83D-08
 IDIUse=1 WtCom= 1.00D+00 WtEn= 0.00D+00
 Coeff-Com:  0.624D+00 0.376D+00
 Coeff:      0.624D+00 0.376D+00
 Gap=     0.244 Goal=   None    Shift=    0.000
 RMSDP=2.19D-06 MaxDP=8.88D-05 DE= 6.47D-08 OVMax= 1.03D-04

 Cycle   9  Pass 1  IDiag  1:
 RMSU=  1.78D-06    CP:  1.00D+00  7.44D-01
 E= -874.581640231968     Delta-E=       -0.000000107347 Rises=F Damp=F
 DIIS: error= 4.98D-06 at cycle   3 NSaved=   3.
 NSaved= 3 IEnMin= 3 EnMin= -874.581640231968     IErMin= 3 ErrMin= 4.98D-06
 ErrMax= 4.98D-06  0.00D+00 EMaxC= 1.00D-01 BMatC= 7.57D-09 BMatP= 5.83D-08
 IDIUse=1 WtCom= 1.00D+00 WtEn= 0.00D+00
 Coeff-Com:  0.191D+00 0.205D+00 0.605D+00
 Coeff:      0.191D+00 0.205D+00 0.605D+00
 Gap=     0.244 Goal=   None    Shift=    0.000
 RMSDP=6.70D-07 MaxDP=2.19D-05 DE=-1.07D-07 OVMax= 3.33D-05

 Cycle  10  Pass 1  IDiag  1:
 RMSU=  4.97D-07    CP:  1.00D+00  7.87D-01  7.79D-01
 E= -874.581640236953     Delta-E=       -0.000000004985 Rises=F Damp=F
 DIIS: error= 1.90D-06 at cycle   4 NSaved=   4.
 NSaved= 4 IEnMin= 4 EnMin= -874.581640236953     IErMin= 4 ErrMin= 1.90D-06
 ErrMax= 1.90D-06  0.00D+00 EMaxC= 1.00D-01 BMatC= 1.24D-09 BMatP= 7.57D-09
 IDIUse=1 WtCom= 1.00D+00 WtEn= 0.00D+00
 Coeff-Com:  0.273D-02 0.510D-01 0.347D+00 0.599D+00
 Coeff:      0.273D-02 0.510D-01 0.347D+00 0.599D+00
 Gap=     0.244 Goal=   None    Shift=    0.000
 RMSDP=2.21D-07 MaxDP=6.49D-06 DE=-4.98D-09 OVMax= 1.12D-05

 Cycle  11  Pass 1  IDiag  1:
 RMSU=  8.58D-08    CP:  1.00D+00  7.88D-01  8.27D-01  6.28D-01
 E= -874.581640238040     Delta-E=       -0.000000001087 Rises=F Damp=F
 DIIS: error= 4.14D-07 at cycle   5 NSaved=   5.
 NSaved= 5 IEnMin= 5 EnMin= -874.581640238040     IErMin= 5 ErrMin= 4.14D-07
 ErrMax= 4.14D-07  0.00D+00 EMaxC= 1.00D-01 BMatC= 7.23D-11 BMatP= 1.24D-09
 IDIUse=1 WtCom= 1.00D+00 WtEn= 0.00D+00
 Coeff-Com: -0.366D-02 0.249D-01 0.190D+00 0.358D+00 0.430D+00
 Coeff:     -0.366D-02 0.249D-01 0.190D+00 0.358D+00 0.430D+00
 Gap=     0.244 Goal=   None    Shift=    0.000
 RMSDP=4.56D-08 MaxDP=1.78D-06 DE=-1.09D-09 OVMax= 1.94D-06

 Cycle  12  Pass 1  IDiag  1:
 RMSU=  2.64D-08    CP:  1.00D+00  7.89D-01  8.26D-01  6.43D-01  5.82D-01
 E= -874.581640238105     Delta-E=       -0.000000000065 Rises=F Damp=F
 DIIS: error= 9.24D-08 at cycle   6 NSaved=   6.
 NSaved= 6 IEnMin= 6 EnMin= -874.581640238105     IErMin= 6 ErrMin= 9.24D-08
 ErrMax= 9.24D-08  0.00D+00 EMaxC= 1.00D-01 BMatC= 2.48D-12 BMatP= 7.23D-11
 IDIUse=1 WtCom= 1.00D+00 WtEn= 0.00D+00
 Coeff-Com: -0.208D-02 0.924D-02 0.736D-01 0.142D+00 0.216D+00 0.562D+00
 Coeff:     -0.208D-02 0.924D-02 0.736D-01 0.142D+00 0.216D+00 0.562D+00
 Gap=     0.244 Goal=   None    Shift=    0.000
 RMSDP=1.16D-08 MaxDP=5.07D-07 DE=-6.46D-11 OVMax= 7.51D-07

 Cycle  13  Pass 1  IDiag  1:
 RMSU=  1.10D-08    CP:  1.00D+00  7.89D-01  8.26D-01  6.41D-01  6.06D-01
                    CP:  8.97D-01
 E= -874.581640238106     Delta-E=       -0.000000000002 Rises=F Damp=F
 DIIS: error= 6.69D-08 at cycle   7 NSaved=   7.
 NSaved= 7 IEnMin= 7 EnMin= -874.581640238106     IErMin= 7 ErrMin= 6.69D-08
 ErrMax= 6.69D-08  0.00D+00 EMaxC= 1.00D-01 BMatC= 7.44D-13 BMatP= 2.48D-12
 IDIUse=1 WtCom= 1.00D+00 WtEn= 0.00D+00
 Coeff-Com: -0.526D-03 0.400D-03 0.483D-02 0.117D-01 0.439D-01 0.365D+00
 Coeff-Com:  0.575D+00
 Coeff:     -0.526D-03 0.400D-03 0.483D-02 0.117D-01 0.439D-01 0.365D+00
 Coeff:      0.575D+00
 Gap=     0.244 Goal=   None    Shift=    0.000
 RMSDP=5.44D-09 MaxDP=2.16D-07 DE=-1.59D-12 OVMax= 3.90D-07

 SCF Done:  E(RB3LYP) =  -874.581640238     A.U. after   13 cycles
            NFock= 13  Conv=0.54D-08     -V/T= 2.0064
 KE= 8.690160469968D+02 PE=-3.306239875783D+03 EE= 9.394028047766D+02
 Leave Link  502 at Fri Mar 14 15:14:18 2025, MaxMem=  8589934592 cpu:              80.5 elap:              10.2
 (Enter /home/enzo/gaussian_versions/gdv.j21/gdv/l701.exe)
 ... and contract with generalized density number  0.
 Compute integral first derivatives.
 Leave Link  701 at Fri Mar 14 15:14:19 2025, MaxMem=  8589934592 cpu:               2.8 elap:               0.6
 (Enter /home/enzo/gaussian_versions/gdv.j21/gdv/l702.exe)
 L702 exits ... SP integral derivatives will be done elsewhere.
 Leave Link  702 at Fri Mar 14 15:14:19 2025, MaxMem=  8589934592 cpu:               0.2 elap:               0.3
 (Enter /home/enzo/gaussian_versions/gdv.j21/gdv/l703.exe)
 Integral derivatives from FoFJK, PRISM(SPDF).
 Compute integral first derivatives, UseDBF=F ICtDFT=           0.
 Calling FoFJK, ICntrl=      2127 FMM=F ISym2X=0 I1Cent= 0 IOpClX= 0 NMat=1 NMatS=1 NMatT=0.
 FoFJK:  IHMeth= 1 ICntrl=    2127 DoSepK=F KAlg= 0 I1Cent=           0 FoldK=F
 IRaf=         0 NMat=       1 IRICut=       1 DoRegI=T DoRafI=F ISym2E= 0 IDoP0=0 IntGTp=1.
 FoFCou: FMM=F IPFlag=           0 FMFlag=      100000 FMFlg1=         800
         NFxFlg=           0 DoJE=F BraDBF=F KetDBF=F FulRan=T
         wScrn=  0.000000 ICntrl=      2127 IOpCl=  0 I1Cent=           0 NGrid=           0
         NMat0=    1 NMatS0=      1 NMatT0=    0 NMatD0=    1 NMtDS0=    0 NMtDT0=    0
 Symmetry not used in FoFCou.
 Leave Link  703 at Fri Mar 14 15:14:21 2025, MaxMem=  8589934592 cpu:              14.4 elap:               2.2
 (Enter /home/enzo/gaussian_versions/gdv.j21/gdv/l716.exe)
 Dipole        =-6.81953356D-01 5.67804883D-01-3.77617067D-01
 ***** Axes restored to original set *****
 -------------------------------------------------------------------
 Center     Atomic                   Forces (Hartrees/Bohr)
 Number     Number              X              Y              Z
 -------------------------------------------------------------------
      1        6           0.000707980    0.000011525    0.000364459
      2        6          -0.000543792   -0.000035097   -0.000801867
      3       16          -0.000435459   -0.000322717    0.000459524
      4        6           0.000904762   -0.000107846    0.000468796
      5        8          -0.001331468   -0.000284418   -0.000195946
      6        7          -0.000170318    0.001386945    0.001891738
      7        6           0.001572976   -0.001278299   -0.000754265
      8        6           0.000470709   -0.000003599    0.000665954
      9        8          -0.001358147    0.000426406   -0.000749123
     10        8           0.001036333    0.000011360    0.000303541
     11        1           0.000048716    0.000146428   -0.000213677
     12        1           0.000035025    0.000107013    0.000028250
     13        1          -0.000120940    0.000004525   -0.000260425
     14        1           0.000381727    0.000080979    0.000061197
     15        1           0.000215340   -0.000330162    0.000012308
     16        1          -0.000156110    0.000265212   -0.001249003
     17        1          -0.000661432    0.000561930   -0.000583384
     18        1          -0.000100996   -0.000310249    0.000064677
     19        1          -0.000494907   -0.000329937    0.000487246
 -------------------------------------------------------------------
 Cartesian Forces:  Max     0.001891738 RMS     0.000643124
 Leave Link  716 at Fri Mar 14 15:14:22 2025, MaxMem=  8589934592 cpu:               0.3 elap:               0.3
 (Enter /home/enzo/gaussian_versions/gdv.j21/gdv/l103.exe)

 GradGradGradGradGradGradGradGradGradGradGradGradGradGradGradGradGradGrad
 Berny optimization.
 Using GEDIIS/GDIIS optimizer.
 FormGI is forming the generalized inverse of G from B-inverse, IUseBI=4.
 Internal  Forces:  Max     0.001651010 RMS     0.000464480
 Search for a local minimum.
 Step number  11 out of a maximum of   93
 All quantities printed in internal units (Hartrees-Bohrs-Radians)
 RMS Force = .46448D-03 SwitMx=.10000D-02 MixMth= 2
 Mixed Optimization -- En-DIIS/RFO-DIIS
 Swapping is turned off.
 Update second derivatives using D2CorX and points    9   10   11
 DE= -4.25D-04 DEPred=-2.59D-04 R= 1.64D+00
 TightC=F SS=  1.41D+00  RLast= 4.80D-01 DXNew= 1.1050D+00 1.4385D+00
 Trust test= 1.64D+00 RLast= 4.80D-01 DXMaxT set to 1.10D+00
 ITU=  1 -1  1  1  1  1  0  0  1  1  0
     Eigenvalues ---   -0.08419   0.00001   0.00396   0.00463   0.00530
     Eigenvalues ---    0.00810   0.01169   0.01639   0.01930   0.03940
     Eigenvalues ---    0.04771   0.05190   0.05607   0.05720   0.05753
     Eigenvalues ---    0.06548   0.07952   0.09893   0.13247   0.15550
     Eigenvalues ---    0.15950   0.15993   0.16014   0.16198   0.17165
     Eigenvalues ---    0.17552   0.21095   0.21435   0.21969   0.22134
     Eigenvalues ---    0.23345   0.24055   0.25045   0.25223   0.25639
     Eigenvalues ---    0.30160   0.31281   0.32488   0.32579   0.32620
     Eigenvalues ---    0.32645   0.32717   0.33100   0.33573   0.37328
     Eigenvalues ---    0.40638   0.40988   0.46217   0.49758   0.78117
     Eigenvalues ---    0.80330
 Eigenvalue     1 is  -8.42D-02 should be greater than     0.000000 Eigenvector:
                          D29       D31       D36       D33       D34
   1                    0.38878   0.36135  -0.33098   0.32073  -0.29316
                          D35       D32       D30       A16       A13
   1                    0.26919  -0.25254  -0.22511   0.16472  -0.16086
 Eigenvalue     2 is   1.03D-05 Eigenvector:
                          D30       D32       D29       D31       D34
   1                    0.37690   0.37538   0.36419   0.36267   0.34635
                          D33       D11       D12       D10       D17
   1                    0.33364   0.17149   0.17036   0.16545  -0.12879
 Use linear search instead of GDIIS.
 RFO step:  Lambda=-8.42169533D-02 EMin=-8.41915286D-02
 I=     1 Eig=   -8.42D-02 Dot1= -1.46D-04
 I=     1 Stepn= -2.57D-01 RXN=   2.57D-01 DoEMax=T EDone=F
 Mixed    1 eigenvectors in step.  Raw Step.Grad=  3.76D-04.
 RFO eigenvector is Hessian eigenvector with negative curvature.
 Taking step of  2.57D-01 in eigenvector direction(s).  Step.Grad= -8.44D-05 DoEMax=T.
 Skip linear search -- no minimum in search direction.
 Iteration  1 RMS(Cart)=  0.04658013 RMS(Int)=  0.00160899
 Iteration  2 RMS(Cart)=  0.00202164 RMS(Int)=  0.00075101
 Iteration  3 RMS(Cart)=  0.00000320 RMS(Int)=  0.00075100
 Iteration  4 RMS(Cart)=  0.00000000 RMS(Int)=  0.00075100
 Variable       Old X    -DE/DX   Delta X   Delta X   Delta X     New X
                                 (Linear)    (Quad)   (Total)
    R1        2.88351   0.00053   0.00000  -0.00082  -0.00082   2.88269
    R2        2.06791  -0.00002   0.00000   0.00261   0.00261   2.07051
    R3        2.06588   0.00009   0.00000  -0.00408  -0.00408   2.06180
    R4        2.06656  -0.00021   0.00000  -0.00379  -0.00379   2.06277
    R5        3.52175   0.00080   0.00000   0.02106   0.02106   3.54281
    R6        2.91686   0.00038   0.00000   0.02439   0.02439   2.94125
    R7        2.07232   0.00006   0.00000  -0.00242  -0.00242   2.06990
    R8        2.54866   0.00029   0.00000   0.00166   0.00166   2.55032
    R9        2.31086  -0.00017   0.00000  -0.00439  -0.00439   2.30647
   R10        2.58569  -0.00056   0.00000  -0.02243  -0.02243   2.56326
   R11        2.74445  -0.00071   0.00000  -0.02370  -0.02370   2.72076
   R12        1.91385  -0.00025   0.00000  -0.00107  -0.00107   1.91279
   R13        2.87649   0.00062   0.00000   0.00883   0.00883   2.88531
   R14        2.06711   0.00040   0.00000   0.00399   0.00399   2.07110
   R15        2.06611   0.00002   0.00000   0.00181   0.00181   2.06792
   R16        2.28557   0.00110   0.00000   0.01288   0.01288   2.29845
   R17        2.55434   0.00089   0.00000   0.00792   0.00792   2.56227
   R18        1.84252   0.00077   0.00000   0.00583   0.00583   1.84834
    A1        1.92685   0.00006   0.00000   0.00790   0.00790   1.93476
    A2        1.91632   0.00009   0.00000  -0.00122  -0.00123   1.91509
    A3        1.93421  -0.00021   0.00000  -0.00706  -0.00706   1.92715
    A4        1.90523  -0.00011   0.00000  -0.00152  -0.00152   1.90371
    A5        1.89212   0.00018   0.00000   0.00155   0.00156   1.89368
    A6        1.88836  -0.00001   0.00000   0.00028   0.00027   1.88862
    A7        1.96239   0.00014   0.00000  -0.00893  -0.00905   1.95334
    A8        1.93951   0.00048   0.00000   0.00668   0.00670   1.94621
    A9        1.92273  -0.00050   0.00000  -0.01218  -0.01222   1.91051
   A10        1.93610  -0.00063   0.00000   0.01566   0.01567   1.95177
   A11        1.84918   0.00028   0.00000  -0.00207  -0.00220   1.84698
   A12        1.84832   0.00020   0.00000   0.00058   0.00060   1.84893
   A13        1.67484   0.00067   0.00000   0.04137   0.04137   1.71621
   A14        2.10211   0.00165   0.00000   0.02754   0.02742   2.12953
   A15        2.02583  -0.00015   0.00000   0.01674   0.01660   2.04243
   A16        2.15301  -0.00151   0.00000  -0.04237  -0.04253   2.11048
   A17        2.11613   0.00014   0.00000  -0.00692  -0.00692   2.10921
   A18        2.06028   0.00027   0.00000   0.00829   0.00828   2.06857
   A19        2.08041  -0.00030   0.00000  -0.00232  -0.00232   2.07809
   A20        1.96265   0.00092   0.00000   0.00471   0.00468   1.96733
   A21        1.85045  -0.00008   0.00000  -0.01218  -0.01216   1.83829
   A22        1.94612   0.00002   0.00000   0.01341   0.01340   1.95952
   A23        1.91169  -0.00041   0.00000   0.00799   0.00801   1.91970
   A24        1.88059  -0.00037   0.00000  -0.00360  -0.00366   1.87693
   A25        1.91209  -0.00011   0.00000  -0.01070  -0.01066   1.90143
   A26        2.18348  -0.00085   0.00000  -0.01390  -0.01759   2.16588
   A27        1.94887   0.00037   0.00000   0.00543   0.00164   1.95051
   A28        2.15083   0.00048   0.00000   0.00911   0.00520   2.15603
   A29        1.85588   0.00010   0.00000  -0.00498  -0.00498   1.85090
    D1        1.03044   0.00025   0.00000  -0.01206  -0.01201   1.01843
    D2       -3.07071  -0.00010   0.00000   0.00705   0.00703  -3.06368
    D3       -1.02778   0.00013   0.00000   0.00427   0.00422  -1.02356
    D4        3.13186   0.00020   0.00000  -0.00971  -0.00966   3.12220
    D5       -0.96929  -0.00015   0.00000   0.00939   0.00938  -0.95991
    D6        1.07364   0.00008   0.00000   0.00662   0.00657   1.08021
    D7       -1.06619   0.00012   0.00000  -0.01458  -0.01452  -1.08071
    D8        1.11584  -0.00023   0.00000   0.00453   0.00453   1.12036
    D9       -3.12442   0.00000   0.00000   0.00175   0.00172  -3.12270
   D10       -1.36826   0.00022   0.00000   0.03285   0.03283  -1.33543
   D11        2.73103  -0.00004   0.00000   0.01867   0.01869   2.74972
   D12        0.73296  -0.00013   0.00000   0.01148   0.01148   0.74444
   D13        0.32592  -0.00021   0.00000  -0.02816  -0.02847   0.29745
   D14       -2.88517  -0.00035   0.00000  -0.00029  -0.00006  -2.88524
   D15        2.52264  -0.00013   0.00000  -0.02303  -0.02325   2.49939
   D16       -0.68845  -0.00028   0.00000   0.00484   0.00516  -0.68330
   D17       -1.76194   0.00001   0.00000  -0.01751  -0.01778  -1.77972
   D18        1.31015  -0.00014   0.00000   0.01036   0.01063   1.32078
   D19        3.08481   0.00021   0.00000  -0.00782  -0.00743   3.07738
   D20        0.18988  -0.00024   0.00000  -0.00321  -0.00280   0.18709
   D21       -0.12853   0.00020   0.00000   0.02412   0.02370  -0.10483
   D22       -3.02345  -0.00025   0.00000   0.02873   0.02833  -2.99512
   D23       -2.00700   0.00005   0.00000   0.01602   0.01605  -1.99096
   D24        0.08168   0.00002   0.00000   0.02066   0.02066   0.10234
   D25        2.16163  -0.00015   0.00000   0.00766   0.00761   2.16924
   D26        0.88514   0.00059   0.00000   0.01281   0.01285   0.89799
   D27        2.97382   0.00056   0.00000   0.01745   0.01746   2.99129
   D28       -1.22941   0.00039   0.00000   0.00445   0.00441  -1.22500
   D29       -2.13959  -0.00067   0.00000  -0.10000  -0.09955  -2.23914
   D30        0.99756  -0.00046   0.00000   0.05790   0.05748   1.05504
   D31        2.09087  -0.00087   0.00000  -0.09294  -0.09252   1.99835
   D32       -1.05516  -0.00067   0.00000   0.06496   0.06451  -0.99065
   D33        0.01205  -0.00029   0.00000  -0.08250  -0.08206  -0.07001
   D34       -3.13398  -0.00009   0.00000   0.07540   0.07496  -3.05902
   D35       -3.12954  -0.00013   0.00000  -0.06924  -0.07001   3.08363
   D36        0.00770   0.00007   0.00000   0.08513   0.08591   0.09361
         Item               Value     Threshold  Converged?
 Maximum Force            0.001651     0.000450     NO 
 RMS     Force            0.000464     0.000300     NO 
 Maximum Displacement     0.172023     0.001800     NO 
 RMS     Displacement     0.046601     0.001200     NO 
 Predicted change in Energy=-3.146119D-03
 Lowest energy point so far.  Saving SCF results.
 GradGradGradGradGradGradGradGradGradGradGradGradGradGradGradGradGradGrad

 Leave Link  103 at Fri Mar 14 15:14:22 2025, MaxMem=  8589934592 cpu:               2.2 elap:               0.6
 (Enter /home/enzo/gaussian_versions/gdv.j21/gdv/l202.exe)
                          Input orientation:                          
 ---------------------------------------------------------------------
 Center     Atomic      Atomic             Coordinates (Angstroms)
 Number     Number       Type             X           Y           Z
 ---------------------------------------------------------------------
      1          6           0        3.018822    1.099904    0.514447
      2          6           0        2.071848    0.218667   -0.294053
      3         16           0        1.980603   -1.523816    0.391667
      4          6           0        0.661585    0.864472   -0.422897
      5          8           0        0.469513    2.048946   -0.199680
      6          7           0       -0.347509    0.062043   -0.844448
      7          6           0       -1.699199    0.552420   -0.917791
      8          6           0       -2.632175   -0.139703    0.073051
      9          8           0       -3.694012   -0.648650   -0.231621
     10          8           0       -2.230950    0.045810    1.354866
     11          1           0        4.028300    0.674297    0.531874
     12          1           0        3.059934    2.097276    0.074034
     13          1           0        2.665401    1.195400    1.542795
     14          1           0        2.450964    0.117722   -1.316727
     15          1           0        3.158598   -1.982039   -0.081308
     16          1           0       -0.182835   -0.935389   -0.895100
     17          1           0       -1.632524    1.621450   -0.685635
     18          1           0       -2.130501    0.431938   -1.916264
     19          1           0       -2.909470   -0.381309    1.915099
 ---------------------------------------------------------------------
                    Distance matrix (angstroms):
                    1          2          3          4          5
     1  C    0.000000
     2  C    1.525454   0.000000
     3  S    2.824337   1.874775   0.000000
     4  C    2.547667   1.556441   2.847321   0.000000
     5  O    2.812407   2.434400   3.923991   1.220531   0.000000
     6  N    3.775704   2.486113   3.076205   1.356417   2.242997
     7  C    4.960924   3.836827   4.423390   2.432200   2.731041
     8  C    5.802174   4.731916   4.826490   3.478963   3.805921
     9  O    6.976833   5.831062   5.775435   4.614905   4.961148
    10  O    5.420104   4.611170   4.596592   3.492478   3.704277
    11  H    1.095669   2.171971   3.007394   3.504643   3.884559
    12  H    1.091057   2.154292   3.791853   2.742048   2.605290
    13  H    1.091571   2.163406   3.031201   2.826435   2.930304
    14  H    2.154145   1.095345   2.415470   2.135052   2.983885
    15  H    3.142106   2.463614   1.349573   3.801892   4.847064
    16  H    4.047203   2.603210   2.585050   2.043409   3.132957
    17  H    4.831897   3.980390   4.909986   2.430017   2.199424
    18  H    5.733242   4.509633   5.104184   3.195774   3.510192
    19  H    6.269008   5.482139   5.247760   4.446417   4.668614
                    6          7          8          9         10
     6  N    0.000000
     7  C    1.439762   0.000000
     8  C    2.470264   1.526841   0.000000
     9  O    3.475590   2.427484   1.216285   0.000000
    10  O    2.895617   2.388384   1.355893   2.267105   0.000000
    11  H    4.627832   5.909368   6.725700   7.871926   6.344330
    12  H    4.073875   5.100946   6.115896   7.297214   5.817431
    13  H    4.007625   5.051499   5.657469   6.855013   5.033004
    14  H    2.838591   4.191894   5.275989   6.286932   5.391002
    15  H    4.129582   5.542688   6.078740   6.982749   5.934813
    16  H    1.012202   2.124488   2.751308   3.584799   3.196854
    17  H    2.026878   1.095977   2.162537   3.099874   2.646583
    18  H    2.112977   1.094297   2.129747   2.539736   3.295371
    19  H    3.791478   3.218986   1.878406   2.301171   0.978101
                   11         12         13         14         15
    11  H    0.000000
    12  H    1.781072   0.000000
    13  H    1.775107   1.768134   0.000000
    14  H    2.493008   2.494733   3.063371   0.000000
    15  H    2.861554   4.083464   3.602371   2.536928   0.000000
    16  H    4.728742   4.544429   4.312313   2.867702   3.594846
    17  H    5.867227   4.777308   4.859998   4.397084   6.025379
    18  H    6.631964   5.803038   5.962268   4.631199   6.096632
    19  H    7.152641   6.720617   5.805498   6.279171   6.585547
                   16         17         18         19
    16  H    0.000000
    17  H    2.946675   0.000000
    18  H    2.589548   1.782517   0.000000
    19  H    3.954587   3.522138   3.993433   0.000000
 Stoichiometry    C5H9NO3S
 Framework group  C1[X(C5H9NO3S)]
 Deg. of freedom    51
 Full point group                 C1      NOp   1
 RotChk:  IX=3 Diff= 4.34D-02
 Largest Abelian subgroup         C1      NOp   1
 Largest concise Abelian subgroup C1      NOp   1
                         Standard orientation:                         
 ---------------------------------------------------------------------
 Center     Atomic      Atomic             Coordinates (Angstroms)
 Number     Number       Type             X           Y           Z
 ---------------------------------------------------------------------
      1          6           0       -3.013612   -0.881249    0.622471
      2          6           0       -2.032833   -0.199642   -0.326473
      3         16           0       -1.941597    1.649164   -0.029198
      4          6           0       -0.627017   -0.865128   -0.268884
      5          8           0       -0.455515   -1.974660    0.209887
      6          7           0        0.403452   -0.177437   -0.821227
      7          6           0        1.750896   -0.678895   -0.744750
      8          6           0        2.662101    0.205718    0.102840
      9          8           0        3.738386    0.631735   -0.270616
     10          8           0        2.220890    0.302706    1.381266
     11          1           0       -4.018116   -0.456806    0.516127
     12          1           0       -3.053303   -1.949857    0.405895
     13          1           0       -2.691989   -0.754757    1.657887
     14          1           0       -2.380242   -0.319462   -1.358331
     15          1           0       -3.099606    2.000665   -0.626533
     16          1           0        0.252028    0.786482   -1.090457
     17          1           0        1.664867   -1.672467   -0.290239
     18          1           0        2.213003   -0.778501   -1.731675
     19          1           0        2.887442    0.837061    1.857558
 ---------------------------------------------------------------------
 Rotational constants (GHZ):           1.9101118           0.5970124           0.5190069
 Leave Link  202 at Fri Mar 14 15:14:23 2025, MaxMem=  8589934592 cpu:               0.1 elap:               0.2
 (Enter /home/enzo/gaussian_versions/gdv.j21/gdv/l301.exe)
 Standard basis: 6-31G(d) (6D, 7F)
 Ernie: Thresh=  0.10000D-02 Tol=  0.10000D-05 Strict=F.
 There are   172 symmetry adapted cartesian basis functions of A   symmetry.
 There are   172 symmetry adapted basis functions of A   symmetry.
   172 basis functions,   340 primitive gaussians,   172 cartesian basis functions
    43 alpha electrons       43 beta electrons
       nuclear repulsion energy       621.4990972539 Hartrees.
 IExCor=      4002 DFT=T Ex+Corr=B3LYP ScaHFX=  0.200000
 ScaDFX=  0.800000  0.720000  1.000000  0.810000  1.000000  0.000000
 ScaDFX=  0.000000  0.000000  0.000000  0.000000  0.000000  0.000000
 IRadAn=      5 IRanWt=     -1 IRanGd=            0 ICorTp=0 IEmpDi=  4
 NAtoms=   19 NActive=   19 NUniq=   19 SFac= 1.00D+00 NAtFMM=   60 NAOKFM=F Big=F
 Integral buffers will be    131072 words long.
 Raffenetti 2 integral format.
 Two-electron integral symmetry is turned on.
 Leave Link  301 at Fri Mar 14 15:14:23 2025, MaxMem=  8589934592 cpu:               0.5 elap:               0.3
 (Enter /home/enzo/gaussian_versions/gdv.j21/gdv/l302.exe)
 NPDir=0 NMtPBC=     1 NCelOv=     1 NCel=       1 NClECP=     1 NCelD=      1
         NCelK=      1 NCelE2=     1 NClLst=     1 CellRange=     0.0.
 One-electron integrals computed using PRISM.
 One-electron integral symmetry used in STVInt
 NBasis=   172 RedAO= T EigKep=  3.01D-03  NBF=   172
 NBsUse=   172 1.00D-06 EigRej= -1.00D+00 NBFU=   172
 Precomputing XC quadrature grid using
 IXCGrd= 4 IRadAn=           5 IRanWt=          -1 IRanGd=           0 AccXCQ= 0.00D+00.
 Generated NRdTot=       0 NPtTot=      407951 NUsed=           0 NTot=          64
 NSgBfM=   172   172   172   172   172 MxSgAt=    19 MxSgA2=    19 SizInc=   0.000
 NMBTot=     3479 MaxBatPerAtom=       85 MaxMicBPerAtom=      201 NBfPt=            51032932.
 Leave Link  302 at Fri Mar 14 15:14:24 2025, MaxMem=  8589934592 cpu:               4.0 elap:               0.8
 (Enter /home/enzo/gaussian_versions/gdv.j21/gdv/l303.exe)
 DipDrv:  MaxL=1.
 Leave Link  303 at Fri Mar 14 15:14:24 2025, MaxMem=  8589934592 cpu:               0.3 elap:               0.2
 (Enter /home/enzo/gaussian_versions/gdv.j21/gdv/l401.exe)
 Initial guess from the checkpoint file:  "/local/home/enzo/scratch/Gau-2337652.chk"
 B after Tr=     0.000000   -0.000000    0.000000
         Rot=    0.999916   -0.008655   -0.001684   -0.009532 Ang=  -1.49 deg.
 AO Guess basis will be translated and rotated to current coordinates.
 JPrj=2 DoOrth=T DoCkMO=T.
 Generating alternative initial guess.
 ExpMin= 1.17D-01 ExpMax= 2.19D+04 ExpMxC= 3.30D+03 IAcc=3 IRadAn=         5 AccDes= 0.00D+00
 Harris functional with IExCor= 4002 and IRadAn=       5 diagonalized for initial guess.
 HarFok:  IExCor=    4002 AccDes= 0.00D+00 IRadAn=         5 IDoV= 1 UseB2=F ITyADJ=14 ICtDFT=  3500011
 FoFCou: FMM=F IPFlag=           0 FMFlag=      100000 FMFlg1=           0
         NFxFlg=           0 DoJE=T BraDBF=F KetDBF=T FulRan=T
         wScrn=  0.000000 ICntrl=       500 IOpCl=  0 I1Cent=   200000004 NGrid=           0
         NMat0=    1 NMatS0=      1 NMatT0=    0 NMatD0=    1 NMtDS0=    0 NMtDT0=    0
 Petite list used in FoFCou.
 Harris En= -874.544503974616    
 Leave Link  401 at Fri Mar 14 15:14:26 2025, MaxMem=  8589934592 cpu:              10.5 elap:               1.6
 (Enter /home/enzo/gaussian_versions/gdv.j21/gdv/l502.exe)
 Integral symmetry usage will be decided dynamically.
 Closed shell SCF:
 Using DIIS extrapolation, IDIIS=  1040.
 NGot=  8589934592 LenX=  8589843591 LenY=  8589813566
 Requested convergence on RMS density matrix=1.00D-08 within 128 cycles.
 Requested convergence on MAX density matrix=1.00D-06.
 Requested convergence on             energy=1.00D-06.
 No special actions if energy rises.
 Fock matrices will be formed incrementally for  20 cycles.
 Integral accuracy reduced to 1.0D-05 until final iterations.

 Cycle   1  Pass 0  IDiag  1:
 FoFJK:  IHMeth= 1 ICntrl=       0 DoSepK=F KAlg= 0 I1Cent=           0 FoldK=F
 IRaf= 900000000 NMat=       1 IRICut=       1 DoRegI=T DoRafI=F ISym2E= 0 IDoP0=0 IntGTp=1.
 FoFCou: FMM=F IPFlag=           0 FMFlag=      100000 FMFlg1=           0
         NFxFlg=           0 DoJE=F BraDBF=F KetDBF=F FulRan=T
         wScrn=  0.000000 ICntrl=         0 IOpCl=  0 I1Cent=           0 NGrid=           0
         NMat0=    1 NMatS0=      1 NMatT0=    0 NMatD0=    1 NMtDS0=    0 NMtDT0=    0
 Symmetry not used in FoFCou.
 E= -874.569560941883    
 DIIS: error= 4.09D-03 at cycle   1 NSaved=   1.
 NSaved= 1 IEnMin= 1 EnMin= -874.569560941883     IErMin= 1 ErrMin= 4.09D-03
 ErrMax= 4.09D-03  0.00D+00 EMaxC= 1.00D-01 BMatC= 5.22D-03 BMatP= 5.22D-03
 IDIUse=3 WtCom= 9.59D-01 WtEn= 4.09D-02
 Coeff-Com:  0.100D+01
 Coeff-En:   0.100D+01
 Coeff:      0.100D+01
 Gap=     1.625 Goal=   None    Shift=    0.000
 GapD=    1.625 DampG=2.000 DampE=1.000 DampFc=2.0000 IDamp=-1.
 RMSDP=8.51D-04 MaxDP=2.22D-02              OVMax= 2.55D-02

 Cycle   2  Pass 0  IDiag  1:
 RMSU=  8.51D-04    CP:  9.99D-01
 E= -874.578993336821     Delta-E=       -0.009432394938 Rises=F Damp=F
 DIIS: error= 4.84D-04 at cycle   2 NSaved=   2.
 NSaved= 2 IEnMin= 2 EnMin= -874.578993336821     IErMin= 2 ErrMin= 4.84D-04
 ErrMax= 4.84D-04  0.00D+00 EMaxC= 1.00D-01 BMatC= 1.69D-04 BMatP= 5.22D-03
 IDIUse=3 WtCom= 9.95D-01 WtEn= 4.84D-03
 Coeff-Com: -0.306D-01 0.103D+01
 Coeff-En:   0.000D+00 0.100D+01
 Coeff:     -0.304D-01 0.103D+01
 Gap=     0.242 Goal=   None    Shift=    0.000
 RMSDP=1.55D-04 MaxDP=4.44D-03 DE=-9.43D-03 OVMax= 6.59D-03

 Cycle   3  Pass 0  IDiag  1:
 RMSU=  1.47D-04    CP:  9.99D-01  1.06D+00
 E= -874.578970066394     Delta-E=        0.000023270427 Rises=F Damp=F
 DIIS: error= 9.61D-04 at cycle   3 NSaved=   3.
 NSaved= 3 IEnMin= 2 EnMin= -874.578993336821     IErMin= 2 ErrMin= 4.84D-04
 ErrMax= 9.61D-04  0.00D+00 EMaxC= 1.00D-01 BMatC= 2.82D-04 BMatP= 1.69D-04
 IDIUse=3 WtCom= 2.44D-01 WtEn= 7.56D-01
 Coeff-Com: -0.442D-01 0.610D+00 0.435D+00
 Coeff-En:   0.000D+00 0.534D+00 0.466D+00
 Coeff:     -0.108D-01 0.553D+00 0.458D+00
 Gap=     0.242 Goal=   None    Shift=    0.000
 RMSDP=1.11D-04 MaxDP=3.93D-03 DE= 2.33D-05 OVMax= 5.58D-03

 Cycle   4  Pass 0  IDiag  1:
 RMSU=  5.97D-05    CP:  1.00D+00  1.07D+00  3.73D-01
 E= -874.579164365923     Delta-E=       -0.000194299530 Rises=F Damp=F
 DIIS: error= 4.47D-04 at cycle   4 NSaved=   4.
 NSaved= 4 IEnMin= 4 EnMin= -874.579164365923     IErMin= 4 ErrMin= 4.47D-04
 ErrMax= 4.47D-04  0.00D+00 EMaxC= 1.00D-01 BMatC= 4.59D-05 BMatP= 1.69D-04
 IDIUse=3 WtCom= 9.96D-01 WtEn= 4.47D-03
 Coeff-Com: -0.209D-01 0.227D+00 0.309D+00 0.485D+00
 Coeff-En:   0.000D+00 0.000D+00 0.148D+00 0.852D+00
 Coeff:     -0.208D-01 0.226D+00 0.309D+00 0.486D+00
 Gap=     0.242 Goal=   None    Shift=    0.000
 RMSDP=4.12D-05 MaxDP=1.30D-03 DE=-1.94D-04 OVMax= 2.14D-03

 Cycle   5  Pass 0  IDiag  1:
 RMSU=  2.32D-05    CP:  9.99D-01  1.07D+00  5.16D-01  5.58D-01
 E= -874.579199027154     Delta-E=       -0.000034661231 Rises=F Damp=F
 DIIS: error= 9.86D-05 at cycle   5 NSaved=   5.
 NSaved= 5 IEnMin= 5 EnMin= -874.579199027154     IErMin= 5 ErrMin= 9.86D-05
 ErrMax= 9.86D-05  0.00D+00 EMaxC= 1.00D-01 BMatC= 3.59D-06 BMatP= 4.59D-05
 IDIUse=1 WtCom= 1.00D+00 WtEn= 0.00D+00
 Coeff-Com: -0.640D-02 0.536D-01 0.131D+00 0.303D+00 0.519D+00
 Coeff:     -0.640D-02 0.536D-01 0.131D+00 0.303D+00 0.519D+00
 Gap=     0.242 Goal=   None    Shift=    0.000
 RMSDP=1.15D-05 MaxDP=3.22D-04 DE=-3.47D-05 OVMax= 4.01D-04

 Cycle   6  Pass 0  IDiag  1:
 RMSU=  6.07D-06    CP:  9.99D-01  1.08D+00  5.28D-01  6.58D-01  6.83D-01
 E= -874.579201904040     Delta-E=       -0.000002876886 Rises=F Damp=F
 DIIS: error= 1.93D-05 at cycle   6 NSaved=   6.
 NSaved= 6 IEnMin= 6 EnMin= -874.579201904040     IErMin= 6 ErrMin= 1.93D-05
 ErrMax= 1.93D-05  0.00D+00 EMaxC= 1.00D-01 BMatC= 1.94D-07 BMatP= 3.59D-06
 IDIUse=1 WtCom= 1.00D+00 WtEn= 0.00D+00
 Coeff-Com: -0.701D-03-0.148D-02 0.288D-01 0.938D-01 0.249D+00 0.631D+00
 Coeff:     -0.701D-03-0.148D-02 0.288D-01 0.938D-01 0.249D+00 0.631D+00
 Gap=     0.242 Goal=   None    Shift=    0.000
 RMSDP=3.21D-06 MaxDP=7.97D-05 DE=-2.88D-06 OVMax= 1.19D-04

 Initial convergence to 1.0D-05 achieved.  Increase integral accuracy.
 Cycle   7  Pass 1  IDiag  1:
 E= -874.579197363180     Delta-E=        0.000004540860 Rises=F Damp=F
 DIIS: error= 9.41D-06 at cycle   1 NSaved=   1.
 NSaved= 1 IEnMin= 1 EnMin= -874.579197363180     IErMin= 1 ErrMin= 9.41D-06
 ErrMax= 9.41D-06  0.00D+00 EMaxC= 1.00D-01 BMatC= 4.42D-08 BMatP= 4.42D-08
 IDIUse=1 WtCom= 1.00D+00 WtEn= 0.00D+00
 Coeff-Com:  0.100D+01
 Coeff:      0.100D+01
 Gap=     0.242 Goal=   None    Shift=    0.000
 RMSDP=3.21D-06 MaxDP=7.97D-05 DE= 4.54D-06 OVMax= 8.36D-05

 Cycle   8  Pass 1  IDiag  1:
 RMSU=  4.23D-06    CP:  1.00D+00
 E= -874.579197346710     Delta-E=        0.000000016470 Rises=F Damp=F
 DIIS: error= 1.21D-05 at cycle   2 NSaved=   2.
 NSaved= 2 IEnMin= 1 EnMin= -874.579197363180     IErMin= 1 ErrMin= 9.41D-06
 ErrMax= 1.21D-05  0.00D+00 EMaxC= 1.00D-01 BMatC= 6.22D-08 BMatP= 4.42D-08
 IDIUse=1 WtCom= 1.00D+00 WtEn= 0.00D+00
 Coeff-Com:  0.548D+00 0.452D+00
 Coeff:      0.548D+00 0.452D+00
 Gap=     0.242 Goal=   None    Shift=    0.000
 RMSDP=1.66D-06 MaxDP=4.38D-05 DE= 1.65D-08 OVMax= 5.61D-05

 Cycle   9  Pass 1  IDiag  1:
 RMSU=  1.39D-06    CP:  1.00D+00  7.85D-01
 E= -874.579197402431     Delta-E=       -0.000000055721 Rises=F Damp=F
 DIIS: error= 3.67D-06 at cycle   3 NSaved=   3.
 NSaved= 3 IEnMin= 3 EnMin= -874.579197402431     IErMin= 3 ErrMin= 3.67D-06
 ErrMax= 3.67D-06  0.00D+00 EMaxC= 1.00D-01 BMatC= 3.37D-09 BMatP= 4.42D-08
 IDIUse=1 WtCom= 1.00D+00 WtEn= 0.00D+00
 Coeff-Com:  0.100D+00 0.201D+00 0.699D+00
 Coeff:      0.100D+00 0.201D+00 0.699D+00
 Gap=     0.242 Goal=   None    Shift=    0.000
 RMSDP=3.93D-07 MaxDP=1.31D-05 DE=-5.57D-08 OVMax= 2.63D-05

 Cycle  10  Pass 1  IDiag  1:
 RMSU=  3.30D-07    CP:  1.00D+00  8.16D-01  8.80D-01
 E= -874.579197404144     Delta-E=       -0.000000001713 Rises=F Damp=F
 DIIS: error= 2.39D-06 at cycle   4 NSaved=   4.
 NSaved= 4 IEnMin= 4 EnMin= -874.579197404144     IErMin= 4 ErrMin= 2.39D-06
 ErrMax= 2.39D-06  0.00D+00 EMaxC= 1.00D-01 BMatC= 1.38D-09 BMatP= 3.37D-09
 IDIUse=1 WtCom= 1.00D+00 WtEn= 0.00D+00
 Coeff-Com:  0.215D-02 0.823D-01 0.464D+00 0.451D+00
 Coeff:      0.215D-02 0.823D-01 0.464D+00 0.451D+00
 Gap=     0.242 Goal=   None    Shift=    0.000
 RMSDP=1.90D-07 MaxDP=6.27D-06 DE=-1.71D-09 OVMax= 1.38D-05

 Cycle  11  Pass 1  IDiag  1:
 RMSU=  1.00D-07    CP:  1.00D+00  8.23D-01  8.90D-01  5.23D-01
 E= -874.579197405184     Delta-E=       -0.000000001040 Rises=F Damp=F
 DIIS: error= 6.36D-07 at cycle   5 NSaved=   5.
 NSaved= 5 IEnMin= 5 EnMin= -874.579197405184     IErMin= 5 ErrMin= 6.36D-07
 ErrMax= 6.36D-07  0.00D+00 EMaxC= 1.00D-01 BMatC= 9.65D-11 BMatP= 1.38D-09
 IDIUse=1 WtCom= 1.00D+00 WtEn= 0.00D+00
 Coeff-Com: -0.488D-02 0.406D-01 0.253D+00 0.289D+00 0.421D+00
 Coeff:     -0.488D-02 0.406D-01 0.253D+00 0.289D+00 0.421D+00
 Gap=     0.242 Goal=   None    Shift=    0.000
 RMSDP=5.33D-08 MaxDP=2.29D-06 DE=-1.04D-09 OVMax= 3.03D-06

 Cycle  12  Pass 1  IDiag  1:
 RMSU=  3.93D-08    CP:  1.00D+00  8.25D-01  8.89D-01  5.41D-01  6.51D-01
 E= -874.579197405267     Delta-E=       -0.000000000083 Rises=F Damp=F
 DIIS: error= 6.61D-08 at cycle   6 NSaved=   6.
 NSaved= 6 IEnMin= 6 EnMin= -874.579197405267     IErMin= 6 ErrMin= 6.61D-08
 ErrMax= 6.61D-08  0.00D+00 EMaxC= 1.00D-01 BMatC= 2.03D-12 BMatP= 9.65D-11
 IDIUse=1 WtCom= 1.00D+00 WtEn= 0.00D+00
 Coeff-Com: -0.211D-02 0.276D-02 0.235D-01 0.380D-01 0.139D+00 0.798D+00
 Coeff:     -0.211D-02 0.276D-02 0.235D-01 0.380D-01 0.139D+00 0.798D+00
 Gap=     0.242 Goal=   None    Shift=    0.000
 RMSDP=1.23D-08 MaxDP=2.59D-07 DE=-8.28D-11 OVMax= 7.83D-07

 Cycle  13  Pass 1  IDiag  1:
 RMSU=  8.67D-09    CP:  1.00D+00  8.25D-01  8.89D-01  5.51D-01  7.27D-01
                    CP:  1.04D+00
 E= -874.579197405265     Delta-E=        0.000000000002 Rises=F Damp=F
 DIIS: error= 3.07D-08 at cycle   7 NSaved=   7.
 NSaved= 7 IEnMin= 6 EnMin= -874.579197405267     IErMin= 7 ErrMin= 3.07D-08
 ErrMax= 3.07D-08  0.00D+00 EMaxC= 1.00D-01 BMatC= 2.11D-13 BMatP= 2.03D-12
 IDIUse=1 WtCom= 1.00D+00 WtEn= 0.00D+00
 Coeff-Com: -0.217D-03-0.271D-02-0.151D-01-0.143D-01 0.768D-02 0.263D+00
 Coeff-Com:  0.762D+00
 Coeff:     -0.217D-03-0.271D-02-0.151D-01-0.143D-01 0.768D-02 0.263D+00
 Coeff:      0.762D+00
 Gap=     0.242 Goal=   None    Shift=    0.000
 RMSDP=5.71D-09 MaxDP=1.44D-07 DE= 2.27D-12 OVMax= 3.34D-07

 SCF Done:  E(RB3LYP) =  -874.579197405     A.U. after   13 cycles
            NFock= 13  Conv=0.57D-08     -V/T= 2.0064
 KE= 8.689961004468D+02 PE=-3.302741713910D+03 EE= 9.376673188044D+02
 Leave Link  502 at Fri Mar 14 15:14:35 2025, MaxMem=  8589934592 cpu:              77.9 elap:               9.6
 (Enter /home/enzo/gaussian_versions/gdv.j21/gdv/l701.exe)
 ... and contract with generalized density number  0.
 Compute integral first derivatives.
 Leave Link  701 at Fri Mar 14 15:14:36 2025, MaxMem=  8589934592 cpu:               2.6 elap:               0.5
 (Enter /home/enzo/gaussian_versions/gdv.j21/gdv/l702.exe)
 L702 exits ... SP integral derivatives will be done elsewhere.
 Leave Link  702 at Fri Mar 14 15:14:36 2025, MaxMem=  8589934592 cpu:               0.3 elap:               0.2
 (Enter /home/enzo/gaussian_versions/gdv.j21/gdv/l703.exe)
 Integral derivatives from FoFJK, PRISM(SPDF).
 Compute integral first derivatives, UseDBF=F ICtDFT=           0.
 Calling FoFJK, ICntrl=      2127 FMM=F ISym2X=0 I1Cent= 0 IOpClX= 0 NMat=1 NMatS=1 NMatT=0.
 FoFJK:  IHMeth= 1 ICntrl=    2127 DoSepK=F KAlg= 0 I1Cent=           0 FoldK=F
 IRaf=         0 NMat=       1 IRICut=       1 DoRegI=T DoRafI=F ISym2E= 0 IDoP0=0 IntGTp=1.
 FoFCou: FMM=F IPFlag=           0 FMFlag=      100000 FMFlg1=         800
         NFxFlg=           0 DoJE=F BraDBF=F KetDBF=F FulRan=T
         wScrn=  0.000000 ICntrl=      2127 IOpCl=  0 I1Cent=           0 NGrid=           0
         NMat0=    1 NMatS0=      1 NMatT0=    0 NMatD0=    1 NMtDS0=    0 NMtDT0=    0
 Symmetry not used in FoFCou.
 Leave Link  703 at Fri Mar 14 15:14:38 2025, MaxMem=  8589934592 cpu:              13.9 elap:               1.9
 (Enter /home/enzo/gaussian_versions/gdv.j21/gdv/l716.exe)
 Dipole        =-7.80788447D-01 5.55563067D-01-3.75801404D-01
 ***** Axes restored to original set *****
 -------------------------------------------------------------------
 Center     Atomic                   Forces (Hartrees/Bohr)
 Number     Number              X              Y              Z
 -------------------------------------------------------------------
      1        6          -0.000659179   -0.000244694    0.000988036
      2        6           0.000457494   -0.000217977   -0.002523888
      3       16          -0.005876033    0.001955581    0.001072608
      4        6           0.003224185   -0.001059159    0.006332179
      5        8           0.009466373    0.007667775    0.001723163
      6        7           0.003172556   -0.013629695   -0.002661252
      7        6          -0.003680946   -0.003306451   -0.000479972
      8        6          -0.016139139    0.016325934   -0.001656299
      9        8           0.011452616   -0.001880213    0.003824661
     10        8           0.000164468   -0.008135997   -0.002604839
     11        1          -0.001275481    0.000021534   -0.000600928
     12        1           0.000052884    0.001833164   -0.000540847
     13        1           0.000111890    0.000516572    0.001328301
     14        1          -0.000429191   -0.000445352   -0.001190647
     15        1           0.000356666    0.002960709   -0.001761115
     16        1           0.000626389   -0.000405733   -0.001887060
     17        1          -0.003205061   -0.001289697    0.001155675
     18        1           0.000827093   -0.001681390    0.000159633
     19        1           0.001352415    0.001015089   -0.000677410
 -------------------------------------------------------------------
 Cartesian Forces:  Max     0.016325934 RMS     0.004731434
 Leave Link  716 at Fri Mar 14 15:14:38 2025, MaxMem=  8589934592 cpu:               0.2 elap:               0.3
 (Enter /home/enzo/gaussian_versions/gdv.j21/gdv/l103.exe)

 GradGradGradGradGradGradGradGradGradGradGradGradGradGradGradGradGradGrad
 Berny optimization.
 Using GEDIIS/GDIIS optimizer.
 FormGI is forming the generalized inverse of G from B-inverse, IUseBI=4.
 Internal  Forces:  Max     0.015863418 RMS     0.003878350
 Search for a local minimum.
 Step number  12 out of a maximum of   93
 All quantities printed in internal units (Hartrees-Bohrs-Radians)
 RMS Force = .38784D-02 SwitMx=.10000D-02 MixMth= 1
 Mixed Optimization -- RFO/linear search
 Update second derivatives using D2CorX and points    9   10   12   11
 ITU=  0  1 -1  1  1  1  1  0  0  1  1  0
 Use linear search instead of GDIIS.
     Eigenvalues ---    0.00000   0.00383   0.00464   0.00527   0.00809
     Eigenvalues ---    0.01189   0.01697   0.01927   0.03936   0.04495
     Eigenvalues ---    0.04738   0.05242   0.05621   0.05761   0.05890
     Eigenvalues ---    0.06528   0.07930   0.10066   0.13384   0.15552
     Eigenvalues ---    0.15987   0.15999   0.16033   0.16516   0.17244
     Eigenvalues ---    0.17946   0.21160   0.21652   0.22139   0.22555
     Eigenvalues ---    0.23628   0.24396   0.24978   0.25271   0.29354
     Eigenvalues ---    0.31230   0.32216   0.32575   0.32604   0.32625
     Eigenvalues ---    0.32719   0.33001   0.33748   0.34139   0.37501
     Eigenvalues ---    0.40915   0.44604   0.46260   0.49781   0.78022
     Eigenvalues ---    0.82700
 RFO step:  Lambda=-1.20655735D-03 EMin= 4.56720348D-07
 Quartic linear search produced a step of -0.93314.
 Iteration  1 RMS(Cart)=  0.07585936 RMS(Int)=  0.03380871
 Iteration  2 RMS(Cart)=  0.05400234 RMS(Int)=  0.00270879
 Iteration  3 RMS(Cart)=  0.00400322 RMS(Int)=  0.00031850
 Iteration  4 RMS(Cart)=  0.00001556 RMS(Int)=  0.00031841
 Iteration  5 RMS(Cart)=  0.00000000 RMS(Int)=  0.00031841
 Variable       Old X    -DE/DX   Delta X   Delta X   Delta X     New X
                                 (Linear)    (Quad)   (Total)
    R1        2.88269   0.00075   0.00077   0.00713   0.00790   2.89059
    R2        2.07051  -0.00119  -0.00243  -0.00091  -0.00334   2.06718
    R3        2.06180   0.00190   0.00381   0.00018   0.00399   2.06579
    R4        2.06277   0.00126   0.00354  -0.00061   0.00293   2.06570
    R5        3.54281  -0.00455  -0.01965   0.00547  -0.01419   3.52862
    R6        2.94125  -0.00949  -0.02276  -0.00187  -0.02462   2.91662
    R7        2.06990   0.00100   0.00226  -0.00010   0.00216   2.07207
    R8        2.55032  -0.00008  -0.00155   0.00079  -0.00076   2.54956
    R9        2.30647   0.00627   0.00410   0.00120   0.00530   2.31177
   R10        2.56326   0.01322   0.02093  -0.00471   0.01622   2.57947
   R11        2.72076   0.00904   0.02211  -0.00910   0.01301   2.73377
   R12        1.91279   0.00060   0.00099  -0.00285  -0.00186   1.91093
   R13        2.88531  -0.00211  -0.00824   0.00120  -0.00703   2.87828
   R14        2.07110  -0.00121  -0.00372   0.00593   0.00221   2.07331
   R15        2.06792  -0.00029  -0.00169   0.00006  -0.00163   2.06629
   R16        2.29845  -0.01017  -0.01202   0.00039  -0.01163   2.28682
   R17        2.56227  -0.00363  -0.00739   0.00328  -0.00412   2.55815
   R18        1.84834  -0.00177  -0.00544   0.00169  -0.00374   1.84460
    A1        1.93476  -0.00130  -0.00737  -0.00155  -0.00893   1.92583
    A2        1.91509   0.00025   0.00115  -0.00062   0.00053   1.91562
    A3        1.92715   0.00118   0.00659  -0.00133   0.00527   1.93241
    A4        1.90371   0.00029   0.00142   0.00027   0.00168   1.90539
    A5        1.89368   0.00009  -0.00146   0.00290   0.00144   1.89512
    A6        1.88862  -0.00051  -0.00025   0.00042   0.00018   1.88881
    A7        1.95334   0.00367   0.00844  -0.00453   0.00393   1.95727
    A8        1.94621  -0.00026  -0.00625  -0.00035  -0.00664   1.93957
    A9        1.91051   0.00015   0.01141  -0.00669   0.00473   1.91524
   A10        1.95177  -0.00450  -0.01462   0.00247  -0.01217   1.93960
   A11        1.84698   0.00009   0.00205   0.00740   0.00955   1.85653
   A12        1.84893   0.00079  -0.00056   0.00219   0.00164   1.85057
   A13        1.71621  -0.00877  -0.03861   0.00445  -0.03416   1.68206
   A14        2.12953  -0.00813  -0.02559   0.00578  -0.01978   2.10975
   A15        2.04243  -0.00779  -0.01549   0.00274  -0.01270   2.02972
   A16        2.11048   0.01586   0.03968  -0.00836   0.03138   2.14187
   A17        2.10921   0.00410   0.00646   0.00195   0.00713   2.11634
   A18        2.06857  -0.00204  -0.00773   0.00775  -0.00130   2.06726
   A19        2.07809  -0.00178   0.00216   0.00982   0.01073   2.08882
   A20        1.96733   0.00335  -0.00436   0.03105   0.02669   1.99401
   A21        1.83829   0.00156   0.01135   0.00023   0.01174   1.85003
   A22        1.95952  -0.00180  -0.01251   0.01075  -0.00179   1.95773
   A23        1.91970  -0.00365  -0.00747  -0.01806  -0.02572   1.89398
   A24        1.87693  -0.00053   0.00341  -0.00765  -0.00436   1.87257
   A25        1.90143   0.00096   0.00994  -0.01844  -0.00872   1.89272
   A26        2.16588   0.00259   0.01642  -0.00932   0.00793   2.17382
   A27        1.95051   0.00076  -0.00153   0.00593   0.00523   1.95575
   A28        2.15603  -0.00230  -0.00486   0.00142  -0.00259   2.15344
   A29        1.85090   0.00075   0.00465  -0.00329   0.00136   1.85226
    D1        1.01843   0.00211   0.01121   0.01953   0.03071   1.04914
    D2       -3.06368  -0.00121  -0.00656   0.01901   0.01245  -3.05123
    D3       -1.02356  -0.00031  -0.00394   0.01735   0.01343  -1.01013
    D4        3.12220   0.00181   0.00902   0.01847   0.02747  -3.13352
    D5       -0.95991  -0.00151  -0.00875   0.01795   0.00920  -0.95070
    D6        1.08021  -0.00061  -0.00613   0.01628   0.01018   1.09039
    D7       -1.08071   0.00206   0.01355   0.01779   0.03130  -1.04941
    D8        1.12036  -0.00126  -0.00422   0.01727   0.01304   1.13341
    D9       -3.12270  -0.00035  -0.00160   0.01560   0.01402  -3.10868
   D10       -1.33543  -0.00143  -0.03063  -0.07794  -0.10857  -1.44400
   D11        2.74972  -0.00043  -0.01744  -0.07586  -0.09333   2.65638
   D12        0.74444   0.00083  -0.01071  -0.08393  -0.09461   0.64983
   D13        0.29745   0.00024   0.02657   0.02549   0.05216   0.34961
   D14       -2.88524  -0.00073   0.00006   0.02982   0.02979  -2.85545
   D15        2.49939   0.00141   0.02170   0.02112   0.04292   2.54230
   D16       -0.68330   0.00044  -0.00481   0.02545   0.02054  -0.66275
   D17       -1.77972  -0.00028   0.01659   0.03240   0.04909  -1.73063
   D18        1.32078  -0.00124  -0.00992   0.03674   0.02672   1.34750
   D19        3.07738   0.00074   0.00693   0.03067   0.03732   3.11470
   D20        0.18709  -0.00021   0.00261  -0.05891  -0.05630   0.13078
   D21       -0.10483  -0.00081  -0.02211   0.03530   0.01319  -0.09164
   D22       -2.99512  -0.00176  -0.02644  -0.05428  -0.08043  -3.07555
   D23       -1.99096   0.00031  -0.01497  -0.03548  -0.05070  -2.04166
   D24        0.10234  -0.00127  -0.01928  -0.04005  -0.05938   0.04296
   D25        2.16924  -0.00012  -0.00710  -0.05639  -0.06364   2.10559
   D26        0.89799   0.00124  -0.01199   0.05428   0.04235   0.94034
   D27        2.99129  -0.00034  -0.01629   0.04972   0.03367   3.02496
   D28       -1.22500   0.00081  -0.00411   0.03337   0.02941  -1.19559
   D29       -2.23914   0.00352   0.09290  -0.33374  -0.24114  -2.48028
   D30        1.05504  -0.00364  -0.05363  -0.32017  -0.37377   0.68127
   D31        1.99835   0.00188   0.08633  -0.34153  -0.25515   1.74321
   D32       -0.99065  -0.00528  -0.06020  -0.32796  -0.38778  -1.37843
   D33       -0.07001   0.00308   0.07658  -0.30483  -0.22851  -0.29852
   D34       -3.05902  -0.00408  -0.06995  -0.29127  -0.36114   2.86303
   D35        3.08363   0.00367   0.06533  -0.04712   0.01870   3.10233
   D36        0.09361  -0.00395  -0.08016  -0.03254  -0.11319  -0.01958
         Item               Value     Threshold  Converged?
 Maximum Force            0.015863     0.000450     NO 
 RMS     Force            0.003878     0.000300     NO 
 Maximum Displacement     0.557348     0.001800     NO 
 RMS     Displacement     0.120481     0.001200     NO 
 Predicted change in Energy=-1.022756D-03
 GradGradGradGradGradGradGradGradGradGradGradGradGradGradGradGradGradGrad

 Leave Link  103 at Fri Mar 14 15:14:39 2025, MaxMem=  8589934592 cpu:               0.6 elap:               0.3
 (Enter /home/enzo/gaussian_versions/gdv.j21/gdv/l202.exe)
                          Input orientation:                          
 ---------------------------------------------------------------------
 Center     Atomic      Atomic             Coordinates (Angstroms)
 Number     Number       Type             X           Y           Z
 ---------------------------------------------------------------------
      1          6           0        3.031005    1.132427    0.500686
      2          6           0        2.073067    0.225315   -0.273446
      3         16           0        1.939581   -1.473015    0.491107
      4          6           0        0.683214    0.880189   -0.420296
      5          8           0        0.541346    2.088206   -0.289453
      6          7           0       -0.341367    0.051154   -0.775483
      7          6           0       -1.694250    0.545264   -0.910956
      8          6           0       -2.685825   -0.069839    0.067983
      9          8           0       -3.830730   -0.353714   -0.202253
     10          8           0       -2.145475   -0.243773    1.296931
     11          1           0        4.034999    0.698476    0.518184
     12          1           0        3.073338    2.116137    0.025776
     13          1           0        2.690671    1.264668    1.531025
     14          1           0        2.446978    0.076555   -1.293423
     15          1           0        3.048238   -1.983626   -0.083710
     16          1           0       -0.166160   -0.944218   -0.808679
     17          1           0       -1.642242    1.624785   -0.722113
     18          1           0       -2.091771    0.388892   -1.917498
     19          1           0       -2.858223   -0.604445    1.857925
 ---------------------------------------------------------------------
                    Distance matrix (angstroms):
                    1          2          3          4          5
     1  C    0.000000
     2  C    1.529634   0.000000
     3  S    2.824824   1.867267   0.000000
     4  C    2.534553   1.543410   2.818986   0.000000
     5  O    2.781408   2.411802   3.904694   1.223337   0.000000
     6  N    3.764393   2.472218   3.021600   1.364999   2.272662
     7  C    4.966441   3.834249   4.386795   2.450563   2.786545
     8  C    5.857885   4.780245   4.852043   3.534315   3.898660
     9  O    7.055930   5.932551   5.918622   4.684629   5.008556
    10  O    5.415153   4.525729   4.341437   3.494801   3.895350
    11  H    1.093903   2.167888   3.017761   3.485431   3.845677
    12  H    1.093168   2.159927   3.792618   2.727498   2.551692
    13  H    1.093120   2.172051   3.023322   2.825838   2.934612
    14  H    2.162124   1.096491   2.417265   2.125804   2.947224
    15  H    3.170426   2.422061   1.349169   3.729351   4.786089
    16  H    4.030974   2.582328   2.530458   2.049569   3.156859
    17  H    4.855604   3.995415   4.888531   2.460338   2.273766
    18  H    5.713431   4.480574   5.051721   3.191164   3.531503
    19  H    6.288229   5.435887   5.063747   4.464997   4.839285
                    6          7          8          9         10
     6  N    0.000000
     7  C    1.446649   0.000000
     8  C    2.494506   1.523120   0.000000
     9  O    3.559237   2.423834   1.210133   0.000000
    10  O    2.763456   2.387666   1.353715   2.258257   0.000000
    11  H    4.609249   5.906794   6.779562   7.968427   6.300201
    12  H    4.070182   5.106370   6.160213   7.336098   5.866943
    13  H    3.998231   5.070340   5.729581   6.939171   5.071341
    14  H    2.836155   4.185182   5.312299   6.386346   5.282345
    15  H    4.013514   5.437905   6.046905   7.070422   5.648709
    16  H    1.011219   2.136371   2.807452   3.761054   2.973534
    17  H    2.042411   1.097148   2.141277   2.995696   2.796657
    18  H    2.117116   1.093435   2.122609   2.552941   3.276538
    19  H    3.701245   3.216110   1.876011   2.291936   0.976119
                   11         12         13         14         15
    11  H    0.000000
    12  H    1.782420   0.000000
    13  H    1.775848   1.771216   0.000000
    14  H    2.488075   2.508487   3.073842   0.000000
    15  H    2.920556   4.101302   3.645084   2.463588   0.000000
    16  H    4.701993   4.533920   4.302891   2.847006   3.455184
    17  H    5.884510   4.799736   4.896984   4.409664   5.952209
    18  H    6.600432   5.782564   5.960792   4.592088   5.950740
    19  H    7.142060   6.778035   5.864356   6.208053   6.368545
                   16         17         18         19
    16  H    0.000000
    17  H    2.964134   0.000000
    18  H    2.591262   1.777204   0.000000
    19  H    3.804396   3.620038   3.978440   0.000000
 Stoichiometry    C5H9NO3S
 Framework group  C1[X(C5H9NO3S)]
 Deg. of freedom    51
 Full point group                 C1      NOp   1
 RotChk:  IX=3 Diff= 1.45D-01
 Largest Abelian subgroup         C1      NOp   1
 Largest concise Abelian subgroup C1      NOp   1
                         Standard orientation:                         
 ---------------------------------------------------------------------
 Center     Atomic      Atomic             Coordinates (Angstroms)
 Number     Number       Type             X           Y           Z
 ---------------------------------------------------------------------
      1          6           0       -3.038001   -0.831051    0.660476
      2          6           0       -2.037484   -0.215762   -0.319404
      3         16           0       -1.906367    1.636325   -0.121245
      4          6           0       -0.653498   -0.887818   -0.196774
      5          8           0       -0.535580   -1.994089    0.311961
      6          7           0        0.396589   -0.215321   -0.752011
      7          6           0        1.745723   -0.731060   -0.670508
      8          6           0        2.709186    0.157303    0.105664
      9          8           0        3.867767    0.338521   -0.193122
     10          8           0        2.125674    0.709929    1.195005
     11          1           0       -4.035029   -0.410522    0.500120
     12          1           0       -3.077783   -1.913993    0.516703
     13          1           0       -2.738865   -0.634132    1.693265
     14          1           0       -2.370302   -0.393643   -1.348910
     15          1           0       -2.984440    1.943981   -0.871820
     16          1           0        0.238351    0.719818   -1.102781
     17          1           0        1.669751   -1.696538   -0.154937
     18          1           0        2.183308   -0.899823   -1.658253
     19          1           0        2.822319    1.226347    1.643118
 ---------------------------------------------------------------------
 Rotational constants (GHZ):           1.9642201           0.5967302           0.5120102
 Leave Link  202 at Fri Mar 14 15:14:39 2025, MaxMem=  8589934592 cpu:               0.3 elap:               0.2
 (Enter /home/enzo/gaussian_versions/gdv.j21/gdv/l301.exe)
 Standard basis: 6-31G(d) (6D, 7F)
 Ernie: Thresh=  0.10000D-02 Tol=  0.10000D-05 Strict=F.
 There are   172 symmetry adapted cartesian basis functions of A   symmetry.
 There are   172 symmetry adapted basis functions of A   symmetry.
   172 basis functions,   340 primitive gaussians,   172 cartesian basis functions
    43 alpha electrons       43 beta electrons
       nuclear repulsion energy       622.2972740650 Hartrees.
 IExCor=      4002 DFT=T Ex+Corr=B3LYP ScaHFX=  0.200000
 ScaDFX=  0.800000  0.720000  1.000000  0.810000  1.000000  0.000000
 ScaDFX=  0.000000  0.000000  0.000000  0.000000  0.000000  0.000000
 IRadAn=      5 IRanWt=     -1 IRanGd=            0 ICorTp=0 IEmpDi=  4
 NAtoms=   19 NActive=   19 NUniq=   19 SFac= 1.00D+00 NAtFMM=   60 NAOKFM=F Big=F
 Integral buffers will be    131072 words long.
 Raffenetti 2 integral format.
 Two-electron integral symmetry is turned on.
 Leave Link  301 at Fri Mar 14 15:14:39 2025, MaxMem=  8589934592 cpu:               0.5 elap:               0.2
 (Enter /home/enzo/gaussian_versions/gdv.j21/gdv/l302.exe)
 NPDir=0 NMtPBC=     1 NCelOv=     1 NCel=       1 NClECP=     1 NCelD=      1
         NCelK=      1 NCelE2=     1 NClLst=     1 CellRange=     0.0.
 One-electron integrals computed using PRISM.
 One-electron integral symmetry used in STVInt
 NBasis=   172 RedAO= T EigKep=  2.86D-03  NBF=   172
 NBsUse=   172 1.00D-06 EigRej= -1.00D+00 NBFU=   172
 Precomputing XC quadrature grid using
 IXCGrd= 4 IRadAn=           5 IRanWt=          -1 IRanGd=           0 AccXCQ= 0.00D+00.
 Generated NRdTot=       0 NPtTot=      407980 NUsed=           0 NTot=          64
 NSgBfM=   172   172   172   172   172 MxSgAt=    19 MxSgA2=    19 SizInc=   0.000
 NMBTot=     3488 MaxBatPerAtom=       85 MaxMicBPerAtom=      207 NBfPt=            51046538.
 Leave Link  302 at Fri Mar 14 15:14:40 2025, MaxMem=  8589934592 cpu:               4.8 elap:               0.8
 (Enter /home/enzo/gaussian_versions/gdv.j21/gdv/l303.exe)
 DipDrv:  MaxL=1.
 Leave Link  303 at Fri Mar 14 15:14:40 2025, MaxMem=  8589934592 cpu:               0.2 elap:               0.2
 (Enter /home/enzo/gaussian_versions/gdv.j21/gdv/l401.exe)
 Lowest energy guess from the checkpoint file:  "/local/home/enzo/scratch/Gau-2337652.chk"
 B after Tr=     0.000000   -0.000000    0.000000
         Rot=    0.999252    0.038437    0.001638   -0.003927 Ang=   4.43 deg.
 AO Guess basis will be translated and rotated to current coordinates.
 B after Tr=    -0.000000   -0.000000    0.000000
         Rot=    0.998868    0.047119    0.003583    0.005518 Ang=   5.45 deg.
 AO Guess basis will be translated and rotated to current coordinates.
 CkInt1:  FT= 6.69D-02
 Max alpha theta=  3.177 degrees.
 JPrj=2 DoOrth=T DoCkMO=T.
 Leave Link  401 at Fri Mar 14 15:14:41 2025, MaxMem=  8589934592 cpu:               5.5 elap:               1.0
 (Enter /home/enzo/gaussian_versions/gdv.j21/gdv/l502.exe)
 Integral symmetry usage will be decided dynamically.
 Closed shell SCF:
 Using DIIS extrapolation, IDIIS=  1040.
 NGot=  8589934592 LenX=  8589843591 LenY=  8589813566
 Requested convergence on RMS density matrix=1.00D-08 within 128 cycles.
 Requested convergence on MAX density matrix=1.00D-06.
 Requested convergence on             energy=1.00D-06.
 No special actions if energy rises.
 Fock matrices will be formed incrementally for  20 cycles.
 Integral accuracy reduced to 1.0D-05 until final iterations.

 Cycle   1  Pass 0  IDiag  1:
 FoFJK:  IHMeth= 1 ICntrl=       0 DoSepK=F KAlg= 0 I1Cent=           0 FoldK=F
 IRaf= 900000000 NMat=       1 IRICut=       1 DoRegI=T DoRafI=F ISym2E= 0 IDoP0=0 IntGTp=1.
 FoFCou: FMM=F IPFlag=           0 FMFlag=      100000 FMFlg1=           0
         NFxFlg=           0 DoJE=F BraDBF=F KetDBF=F FulRan=T
         wScrn=  0.000000 ICntrl=         0 IOpCl=  0 I1Cent=           0 NGrid=           0
         NMat0=    1 NMatS0=      1 NMatT0=    0 NMatD0=    1 NMtDS0=    0 NMtDT0=    0
 Symmetry not used in FoFCou.
 E= -874.494080457405    
 DIIS: error= 1.81D-02 at cycle   1 NSaved=   1.
 NSaved= 1 IEnMin= 1 EnMin= -874.494080457405     IErMin= 1 ErrMin= 1.81D-02
 ErrMax= 1.81D-02  0.00D+00 EMaxC= 1.00D-01 BMatC= 4.64D-02 BMatP= 4.64D-02
 IDIUse=3 WtCom= 8.19D-01 WtEn= 1.81D-01
 Coeff-Com:  0.100D+01
 Coeff-En:   0.100D+01
 Coeff:      0.100D+01
 Gap=    87.618 Goal=   None    Shift=    0.000
 GapD=   87.618 DampG=2.000 DampE=0.500 DampFc=1.0000 IDamp=-1.
 RMSDP=2.13D-03 MaxDP=6.13D-02              OVMax= 9.06D-02

 Cycle   2  Pass 0  IDiag  1:
 RMSU=  2.12D-03    CP:  9.96D-01
 E= -874.580477448125     Delta-E=       -0.086396990720 Rises=F Damp=F
 DIIS: error= 2.41D-03 at cycle   2 NSaved=   2.
 NSaved= 2 IEnMin= 2 EnMin= -874.580477448125     IErMin= 2 ErrMin= 2.41D-03
 ErrMax= 2.41D-03  0.00D+00 EMaxC= 1.00D-01 BMatC= 2.01D-03 BMatP= 4.64D-02
 IDIUse=3 WtCom= 9.76D-01 WtEn= 2.41D-02
 Coeff-Com: -0.150D-01 0.101D+01
 Coeff-En:   0.000D+00 0.100D+01
 Coeff:     -0.146D-01 0.101D+01
 Gap=     0.250 Goal=   None    Shift=    0.000
 RMSDP=4.21D-04 MaxDP=1.42D-02 DE=-8.64D-02 OVMax= 1.84D-02

 Cycle   3  Pass 0  IDiag  1:
 RMSU=  4.05D-04    CP:  9.95D-01  1.05D+00
 E= -874.579780195387     Delta-E=        0.000697252738 Rises=F Damp=F
 DIIS: error= 4.12D-03 at cycle   3 NSaved=   3.
 NSaved= 3 IEnMin= 2 EnMin= -874.580477448125     IErMin= 2 ErrMin= 2.41D-03
 ErrMax= 4.12D-03  0.00D+00 EMaxC= 1.00D-01 BMatC= 3.82D-03 BMatP= 2.01D-03
 IDIUse=3 WtCom= 1.35D-01 WtEn= 8.65D-01
 Coeff-Com: -0.519D-01 0.621D+00 0.430D+00
 Coeff-En:   0.000D+00 0.582D+00 0.418D+00
 Coeff:     -0.699D-02 0.587D+00 0.420D+00
 Gap=     0.248 Goal=   None    Shift=    0.000
 RMSDP=2.79D-04 MaxDP=1.12D-02 DE= 6.97D-04 OVMax= 1.18D-02

 Cycle   4  Pass 0  IDiag  1:
 RMSU=  1.16D-04    CP:  9.96D-01  1.08D+00  3.85D-01
 E= -874.582465110895     Delta-E=       -0.002684915508 Rises=F Damp=F
 DIIS: error= 7.28D-04 at cycle   4 NSaved=   4.
 NSaved= 4 IEnMin= 4 EnMin= -874.582465110895     IErMin= 4 ErrMin= 7.28D-04
 ErrMax= 7.28D-04  0.00D+00 EMaxC= 1.00D-01 BMatC= 1.66D-04 BMatP= 2.01D-03
 IDIUse=3 WtCom= 9.93D-01 WtEn= 7.28D-03
 Coeff-Com: -0.197D-01 0.192D+00 0.225D+00 0.602D+00
 Coeff-En:   0.000D+00 0.000D+00 0.000D+00 0.100D+01
 Coeff:     -0.195D-01 0.191D+00 0.224D+00 0.605D+00
 Gap=     0.248 Goal=   None    Shift=    0.000
 RMSDP=8.65D-05 MaxDP=3.66D-03 DE=-2.68D-03 OVMax= 6.06D-03

 Cycle   5  Pass 0  IDiag  1:
 RMSU=  5.86D-05    CP:  9.95D-01  1.08D+00  4.95D-01  6.28D-01
 E= -874.582557550801     Delta-E=       -0.000092439906 Rises=F Damp=F
 DIIS: error= 5.07D-04 at cycle   5 NSaved=   5.
 NSaved= 5 IEnMin= 5 EnMin= -874.582557550801     IErMin= 5 ErrMin= 5.07D-04
 ErrMax= 5.07D-04  0.00D+00 EMaxC= 1.00D-01 BMatC= 5.47D-05 BMatP= 1.66D-04
 IDIUse=3 WtCom= 9.95D-01 WtEn= 5.07D-03
 Coeff-Com: -0.616D-02 0.452D-01 0.992D-01 0.434D+00 0.428D+00
 Coeff-En:   0.000D+00 0.000D+00 0.000D+00 0.234D+00 0.766D+00
 Coeff:     -0.613D-02 0.450D-01 0.987D-01 0.433D+00 0.429D+00
 Gap=     0.248 Goal=   None    Shift=    0.000
 RMSDP=3.48D-05 MaxDP=1.25D-03 DE=-9.24D-05 OVMax= 2.58D-03

 Cycle   6  Pass 0  IDiag  1:
 RMSU=  1.32D-05    CP:  9.96D-01  1.08D+00  4.92D-01  7.93D-01  5.63D-01
 E= -874.582598841365     Delta-E=       -0.000041290564 Rises=F Damp=F
 DIIS: error= 4.89D-05 at cycle   6 NSaved=   6.
 NSaved= 6 IEnMin= 6 EnMin= -874.582598841365     IErMin= 6 ErrMin= 4.89D-05
 ErrMax= 4.89D-05  0.00D+00 EMaxC= 1.00D-01 BMatC= 7.86D-07 BMatP= 5.47D-05
 IDIUse=1 WtCom= 1.00D+00 WtEn= 0.00D+00
 Coeff-Com:  0.555D-04-0.900D-02 0.969D-02 0.904D-01 0.146D+00 0.762D+00
 Coeff:      0.555D-04-0.900D-02 0.969D-02 0.904D-01 0.146D+00 0.762D+00
 Gap=     0.248 Goal=   None    Shift=    0.000
 RMSDP=6.07D-06 MaxDP=1.31D-04 DE=-4.13D-05 OVMax= 2.82D-04

 Initial convergence to 1.0D-05 achieved.  Increase integral accuracy.
 Cycle   7  Pass 1  IDiag  1:
 E= -874.582588262507     Delta-E=        0.000010578859 Rises=F Damp=F
 DIIS: error= 2.38D-05 at cycle   1 NSaved=   1.
 NSaved= 1 IEnMin= 1 EnMin= -874.582588262507     IErMin= 1 ErrMin= 2.38D-05
 ErrMax= 2.38D-05  0.00D+00 EMaxC= 1.00D-01 BMatC= 2.35D-07 BMatP= 2.35D-07
 IDIUse=1 WtCom= 1.00D+00 WtEn= 0.00D+00
 Coeff-Com:  0.100D+01
 Coeff:      0.100D+01
 Gap=     0.248 Goal=   None    Shift=    0.000
 RMSDP=6.07D-06 MaxDP=1.31D-04 DE= 1.06D-05 OVMax= 2.19D-04

 Cycle   8  Pass 1  IDiag  1:
 RMSU=  7.60D-06    CP:  1.00D+00
 E= -874.582587922657     Delta-E=        0.000000339849 Rises=F Damp=F
 DIIS: error= 5.08D-05 at cycle   2 NSaved=   2.
 NSaved= 2 IEnMin= 1 EnMin= -874.582588262507     IErMin= 1 ErrMin= 2.38D-05
 ErrMax= 5.08D-05  0.00D+00 EMaxC= 1.00D-01 BMatC= 6.86D-07 BMatP= 2.35D-07
 IDIUse=1 WtCom= 1.00D+00 WtEn= 0.00D+00
 Coeff-Com:  0.637D+00 0.363D+00
 Coeff:      0.637D+00 0.363D+00
 Gap=     0.248 Goal=   None    Shift=    0.000
 RMSDP=4.47D-06 MaxDP=1.74D-04 DE= 3.40D-07 OVMax= 2.04D-04

 Cycle   9  Pass 1  IDiag  1:
 RMSU=  2.91D-06    CP:  1.00D+00  5.55D-01
 E= -874.582588445295     Delta-E=       -0.000000522637 Rises=F Damp=F
 DIIS: error= 1.00D-05 at cycle   3 NSaved=   3.
 NSaved= 3 IEnMin= 3 EnMin= -874.582588445295     IErMin= 3 ErrMin= 1.00D-05
 ErrMax= 1.00D-05  0.00D+00 EMaxC= 1.00D-01 BMatC= 2.49D-08 BMatP= 2.35D-07
 IDIUse=1 WtCom= 1.00D+00 WtEn= 0.00D+00
 Coeff-Com:  0.296D+00 0.212D+00 0.492D+00
 Coeff:      0.296D+00 0.212D+00 0.492D+00
 Gap=     0.248 Goal=   None    Shift=    0.000
 RMSDP=1.12D-06 MaxDP=3.50D-05 DE=-5.23D-07 OVMax= 5.77D-05

 Cycle  10  Pass 1  IDiag  1:
 RMSU=  8.34D-07    CP:  1.00D+00  5.94D-01  7.69D-01
 E= -874.582588464644     Delta-E=       -0.000000019350 Rises=F Damp=F
 DIIS: error= 2.44D-06 at cycle   4 NSaved=   4.
 NSaved= 4 IEnMin= 4 EnMin= -874.582588464644     IErMin= 4 ErrMin= 2.44D-06
 ErrMax= 2.44D-06  0.00D+00 EMaxC= 1.00D-01 BMatC= 1.67D-09 BMatP= 2.49D-08
 IDIUse=1 WtCom= 1.00D+00 WtEn= 0.00D+00
 Coeff-Com:  0.264D-01 0.348D-01 0.231D+00 0.708D+00
 Coeff:      0.264D-01 0.348D-01 0.231D+00 0.708D+00
 Gap=     0.248 Goal=   None    Shift=    0.000
 RMSDP=3.19D-07 MaxDP=8.82D-06 DE=-1.93D-08 OVMax= 1.69D-05

 Cycle  11  Pass 1  IDiag  1:
 RMSU=  1.89D-07    CP:  1.00D+00  5.99D-01  8.19D-01  7.53D-01
 E= -874.582588465943     Delta-E=       -0.000000001298 Rises=F Damp=F
 DIIS: error= 8.40D-07 at cycle   5 NSaved=   5.
 NSaved= 5 IEnMin= 5 EnMin= -874.582588465943     IErMin= 5 ErrMin= 8.40D-07
 ErrMax= 8.40D-07  0.00D+00 EMaxC= 1.00D-01 BMatC= 3.59D-10 BMatP= 1.67D-09
 IDIUse=1 WtCom= 1.00D+00 WtEn= 0.00D+00
 Coeff-Com: -0.476D-02 0.662D-02 0.108D+00 0.436D+00 0.455D+00
 Coeff:     -0.476D-02 0.662D-02 0.108D+00 0.436D+00 0.455D+00
 Gap=     0.248 Goal=   None    Shift=    0.000
 RMSDP=1.06D-07 MaxDP=3.43D-06 DE=-1.30D-09 OVMax= 4.21D-06

 Cycle  12  Pass 1  IDiag  1:
 RMSU=  6.15D-08    CP:  1.00D+00  5.99D-01  8.17D-01  7.94D-01  5.80D-01
 E= -874.582588466253     Delta-E=       -0.000000000310 Rises=F Damp=F
 DIIS: error= 2.32D-07 at cycle   6 NSaved=   6.
 NSaved= 6 IEnMin= 6 EnMin= -874.582588466253     IErMin= 6 ErrMin= 2.32D-07
 ErrMax= 2.32D-07  0.00D+00 EMaxC= 1.00D-01 BMatC= 1.74D-11 BMatP= 3.59D-10
 IDIUse=1 WtCom= 1.00D+00 WtEn= 0.00D+00
 Coeff-Com: -0.516D-02 0.156D-03 0.356D-01 0.165D+00 0.234D+00 0.570D+00
 Coeff:     -0.516D-02 0.156D-03 0.356D-01 0.165D+00 0.234D+00 0.570D+00
 Gap=     0.248 Goal=   None    Shift=    0.000
 RMSDP=3.12D-08 MaxDP=1.54D-06 DE=-3.10D-10 OVMax= 2.10D-06

 Cycle  13  Pass 1  IDiag  1:
 RMSU=  2.92D-08    CP:  1.00D+00  5.99D-01  8.18D-01  7.94D-01  6.08D-01
                    CP:  8.64D-01
 E= -874.582588466262     Delta-E=       -0.000000000009 Rises=F Damp=F
 DIIS: error= 1.43D-07 at cycle   7 NSaved=   7.
 NSaved= 7 IEnMin= 7 EnMin= -874.582588466262     IErMin= 7 ErrMin= 1.43D-07
 ErrMax= 1.43D-07  0.00D+00 EMaxC= 1.00D-01 BMatC= 5.46D-12 BMatP= 1.74D-11
 IDIUse=1 WtCom= 1.00D+00 WtEn= 0.00D+00
 Coeff-Com: -0.257D-02-0.117D-02 0.303D-02 0.271D-01 0.693D-01 0.380D+00
 Coeff-Com:  0.524D+00
 Coeff:     -0.257D-02-0.117D-02 0.303D-02 0.271D-01 0.693D-01 0.380D+00
 Coeff:      0.524D+00
 Gap=     0.248 Goal=   None    Shift=    0.000
 RMSDP=1.38D-08 MaxDP=6.14D-07 DE=-9.32D-12 OVMax= 9.56D-07

 Cycle  14  Pass 1  IDiag  1:
 RMSU=  9.04D-09    CP:  1.00D+00  5.99D-01  8.19D-01  7.95D-01  6.31D-01
                    CP:  9.54D-01  7.39D-01
 E= -874.582588466259     Delta-E=        0.000000000003 Rises=F Damp=F
 DIIS: error= 3.31D-08 at cycle   8 NSaved=   8.
 NSaved= 8 IEnMin= 7 EnMin= -874.582588466262     IErMin= 8 ErrMin= 3.31D-08
 ErrMax= 3.31D-08  0.00D+00 EMaxC= 1.00D-01 BMatC= 4.39D-13 BMatP= 5.46D-12
 IDIUse=1 WtCom= 1.00D+00 WtEn= 0.00D+00
 Coeff-Com: -0.370D-03-0.603D-03-0.488D-02-0.161D-01-0.772D-02 0.878D-01
 Coeff-Com:  0.267D+00 0.675D+00
 Coeff:     -0.370D-03-0.603D-03-0.488D-02-0.161D-01-0.772D-02 0.878D-01
 Coeff:      0.267D+00 0.675D+00
 Gap=     0.248 Goal=   None    Shift=    0.000
 RMSDP=4.62D-09 MaxDP=1.22D-07 DE= 3.18D-12 OVMax= 2.75D-07

 SCF Done:  E(RB3LYP) =  -874.582588466     A.U. after   14 cycles
            NFock= 14  Conv=0.46D-08     -V/T= 2.0064
 KE= 8.690008590034D+02 PE=-3.304385605854D+03 EE= 9.385048843197D+02
 Leave Link  502 at Fri Mar 14 15:14:51 2025, MaxMem=  8589934592 cpu:              80.7 elap:               9.8
 (Enter /home/enzo/gaussian_versions/gdv.j21/gdv/l701.exe)
 ... and contract with generalized density number  0.
 Compute integral first derivatives.
 Leave Link  701 at Fri Mar 14 15:14:51 2025, MaxMem=  8589934592 cpu:               2.4 elap:               0.5
 (Enter /home/enzo/gaussian_versions/gdv.j21/gdv/l702.exe)
 L702 exits ... SP integral derivatives will be done elsewhere.
 Leave Link  702 at Fri Mar 14 15:14:52 2025, MaxMem=  8589934592 cpu:               0.3 elap:               0.3
 (Enter /home/enzo/gaussian_versions/gdv.j21/gdv/l703.exe)
 Integral derivatives from FoFJK, PRISM(SPDF).
 Compute integral first derivatives, UseDBF=F ICtDFT=           0.
 Calling FoFJK, ICntrl=      2127 FMM=F ISym2X=0 I1Cent= 0 IOpClX= 0 NMat=1 NMatS=1 NMatT=0.
 FoFJK:  IHMeth= 1 ICntrl=    2127 DoSepK=F KAlg= 0 I1Cent=           0 FoldK=F
 IRaf=         0 NMat=       1 IRICut=       1 DoRegI=T DoRafI=F ISym2E= 0 IDoP0=0 IntGTp=1.
 FoFCou: FMM=F IPFlag=           0 FMFlag=      100000 FMFlg1=         800
         NFxFlg=           0 DoJE=F BraDBF=F KetDBF=F FulRan=T
         wScrn=  0.000000 ICntrl=      2127 IOpCl=  0 I1Cent=           0 NGrid=           0
         NMat0=    1 NMatS0=      1 NMatT0=    0 NMatD0=    1 NMtDS0=    0 NMtDT0=    0
 Symmetry not used in FoFCou.
 Leave Link  703 at Fri Mar 14 15:14:54 2025, MaxMem=  8589934592 cpu:              15.1 elap:               2.0
 (Enter /home/enzo/gaussian_versions/gdv.j21/gdv/l716.exe)
 Dipole        =-7.47341991D-01 6.73215065D-01-5.00405348D-01
 ***** Axes restored to original set *****
 -------------------------------------------------------------------
 Center     Atomic                   Forces (Hartrees/Bohr)
 Number     Number              X              Y              Z
 -------------------------------------------------------------------
      1        6          -0.000631819   -0.000503037   -0.000827997
      2        6           0.001095973    0.000928095    0.000954720
      3       16          -0.000739984    0.000078729   -0.000792300
      4        6          -0.000421782   -0.000118300    0.000191345
      5        8           0.001098343    0.000964624    0.000842574
      6        7          -0.000475432    0.000254869   -0.000505793
      7        6          -0.000246327   -0.000100316    0.000233908
      8        6           0.000951622   -0.000666609    0.001102608
      9        8           0.000701727    0.001310273    0.000080864
     10        8          -0.000959550   -0.000021621   -0.000510963
     11        1           0.000059030   -0.000040842    0.000078229
     12        1          -0.000048651    0.000147297   -0.000046365
     13        1           0.000026586    0.000041000    0.000118577
     14        1          -0.000136218   -0.000644493   -0.000031200
     15        1           0.000363264    0.000369172    0.000111098
     16        1          -0.000249326   -0.000668275    0.000278042
     17        1          -0.000641707   -0.000663232   -0.000575380
     18        1           0.000035244   -0.000427077   -0.000513927
     19        1           0.000219008   -0.000240259   -0.000188039
 -------------------------------------------------------------------
 Cartesian Forces:  Max     0.001310273 RMS     0.000567105
 Leave Link  716 at Fri Mar 14 15:14:54 2025, MaxMem=  8589934592 cpu:               0.3 elap:               0.3
 (Enter /home/enzo/gaussian_versions/gdv.j21/gdv/l103.exe)

 GradGradGradGradGradGradGradGradGradGradGradGradGradGradGradGradGradGrad
 Berny optimization.
 Using GEDIIS/GDIIS optimizer.
 FormGI is forming the generalized inverse of G from B-inverse, IUseBI=4.
 GSVD:  received Info=                   1 from GESDD.
 Internal  Forces:  Max     0.001902605 RMS     0.000520464
 Search for a local minimum.
 Step number  13 out of a maximum of   93
 All quantities printed in internal units (Hartrees-Bohrs-Radians)
 RMS Force = .52046D-03 SwitMx=.10000D-02 MixMth= 2
 Mixed Optimization -- En-DIIS/RFO-DIIS
 Update second derivatives using D2CorX and points   11   13
 DE= -9.48D-04 DEPred=-1.02D-03 R= 9.27D-01
 TightC=F SS=  1.41D+00  RLast= 8.20D-01 DXNew= 1.8583D+00 2.4613D+00
 Trust test= 9.27D-01 RLast= 8.20D-01 DXMaxT set to 1.86D+00
 ITU=  1  0  1 -1  1  1  1  1  0  0  1  1  0
 Use linear search instead of GDIIS.
     Eigenvalues ---    0.00000   0.00185   0.00453   0.00529   0.00806
     Eigenvalues ---    0.01163   0.01781   0.01960   0.03941   0.04370
     Eigenvalues ---    0.04853   0.05102   0.05640   0.05744   0.05903
     Eigenvalues ---    0.06447   0.07948   0.10257   0.13523   0.15646
     Eigenvalues ---    0.15991   0.15999   0.16032   0.16505   0.17204
     Eigenvalues ---    0.17771   0.21060   0.21608   0.22096   0.22269
     Eigenvalues ---    0.23700   0.24256   0.25113   0.25256   0.29503
     Eigenvalues ---    0.31402   0.32270   0.32573   0.32620   0.32627
     Eigenvalues ---    0.32724   0.33073   0.33856   0.35494   0.37555
     Eigenvalues ---    0.41070   0.45818   0.46596   0.49988   0.77987
     Eigenvalues ---    0.83726
 RFO step:  Lambda=-3.33645526D-04 EMin= 2.23810850D-06
 Quartic linear search produced a step of  0.43990.
 Iteration  1 RMS(Cart)=  0.07458080 RMS(Int)=  0.02415019
 Iteration  2 RMS(Cart)=  0.03180549 RMS(Int)=  0.00119657
 Iteration  3 RMS(Cart)=  0.00128937 RMS(Int)=  0.00013570
 Iteration  4 RMS(Cart)=  0.00000178 RMS(Int)=  0.00013569
 Iteration  5 RMS(Cart)=  0.00000000 RMS(Int)=  0.00013569
 Variable       Old X    -DE/DX   Delta X   Delta X   Delta X     New X
                                 (Linear)    (Quad)   (Total)
    R1        2.89059  -0.00093   0.00311   0.00003   0.00314   2.89373
    R2        2.06718   0.00007  -0.00032  -0.00029  -0.00061   2.06657
    R3        2.06579   0.00015  -0.00004  -0.00055  -0.00059   2.06520
    R4        2.06570   0.00011  -0.00038   0.00034  -0.00004   2.06566
    R5        3.52862  -0.00066   0.00302  -0.00132   0.00171   3.53033
    R6        2.91662  -0.00021  -0.00010  -0.00180  -0.00191   2.91472
    R7        2.07207   0.00007  -0.00011   0.00062   0.00051   2.07257
    R8        2.54956   0.00011   0.00040  -0.00133  -0.00094   2.54862
    R9        2.31177   0.00092   0.00040   0.00137   0.00177   2.31354
   R10        2.57947   0.00140  -0.00273   0.00260  -0.00013   2.57935
   R11        2.73377  -0.00030  -0.00470  -0.00198  -0.00668   2.72709
   R12        1.91093   0.00061  -0.00129   0.00145   0.00017   1.91109
   R13        2.87828  -0.00044   0.00079  -0.00296  -0.00217   2.87611
   R14        2.07331  -0.00078   0.00273  -0.00061   0.00212   2.07543
   R15        2.06629   0.00052   0.00008   0.00111   0.00119   2.06749
   R16        2.28682  -0.00099   0.00055  -0.00111  -0.00056   2.28626
   R17        2.55815  -0.00090   0.00168  -0.00150   0.00017   2.55832
   R18        1.84460  -0.00018   0.00092  -0.00074   0.00017   1.84477
    A1        1.92583   0.00004  -0.00045  -0.00010  -0.00055   1.92528
    A2        1.91562  -0.00004  -0.00031  -0.00003  -0.00034   1.91528
    A3        1.93241   0.00008  -0.00079   0.00066  -0.00013   1.93228
    A4        1.90539   0.00003   0.00007   0.00102   0.00109   1.90648
    A5        1.89512  -0.00008   0.00132  -0.00162  -0.00030   1.89482
    A6        1.88881  -0.00004   0.00020   0.00007   0.00027   1.88908
    A7        1.95727   0.00075  -0.00225   0.00109  -0.00117   1.95609
    A8        1.93957  -0.00026   0.00003  -0.00019  -0.00018   1.93940
    A9        1.91524   0.00008  -0.00330  -0.00055  -0.00386   1.91138
   A10        1.93960  -0.00033   0.00154   0.00661   0.00815   1.94775
   A11        1.85653  -0.00050   0.00323  -0.00169   0.00153   1.85806
   A12        1.85057   0.00024   0.00099  -0.00583  -0.00486   1.84571
   A13        1.68206  -0.00084   0.00318  -0.00400  -0.00083   1.68123
   A14        2.10975  -0.00121   0.00336  -0.00768  -0.00432   2.10543
   A15        2.02972  -0.00069   0.00171   0.00080   0.00251   2.03224
   A16        2.14187   0.00190  -0.00490   0.00661   0.00170   2.14357
   A17        2.11634   0.00096   0.00009   0.00004  -0.00040   2.11593
   A18        2.06726  -0.00027   0.00307  -0.00267  -0.00013   2.06713
   A19        2.08882  -0.00071   0.00370  -0.00076   0.00240   2.09122
   A20        1.99401   0.00010   0.01380   0.00820   0.02182   2.01583
   A21        1.85003   0.00027  -0.00019  -0.00127  -0.00128   1.84875
   A22        1.95773  -0.00014   0.00511   0.00444   0.00934   1.96707
   A23        1.89398  -0.00033  -0.00779  -0.00611  -0.01397   1.88001
   A24        1.87257   0.00017  -0.00353   0.00056  -0.00346   1.86911
   A25        1.89272  -0.00009  -0.00852  -0.00705  -0.01572   1.87700
   A26        2.17382  -0.00113  -0.00425  -0.00407  -0.00848   2.16534
   A27        1.95575   0.00123   0.00302   0.00375   0.00661   1.96236
   A28        2.15344  -0.00010   0.00115   0.00001   0.00100   2.15444
   A29        1.85226  -0.00000  -0.00159  -0.00244  -0.00403   1.84823
    D1        1.04914  -0.00003   0.00823   0.00019   0.00842   1.05757
    D2       -3.05123  -0.00010   0.00857   0.00959   0.01816  -3.03307
    D3       -1.01013   0.00008   0.00777   0.00198   0.00975  -1.00038
    D4       -3.13352   0.00001   0.00783   0.00137   0.00921  -3.12431
    D5       -0.95070  -0.00007   0.00818   0.01078   0.01895  -0.93175
    D6        1.09039   0.00011   0.00737   0.00317   0.01053   1.10093
    D7       -1.04941  -0.00001   0.00738   0.00186   0.00925  -1.04016
    D8        1.13341  -0.00008   0.00773   0.01126   0.01898   1.15239
    D9       -3.10868   0.00010   0.00692   0.00365   0.01057  -3.09811
   D10       -1.44400   0.00026  -0.03332  -0.01866  -0.05197  -1.49598
   D11        2.65638   0.00029  -0.03284  -0.02432  -0.05715   2.59924
   D12        0.64983   0.00046  -0.03657  -0.01980  -0.05638   0.59345
   D13        0.34961  -0.00019   0.01042   0.05514   0.06555   0.41516
   D14       -2.85545  -0.00005   0.01307   0.05077   0.06385  -2.79160
   D15        2.54230   0.00034   0.00865   0.06140   0.07005   2.61235
   D16       -0.66275   0.00048   0.01131   0.05703   0.06835  -0.59440
   D17       -1.73063  -0.00028   0.01377   0.05943   0.07318  -1.65745
   D18        1.34750  -0.00014   0.01643   0.05505   0.07148   1.41898
   D19        3.11470   0.00029   0.01315   0.00826   0.02142   3.13611
   D20        0.13078   0.00048  -0.02600   0.03298   0.00700   0.13778
   D21       -0.09164   0.00031   0.01623   0.00322   0.01944  -0.07220
   D22       -3.07555   0.00049  -0.02292   0.02795   0.00502  -3.07053
   D23       -2.04166   0.00041  -0.01524  -0.00076  -0.01592  -2.05757
   D24        0.04296   0.00024  -0.01703  -0.00444  -0.02143   0.02153
   D25        2.10559   0.00021  -0.02465  -0.01133  -0.03618   2.06942
   D26        0.94034   0.00026   0.02428  -0.02596  -0.00154   0.93881
   D27        3.02496   0.00009   0.02249  -0.02963  -0.00705   3.01791
   D28       -1.19559   0.00007   0.01488  -0.03652  -0.02180  -1.21739
   D29       -2.48028  -0.00045  -0.14987  -0.15627  -0.30618  -2.78646
   D30        0.68127  -0.00022  -0.13914  -0.13919  -0.27843   0.40284
   D31        1.74321  -0.00062  -0.15294  -0.15554  -0.30827   1.43493
   D32       -1.37843  -0.00039  -0.14221  -0.13845  -0.28052  -1.65896
   D33       -0.29852  -0.00043  -0.13662  -0.14438  -0.28107  -0.57958
   D34        2.86303  -0.00020  -0.12589  -0.12729  -0.25332   2.60971
   D35        3.10233   0.00017  -0.02257  -0.00262  -0.02529   3.07704
   D36       -0.01958   0.00041  -0.01200   0.01429   0.00238  -0.01720
         Item               Value     Threshold  Converged?
 Maximum Force            0.001903     0.000450     NO 
 RMS     Force            0.000520     0.000300     NO 
 Maximum Displacement     0.637054     0.001800     NO 
 RMS     Displacement     0.100520     0.001200     NO 
 Predicted change in Energy=-4.774618D-04
 Lowest energy point so far.  Saving SCF results.
 GradGradGradGradGradGradGradGradGradGradGradGradGradGradGradGradGradGrad

 Leave Link  103 at Fri Mar 14 15:14:55 2025, MaxMem=  8589934592 cpu:               1.3 elap:               0.4
 (Enter /home/enzo/gaussian_versions/gdv.j21/gdv/l202.exe)
                          Input orientation:                          
 ---------------------------------------------------------------------
 Center     Atomic      Atomic             Coordinates (Angstroms)
 Number     Number       Type             X           Y           Z
 ---------------------------------------------------------------------
      1          6           0        3.022465    1.154104    0.512543
      2          6           0        2.084654    0.232524   -0.272358
      3         16           0        1.970462   -1.468509    0.491521
      4          6           0        0.691823    0.872532   -0.443867
      5          8           0        0.552501    2.087579   -0.388250
      6          7           0       -0.335875    0.022644   -0.734665
      7          6           0       -1.682938    0.509736   -0.910001
      8          6           0       -2.706146   -0.021092    0.083809
      9          8           0       -3.900971   -0.016600   -0.106144
     10          8           0       -2.135338   -0.447603    1.234921
     11          1           0        4.034032    0.739037    0.531806
     12          1           0        3.047200    2.141157    0.044093
     13          1           0        2.675306    1.272758    1.542236
     14          1           0        2.474661    0.091664   -1.287706
     15          1           0        3.053294   -1.982184   -0.126971
     16          1           0       -0.161422   -0.972963   -0.701880
     17          1           0       -1.628250    1.599329   -0.783541
     18          1           0       -2.075938    0.313330   -1.911978
     19          1           0       -2.873129   -0.708002    1.818741
 ---------------------------------------------------------------------
                    Distance matrix (angstroms):
                    1          2          3          4          5
     1  C    0.000000
     2  C    1.531296   0.000000
     3  S    2.825819   1.868171   0.000000
     4  C    2.534934   1.542401   2.826719   0.000000
     5  O    2.789896   2.408765   3.928151   1.224272   0.000000
     6  N    3.756883   2.473203   3.007700   1.364931   2.274461
     7  C    4.957787   3.831211   4.384638   2.447119   2.785498
     8  C    5.863606   4.810710   4.912424   3.552914   3.910002
     9  O    7.048920   5.993112   6.077744   4.690242   4.933616
    10  O    5.448873   4.532415   4.295636   3.543152   4.035630
    11  H    1.093582   2.168712   3.022119   3.484267   3.845273
    12  H    1.092854   2.160906   3.793316   2.719432   2.532452
    13  H    1.093100   2.173409   3.019164   2.835311   2.982785
    14  H    2.160963   1.096759   2.419505   2.121398   2.913313
    15  H    3.200974   2.421639   1.348673   3.718383   4.783848
    16  H    4.017010   2.585062   2.492930   2.049500   3.158317
    17  H    4.848423   3.989375   4.897769   2.454863   2.269431
    18  H    5.707794   4.472740   5.032406   3.182540   3.518295
    19  H    6.319146   5.462315   5.079395   4.508477   4.941763
                    6          7          8          9         10
     6  N    0.000000
     7  C    1.443115   0.000000
     8  C    2.507987   1.521970   0.000000
     9  O    3.620288   2.417206   1.209838   0.000000
    10  O    2.708960   2.392039   1.353806   2.258690   0.000000
    11  H    4.605785   5.900435   6.797683   7.996389   6.321678
    12  H    4.066910   5.093725   6.146372   7.277057   5.914258
    13  H    3.976716   5.058652   5.723729   6.901233   5.118240
    14  H    2.865262   4.195602   5.360460   6.485097   5.282664
    15  H    3.984356   5.408761   6.087812   7.226739   5.579568
    16  H    1.011307   2.134648   2.828248   3.905606   2.814879
    17  H    2.039254   1.098269   2.130709   2.869730   2.919119
    18  H    2.120940   1.094068   2.119474   2.588558   3.238135
    19  H    3.673062   3.216438   1.873424   2.289035   0.976211
                   11         12         13         14         15
    11  H    0.000000
    12  H    1.782594   0.000000
    13  H    1.775378   1.771117   0.000000
    14  H    2.482207   2.510361   3.073079   0.000000
    15  H    2.966628   4.126893   3.677469   2.446012   0.000000
    16  H    4.696250   4.533153   4.257505   2.902681   3.418106
    17  H    5.876366   4.778952   4.902701   4.400126   5.930866
    18  H    6.594319   5.780459   5.952010   4.598565   5.896156
    19  H    7.173493   6.805687   5.897880   6.236051   6.366460
                   16         17         18         19
    16  H    0.000000
    17  H    2.962252   0.000000
    18  H    2.604661   1.768499   0.000000
    19  H    3.711750   3.693964   3.949291   0.000000
 Stoichiometry    C5H9NO3S
 Framework group  C1[X(C5H9NO3S)]
 Deg. of freedom    51
 Full point group                 C1      NOp   1
 RotChk:  IX=3 Diff= 5.33D-02
 Largest Abelian subgroup         C1      NOp   1
 Largest concise Abelian subgroup C1      NOp   1
                         Standard orientation:                         
 ---------------------------------------------------------------------
 Center     Atomic      Atomic             Coordinates (Angstroms)
 Number     Number       Type             X           Y           Z
 ---------------------------------------------------------------------
      1          6           0       -3.005829   -0.864265    0.738983
      2          6           0       -2.046778   -0.254420   -0.287261
      3         16           0       -1.964011    1.606969   -0.151450
      4          6           0       -0.646629   -0.893734   -0.187946
      5          8           0       -0.504403   -2.013626    0.285821
      6          7           0        0.386579   -0.180245   -0.723156
      7          6           0        1.740508   -0.677947   -0.681306
      8          6           0        2.728980    0.176892    0.098801
      9          8           0        3.929326    0.125129   -0.043318
     10          8           0        2.119608    0.964197    1.016192
     11          1           0       -4.019114   -0.482824    0.585110
     12          1           0       -3.011538   -1.952403    0.637730
     13          1           0       -2.691655   -0.617033    1.756352
     14          1           0       -2.404328   -0.476508   -1.300037
     15          1           0       -3.028305    1.860998   -0.939907
     16          1           0        0.207247    0.763404   -1.039557
     17          1           0        1.686045   -1.658572   -0.189776
     18          1           0        2.164900   -0.831699   -1.677918
     19          1           0        2.837122    1.420093    1.496110
 ---------------------------------------------------------------------
 Rotational constants (GHZ):           1.9846208           0.5923863           0.5037046
 Leave Link  202 at Fri Mar 14 15:14:55 2025, MaxMem=  8589934592 cpu:               0.4 elap:               0.2
 (Enter /home/enzo/gaussian_versions/gdv.j21/gdv/l301.exe)
 Standard basis: 6-31G(d) (6D, 7F)
 Ernie: Thresh=  0.10000D-02 Tol=  0.10000D-05 Strict=F.
 There are   172 symmetry adapted cartesian basis functions of A   symmetry.
 There are   172 symmetry adapted basis functions of A   symmetry.
   172 basis functions,   340 primitive gaussians,   172 cartesian basis functions
    43 alpha electrons       43 beta electrons
       nuclear repulsion energy       621.6213710618 Hartrees.
 IExCor=      4002 DFT=T Ex+Corr=B3LYP ScaHFX=  0.200000
 ScaDFX=  0.800000  0.720000  1.000000  0.810000  1.000000  0.000000
 ScaDFX=  0.000000  0.000000  0.000000  0.000000  0.000000  0.000000
 IRadAn=      5 IRanWt=     -1 IRanGd=            0 ICorTp=0 IEmpDi=  4
 NAtoms=   19 NActive=   19 NUniq=   19 SFac= 1.00D+00 NAtFMM=   60 NAOKFM=F Big=F
 Integral buffers will be    131072 words long.
 Raffenetti 2 integral format.
 Two-electron integral symmetry is turned on.
 Leave Link  301 at Fri Mar 14 15:14:55 2025, MaxMem=  8589934592 cpu:               0.4 elap:               0.3
 (Enter /home/enzo/gaussian_versions/gdv.j21/gdv/l302.exe)
 NPDir=0 NMtPBC=     1 NCelOv=     1 NCel=       1 NClECP=     1 NCelD=      1
         NCelK=      1 NCelE2=     1 NClLst=     1 CellRange=     0.0.
 One-electron integrals computed using PRISM.
 One-electron integral symmetry used in STVInt
 NBasis=   172 RedAO= T EigKep=  2.83D-03  NBF=   172
 NBsUse=   172 1.00D-06 EigRej= -1.00D+00 NBFU=   172
 Precomputing XC quadrature grid using
 IXCGrd= 4 IRadAn=           5 IRanWt=          -1 IRanGd=           0 AccXCQ= 0.00D+00.
 Generated NRdTot=       0 NPtTot=      407976 NUsed=           0 NTot=          64
 NSgBfM=   172   172   172   172   172 MxSgAt=    19 MxSgA2=    19 SizInc=   0.000
 NMBTot=     3494 MaxBatPerAtom=       85 MaxMicBPerAtom=      206 NBfPt=            50947574.
 Leave Link  302 at Fri Mar 14 15:14:56 2025, MaxMem=  8589934592 cpu:               2.9 elap:               0.5
 (Enter /home/enzo/gaussian_versions/gdv.j21/gdv/l303.exe)
 DipDrv:  MaxL=1.
 Leave Link  303 at Fri Mar 14 15:14:56 2025, MaxMem=  8589934592 cpu:               0.3 elap:               0.2
 (Enter /home/enzo/gaussian_versions/gdv.j21/gdv/l401.exe)
 Initial guess from the checkpoint file:  "/local/home/enzo/scratch/Gau-2337652.chk"
 B after Tr=    -0.000000    0.000000   -0.000000
         Rot=    0.999855    0.016447   -0.001331   -0.004298 Ang=   1.95 deg.
 AO Guess basis will be translated and rotated to current coordinates.
 JPrj=2 DoOrth=T DoCkMO=T.
 Generating alternative initial guess.
 ExpMin= 1.17D-01 ExpMax= 2.19D+04 ExpMxC= 3.30D+03 IAcc=3 IRadAn=         5 AccDes= 0.00D+00
 Harris functional with IExCor= 4002 and IRadAn=       5 diagonalized for initial guess.
 HarFok:  IExCor=    4002 AccDes= 0.00D+00 IRadAn=         5 IDoV= 1 UseB2=F ITyADJ=14 ICtDFT=  3500011
 FoFCou: FMM=F IPFlag=           0 FMFlag=      100000 FMFlg1=           0
         NFxFlg=           0 DoJE=T BraDBF=F KetDBF=T FulRan=T
         wScrn=  0.000000 ICntrl=       500 IOpCl=  0 I1Cent=   200000004 NGrid=           0
         NMat0=    1 NMatS0=      1 NMatT0=    0 NMatD0=    1 NMtDS0=    0 NMtDT0=    0
 Petite list used in FoFCou.
 Harris En= -874.547316896487    
 Leave Link  401 at Fri Mar 14 15:14:58 2025, MaxMem=  8589934592 cpu:              12.2 elap:               2.0
 (Enter /home/enzo/gaussian_versions/gdv.j21/gdv/l502.exe)
 Integral symmetry usage will be decided dynamically.
 Closed shell SCF:
 Using DIIS extrapolation, IDIIS=  1040.
 NGot=  8589934592 LenX=  8589843591 LenY=  8589813566
 Requested convergence on RMS density matrix=1.00D-08 within 128 cycles.
 Requested convergence on MAX density matrix=1.00D-06.
 Requested convergence on             energy=1.00D-06.
 No special actions if energy rises.
 Fock matrices will be formed incrementally for  20 cycles.
 Integral accuracy reduced to 1.0D-05 until final iterations.

 Cycle   1  Pass 0  IDiag  1:
 FoFJK:  IHMeth= 1 ICntrl=       0 DoSepK=F KAlg= 0 I1Cent=           0 FoldK=F
 IRaf= 900000000 NMat=       1 IRICut=       1 DoRegI=T DoRafI=F ISym2E= 0 IDoP0=0 IntGTp=1.
 FoFCou: FMM=F IPFlag=           0 FMFlag=      100000 FMFlg1=           0
         NFxFlg=           0 DoJE=F BraDBF=F KetDBF=F FulRan=T
         wScrn=  0.000000 ICntrl=         0 IOpCl=  0 I1Cent=           0 NGrid=           0
         NMat0=    1 NMatS0=      1 NMatT0=    0 NMatD0=    1 NMtDS0=    0 NMtDT0=    0
 Symmetry not used in FoFCou.
 E= -874.517927270246    
 DIIS: error= 9.46D-03 at cycle   1 NSaved=   1.
 NSaved= 1 IEnMin= 1 EnMin= -874.517927270246     IErMin= 1 ErrMin= 9.46D-03
 ErrMax= 9.46D-03  0.00D+00 EMaxC= 1.00D-01 BMatC= 3.43D-02 BMatP= 3.43D-02
 IDIUse=3 WtCom= 9.05D-01 WtEn= 9.46D-02
 Coeff-Com:  0.100D+01
 Coeff-En:   0.100D+01
 Coeff:      0.100D+01
 Gap=     1.625 Goal=   None    Shift=    0.000
 GapD=    1.625 DampG=2.000 DampE=1.000 DampFc=2.0000 IDamp=-1.
 RMSDP=1.83D-03 MaxDP=5.97D-02              OVMax= 7.14D-02

 Cycle   2  Pass 0  IDiag  1:
 RMSU=  1.83D-03    CP:  9.97D-01
 E= -874.581602685463     Delta-E=       -0.063675415217 Rises=F Damp=F
 DIIS: error= 1.89D-03 at cycle   2 NSaved=   2.
 NSaved= 2 IEnMin= 2 EnMin= -874.581602685463     IErMin= 2 ErrMin= 1.89D-03
 ErrMax= 1.89D-03  0.00D+00 EMaxC= 1.00D-01 BMatC= 1.16D-03 BMatP= 3.43D-02
 IDIUse=3 WtCom= 9.81D-01 WtEn= 1.89D-02
 Coeff-Com: -0.354D-01 0.104D+01
 Coeff-En:   0.000D+00 0.100D+01
 Coeff:     -0.347D-01 0.103D+01
 Gap=     0.254 Goal=   None    Shift=    0.000
 RMSDP=3.19D-04 MaxDP=1.05D-02 DE=-6.37D-02 OVMax= 1.51D-02

 Cycle   3  Pass 0  IDiag  1:
 RMSU=  2.97D-04    CP:  9.96D-01  1.06D+00
 E= -874.581468729894     Delta-E=        0.000133955569 Rises=F Damp=F
 DIIS: error= 3.52D-03 at cycle   3 NSaved=   3.
 NSaved= 3 IEnMin= 2 EnMin= -874.581602685463     IErMin= 2 ErrMin= 1.89D-03
 ErrMax= 3.52D-03  0.00D+00 EMaxC= 1.00D-01 BMatC= 1.97D-03 BMatP= 1.16D-03
 IDIUse=3 WtCom= 1.44D-01 WtEn= 8.56D-01
 Coeff-Com: -0.508D-01 0.616D+00 0.434D+00
 Coeff-En:   0.000D+00 0.531D+00 0.469D+00
 Coeff:     -0.733D-02 0.544D+00 0.464D+00
 Gap=     0.252 Goal=   None    Shift=    0.000
 RMSDP=2.28D-04 MaxDP=8.71D-03 DE= 1.34D-04 OVMax= 1.04D-02

 Cycle   4  Pass 0  IDiag  1:
 RMSU=  1.07D-04    CP:  9.97D-01  1.08D+00  3.30D-01
 E= -874.582747828365     Delta-E=       -0.001279098472 Rises=F Damp=F
 DIIS: error= 9.11D-04 at cycle   4 NSaved=   4.
 NSaved= 4 IEnMin= 4 EnMin= -874.582747828365     IErMin= 4 ErrMin= 9.11D-04
 ErrMax= 9.11D-04  0.00D+00 EMaxC= 1.00D-01 BMatC= 2.37D-04 BMatP= 1.16D-03
 IDIUse=3 WtCom= 9.91D-01 WtEn= 9.11D-03
 Coeff-Com: -0.181D-01 0.180D+00 0.288D+00 0.551D+00
 Coeff-En:   0.000D+00 0.000D+00 0.107D+00 0.893D+00
 Coeff:     -0.179D-01 0.178D+00 0.286D+00 0.554D+00
 Gap=     0.252 Goal=   None    Shift=    0.000
 RMSDP=8.56D-05 MaxDP=3.78D-03 DE=-1.28D-03 OVMax= 5.71D-03

 Cycle   5  Pass 0  IDiag  1:
 RMSU=  4.60D-05    CP:  9.96D-01  1.08D+00  5.19D-01  5.83D-01
 E= -874.582903550601     Delta-E=       -0.000155722236 Rises=F Damp=F
 DIIS: error= 3.64D-04 at cycle   5 NSaved=   5.
 NSaved= 5 IEnMin= 5 EnMin= -874.582903550601     IErMin= 5 ErrMin= 3.64D-04
 ErrMax= 3.64D-04  0.00D+00 EMaxC= 1.00D-01 BMatC= 3.42D-05 BMatP= 2.37D-04
 IDIUse=3 WtCom= 9.96D-01 WtEn= 3.64D-03
 Coeff-Com: -0.606D-02 0.472D-01 0.149D+00 0.390D+00 0.420D+00
 Coeff-En:   0.000D+00 0.000D+00 0.000D+00 0.696D-01 0.930D+00
 Coeff:     -0.604D-02 0.470D-01 0.148D+00 0.389D+00 0.422D+00
 Gap=     0.252 Goal=   None    Shift=    0.000
 RMSDP=2.80D-05 MaxDP=9.92D-04 DE=-1.56D-04 OVMax= 1.98D-03

 Cycle   6  Pass 0  IDiag  1:
 RMSU=  1.14D-05    CP:  9.96D-01  1.08D+00  5.11D-01  7.17D-01  5.45D-01
 E= -874.582929381965     Delta-E=       -0.000025831363 Rises=F Damp=F
 DIIS: error= 4.86D-05 at cycle   6 NSaved=   6.
 NSaved= 6 IEnMin= 6 EnMin= -874.582929381965     IErMin= 6 ErrMin= 4.86D-05
 ErrMax= 4.86D-05  0.00D+00 EMaxC= 1.00D-01 BMatC= 5.68D-07 BMatP= 3.42D-05
 IDIUse=1 WtCom= 1.00D+00 WtEn= 0.00D+00
 Coeff-Com:  0.162D-03-0.961D-02 0.172D-01 0.735D-01 0.147D+00 0.772D+00
 Coeff:      0.162D-03-0.961D-02 0.172D-01 0.735D-01 0.147D+00 0.772D+00
 Gap=     0.252 Goal=   None    Shift=    0.000
 RMSDP=5.48D-06 MaxDP=1.12D-04 DE=-2.58D-05 OVMax= 2.32D-04

 Initial convergence to 1.0D-05 achieved.  Increase integral accuracy.
 Cycle   7  Pass 1  IDiag  1:
 E= -874.582922572990     Delta-E=        0.000006808975 Rises=F Damp=F
 DIIS: error= 2.55D-05 at cycle   1 NSaved=   1.
 NSaved= 1 IEnMin= 1 EnMin= -874.582922572990     IErMin= 1 ErrMin= 2.55D-05
 ErrMax= 2.55D-05  0.00D+00 EMaxC= 1.00D-01 BMatC= 1.79D-07 BMatP= 1.79D-07
 IDIUse=1 WtCom= 1.00D+00 WtEn= 0.00D+00
 Coeff-Com:  0.100D+01
 Coeff:      0.100D+01
 Gap=     0.252 Goal=   None    Shift=    0.000
 RMSDP=5.48D-06 MaxDP=1.12D-04 DE= 6.81D-06 OVMax= 2.45D-04

 Cycle   8  Pass 1  IDiag  1:
 RMSU=  7.28D-06    CP:  1.00D+00
 E= -874.582922298737     Delta-E=        0.000000274252 Rises=F Damp=F
 DIIS: error= 5.16D-05 at cycle   2 NSaved=   2.
 NSaved= 2 IEnMin= 1 EnMin= -874.582922572990     IErMin= 1 ErrMin= 2.55D-05
 ErrMax= 5.16D-05  0.00D+00 EMaxC= 1.00D-01 BMatC= 5.46D-07 BMatP= 1.79D-07
 IDIUse=1 WtCom= 1.00D+00 WtEn= 0.00D+00
 Coeff-Com:  0.644D+00 0.356D+00
 Coeff:      0.644D+00 0.356D+00
 Gap=     0.252 Goal=   None    Shift=    0.000
 RMSDP=4.13D-06 MaxDP=1.64D-04 DE= 2.74D-07 OVMax= 2.07D-04

 Cycle   9  Pass 1  IDiag  1:
 RMSU=  2.78D-06    CP:  1.00D+00  5.83D-01
 E= -874.582922710592     Delta-E=       -0.000000411855 Rises=F Damp=F
 DIIS: error= 9.12D-06 at cycle   3 NSaved=   3.
 NSaved= 3 IEnMin= 3 EnMin= -874.582922710592     IErMin= 3 ErrMin= 9.12D-06
 ErrMax= 9.12D-06  0.00D+00 EMaxC= 1.00D-01 BMatC= 1.81D-08 BMatP= 1.79D-07
 IDIUse=1 WtCom= 1.00D+00 WtEn= 0.00D+00
 Coeff-Com:  0.274D+00 0.200D+00 0.527D+00
 Coeff:      0.274D+00 0.200D+00 0.527D+00
 Gap=     0.252 Goal=   None    Shift=    0.000
 RMSDP=9.44D-07 MaxDP=2.91D-05 DE=-4.12D-07 OVMax= 4.83D-05

 Cycle  10  Pass 1  IDiag  1:
 RMSU=  7.40D-07    CP:  1.00D+00  6.22D-01  8.17D-01
 E= -874.582922724382     Delta-E=       -0.000000013790 Rises=F Damp=F
 DIIS: error= 2.26D-06 at cycle   4 NSaved=   4.
 NSaved= 4 IEnMin= 4 EnMin= -874.582922724382     IErMin= 4 ErrMin= 2.26D-06
 ErrMax= 2.26D-06  0.00D+00 EMaxC= 1.00D-01 BMatC= 1.43D-09 BMatP= 1.81D-08
 IDIUse=1 WtCom= 1.00D+00 WtEn= 0.00D+00
 Coeff-Com:  0.143D-01 0.300D-01 0.248D+00 0.707D+00
 Coeff:      0.143D-01 0.300D-01 0.248D+00 0.707D+00
 Gap=     0.252 Goal=   None    Shift=    0.000
 RMSDP=2.67D-07 MaxDP=8.15D-06 DE=-1.38D-08 OVMax= 1.41D-05

 Cycle  11  Pass 1  IDiag  1:
 RMSU=  1.51D-07    CP:  1.00D+00  6.25D-01  8.60D-01  7.53D-01
 E= -874.582922725488     Delta-E=       -0.000000001106 Rises=F Damp=F
 DIIS: error= 8.56D-07 at cycle   5 NSaved=   5.
 NSaved= 5 IEnMin= 5 EnMin= -874.582922725488     IErMin= 5 ErrMin= 8.56D-07
 ErrMax= 8.56D-07  0.00D+00 EMaxC= 1.00D-01 BMatC= 2.90D-10 BMatP= 1.43D-09
 IDIUse=1 WtCom= 1.00D+00 WtEn= 0.00D+00
 Coeff-Com: -0.442D-02 0.933D-02 0.132D+00 0.450D+00 0.413D+00
 Coeff:     -0.442D-02 0.933D-02 0.132D+00 0.450D+00 0.413D+00
 Gap=     0.252 Goal=   None    Shift=    0.000
 RMSDP=8.97D-08 MaxDP=2.70D-06 DE=-1.11D-09 OVMax= 4.82D-06

 Cycle  12  Pass 1  IDiag  1:
 RMSU=  5.14D-08    CP:  1.00D+00  6.26D-01  8.58D-01  7.79D-01  5.35D-01
 E= -874.582922725722     Delta-E=       -0.000000000234 Rises=F Damp=F
 DIIS: error= 2.29D-07 at cycle   6 NSaved=   6.
 NSaved= 6 IEnMin= 6 EnMin= -874.582922725722     IErMin= 6 ErrMin= 2.29D-07
 ErrMax= 2.29D-07  0.00D+00 EMaxC= 1.00D-01 BMatC= 1.46D-11 BMatP= 2.90D-10
 IDIUse=1 WtCom= 1.00D+00 WtEn= 0.00D+00
 Coeff-Com: -0.415D-02 0.236D-02 0.520D-01 0.191D+00 0.230D+00 0.528D+00
 Coeff:     -0.415D-02 0.236D-02 0.520D-01 0.191D+00 0.230D+00 0.528D+00
 Gap=     0.252 Goal=   None    Shift=    0.000
 RMSDP=2.48D-08 MaxDP=1.24D-06 DE=-2.34D-10 OVMax= 1.80D-06

 Cycle  13  Pass 1  IDiag  1:
 RMSU=  2.20D-08    CP:  1.00D+00  6.26D-01  8.58D-01  7.78D-01  5.75D-01
                    CP:  8.15D-01
 E= -874.582922725734     Delta-E=       -0.000000000012 Rises=F Damp=F
 DIIS: error= 8.69D-08 at cycle   7 NSaved=   7.
 NSaved= 7 IEnMin= 7 EnMin= -874.582922725734     IErMin= 7 ErrMin= 8.69D-08
 ErrMax= 8.69D-08  0.00D+00 EMaxC= 1.00D-01 BMatC= 2.70D-12 BMatP= 1.46D-11
 IDIUse=1 WtCom= 1.00D+00 WtEn= 0.00D+00
 Coeff-Com: -0.164D-02-0.525D-03 0.448D-02 0.235D-01 0.542D-01 0.320D+00
 Coeff-Com:  0.600D+00
 Coeff:     -0.164D-02-0.525D-03 0.448D-02 0.235D-01 0.542D-01 0.320D+00
 Coeff:      0.600D+00
 Gap=     0.252 Goal=   None    Shift=    0.000
 RMSDP=9.87D-09 MaxDP=4.32D-07 DE=-1.16D-11 OVMax= 5.74D-07

 SCF Done:  E(RB3LYP) =  -874.582922726     A.U. after   13 cycles
            NFock= 13  Conv=0.99D-08     -V/T= 2.0064
 KE= 8.690007859202D+02 PE=-3.303032320164D+03 EE= 9.378272404565D+02
 Leave Link  502 at Fri Mar 14 15:15:08 2025, MaxMem=  8589934592 cpu:              80.6 elap:              10.3
 (Enter /home/enzo/gaussian_versions/gdv.j21/gdv/l701.exe)
 ... and contract with generalized density number  0.
 Compute integral first derivatives.
 Leave Link  701 at Fri Mar 14 15:15:09 2025, MaxMem=  8589934592 cpu:               2.7 elap:               0.6
 (Enter /home/enzo/gaussian_versions/gdv.j21/gdv/l702.exe)
 L702 exits ... SP integral derivatives will be done elsewhere.
 Leave Link  702 at Fri Mar 14 15:15:09 2025, MaxMem=  8589934592 cpu:               0.2 elap:               0.3
 (Enter /home/enzo/gaussian_versions/gdv.j21/gdv/l703.exe)
 Integral derivatives from FoFJK, PRISM(SPDF).
 Compute integral first derivatives, UseDBF=F ICtDFT=           0.
 Calling FoFJK, ICntrl=      2127 FMM=F ISym2X=0 I1Cent= 0 IOpClX= 0 NMat=1 NMatS=1 NMatT=0.
 FoFJK:  IHMeth= 1 ICntrl=    2127 DoSepK=F KAlg= 0 I1Cent=           0 FoldK=F
 IRaf=         0 NMat=       1 IRICut=       1 DoRegI=T DoRafI=F ISym2E= 0 IDoP0=0 IntGTp=1.
 FoFCou: FMM=F IPFlag=           0 FMFlag=      100000 FMFlg1=         800
         NFxFlg=           0 DoJE=F BraDBF=F KetDBF=F FulRan=T
         wScrn=  0.000000 ICntrl=      2127 IOpCl=  0 I1Cent=           0 NGrid=           0
         NMat0=    1 NMatS0=      1 NMatT0=    0 NMatD0=    1 NMtDS0=    0 NMtDT0=    0
 Symmetry not used in FoFCou.
 Leave Link  703 at Fri Mar 14 15:15:11 2025, MaxMem=  8589934592 cpu:              13.6 elap:               1.8
 (Enter /home/enzo/gaussian_versions/gdv.j21/gdv/l716.exe)
 Dipole        =-7.82126131D-01 7.89461252D-01-5.49429329D-01
 ***** Axes restored to original set *****
 -------------------------------------------------------------------
 Center     Atomic                   Forces (Hartrees/Bohr)
 Number     Number              X              Y              Z
 -------------------------------------------------------------------
      1        6          -0.001008761   -0.000870356   -0.001016582
      2        6           0.001615649    0.001096663    0.001245082
      3       16          -0.000227721    0.000457138   -0.000786518
      4        6          -0.001061031   -0.000153243   -0.000066979
      5        8           0.000840375    0.000393882    0.000657625
      6        7          -0.000049626   -0.000514178   -0.001228569
      7        6          -0.001100772    0.001755913    0.000546308
      8        6           0.001359488    0.002092890    0.002870441
      9        8           0.001253557   -0.000468240   -0.000778111
     10        8          -0.001353475   -0.000404067   -0.000469845
     11        1           0.000179786   -0.000100796    0.000191419
     12        1          -0.000107503    0.000164982   -0.000216628
     13        1           0.000028701    0.000011849    0.000303062
     14        1          -0.000258775   -0.000894549    0.000191617
     15        1           0.000424001    0.000150220    0.000089624
     16        1          -0.000210461   -0.000457956    0.000210306
     17        1          -0.001058451   -0.001065269   -0.000583867
     18        1           0.000547652   -0.000672569   -0.001061538
     19        1           0.000187366   -0.000522314   -0.000096848
 -------------------------------------------------------------------
 Cartesian Forces:  Max     0.002870441 RMS     0.000872694
 Leave Link  716 at Fri Mar 14 15:15:11 2025, MaxMem=  8589934592 cpu:               0.3 elap:               0.2
 (Enter /home/enzo/gaussian_versions/gdv.j21/gdv/l103.exe)

 GradGradGradGradGradGradGradGradGradGradGradGradGradGradGradGradGradGrad
 Berny optimization.
 Using GEDIIS/GDIIS optimizer.
 FormGI is forming the generalized inverse of G from B-inverse, IUseBI=4.
 GSVD:  received Info=                   1 from GESDD.
 Internal  Forces:  Max     0.002157556 RMS     0.000612765
 Search for a local minimum.
 Step number  14 out of a maximum of   93
 All quantities printed in internal units (Hartrees-Bohrs-Radians)
 RMS Force = .61276D-03 SwitMx=.10000D-02 MixMth= 2
 Mixed Optimization -- En-DIIS/RFO-DIIS
 Swapping is turned off.
 Update second derivatives using D2CorX and points   13   14
 DE= -3.34D-04 DEPred=-4.77D-04 R= 7.00D-01
 TightC=F SS=  1.41D+00  RLast= 7.30D-01 DXNew= 3.1253D+00 2.1898D+00
 Trust test= 7.00D-01 RLast= 7.30D-01 DXMaxT set to 2.19D+00
 ITU=  1  1  0  1 -1  1  1  1  1  0  0  1  1  0
     Eigenvalues ---    0.00001   0.00105   0.00453   0.00529   0.00800
     Eigenvalues ---    0.01159   0.01605   0.01916   0.03951   0.04791
     Eigenvalues ---    0.04893   0.05068   0.05639   0.05747   0.05862
     Eigenvalues ---    0.06407   0.07901   0.10459   0.13889   0.15610
     Eigenvalues ---    0.15986   0.16005   0.16041   0.16506   0.17240
     Eigenvalues ---    0.17791   0.21113   0.21603   0.21986   0.22158
     Eigenvalues ---    0.23679   0.24271   0.25064   0.25307   0.29340
     Eigenvalues ---    0.31267   0.32340   0.32568   0.32582   0.32626
     Eigenvalues ---    0.32721   0.33023   0.33847   0.34355   0.37364
     Eigenvalues ---    0.40894   0.44808   0.46212   0.49832   0.78020
     Eigenvalues ---    0.82751
 Eigenvalue     1 is   1.15D-05 Eigenvector:
                          D27       D28       D26       D11       D12
   1                    0.35425   0.34709   0.33780   0.32449   0.31353
                          D10       D15       D17       D13       D16
   1                    0.30634  -0.20887  -0.20490  -0.19374  -0.19045
 En-DIIS/RFO-DIIS/Sim-DIIS IScMMF=       -3 using points:    14   13
 RFO step:  Lambda=-6.87397567D-04.
 NNeg= 0 NGDIIS= 2 SimSw=  2.50D-01 Rises=F DC= -3.34D-04 SmlDif=  1.00D-05
 NRisDI= 0 DoIntr=F SqrtH=F CThrHd= 10.0 CDAdj=  3.0
 RMS Error=  0.8452195325D-01 NUsed= 2 OKEnD=T EnDIS=F
 InvSVX:  RCond= 3.18D-02 Info=           0 Equed=N FErr=  7.39D-15 BErr=  9.70D-18
 DidBck=FF Rises=F RFO-DIIS coefs:    1.34608   -0.34608
 Iteration  1 RMS(Cart)=  0.09069288 RMS(Int)=  0.01108724
 Iteration  2 RMS(Cart)=  0.01763834 RMS(Int)=  0.00065741
 Iteration  3 RMS(Cart)=  0.00021381 RMS(Int)=  0.00063760
 Iteration  4 RMS(Cart)=  0.00000014 RMS(Int)=  0.00063760
 Variable       Old X    -DE/DX   Delta X   Delta X   Delta X     New X
                                 (Linear)    (Quad)   (Total)
    R1        2.89373  -0.00141   0.00109  -0.00157  -0.00048   2.89325
    R2        2.06657   0.00021  -0.00021   0.00057   0.00036   2.06693
    R3        2.06520   0.00024  -0.00021   0.00205   0.00184   2.06704
    R4        2.06566   0.00028  -0.00001  -0.00148  -0.00149   2.06416
    R5        3.53033  -0.00085   0.00059   0.00413   0.00472   3.53506
    R6        2.91472   0.00058  -0.00066  -0.00380  -0.00446   2.91025
    R7        2.07257  -0.00015   0.00018   0.00026   0.00043   2.07301
    R8        2.54862   0.00024  -0.00032   0.00355   0.00323   2.55185
    R9        2.31354   0.00033   0.00061  -0.00045   0.00017   2.31370
   R10        2.57935   0.00061  -0.00004   0.00427   0.00423   2.58357
   R11        2.72709   0.00034  -0.00231  -0.00793  -0.01025   2.71685
   R12        1.91109   0.00042   0.00006   0.00003   0.00009   1.91119
   R13        2.87611  -0.00022  -0.00075   0.00494   0.00419   2.88030
   R14        2.07543  -0.00118   0.00073  -0.00491  -0.00418   2.07125
   R15        2.06749   0.00090   0.00041   0.00472   0.00513   2.07262
   R16        2.28626  -0.00112  -0.00019   0.00156   0.00137   2.28763
   R17        2.55832  -0.00068   0.00006  -0.00362  -0.00356   2.55476
   R18        1.84477  -0.00006   0.00006   0.00354   0.00360   1.84838
    A1        1.92528   0.00013  -0.00019   0.00251   0.00231   1.92759
    A2        1.91528  -0.00026  -0.00012  -0.00190  -0.00202   1.91327
    A3        1.93228   0.00013  -0.00004  -0.00033  -0.00038   1.93190
    A4        1.90648   0.00010   0.00038  -0.00561  -0.00523   1.90125
    A5        1.89482  -0.00016  -0.00010   0.00789   0.00778   1.90259
    A6        1.88908   0.00007   0.00009  -0.00267  -0.00258   1.88650
    A7        1.95609   0.00030  -0.00041   0.00988   0.00940   1.96549
    A8        1.93940  -0.00059  -0.00006   0.00464   0.00453   1.94393
    A9        1.91138   0.00034  -0.00133  -0.00321  -0.00464   1.90675
   A10        1.94775   0.00036   0.00282  -0.03299  -0.03011   1.91764
   A11        1.85806  -0.00063   0.00053   0.00390   0.00453   1.86259
   A12        1.84571   0.00021  -0.00168   0.01870   0.01704   1.86275
   A13        1.68123  -0.00039  -0.00029  -0.00262  -0.00291   1.67832
   A14        2.10543  -0.00133  -0.00150   0.01681   0.01528   2.12071
   A15        2.03224   0.00039   0.00087  -0.01471  -0.01387   2.01836
   A16        2.14357   0.00095   0.00059  -0.00114  -0.00059   2.14298
   A17        2.11593   0.00065  -0.00014   0.01726   0.01403   2.12997
   A18        2.06713  -0.00014  -0.00005   0.01773   0.01460   2.08173
   A19        2.09122  -0.00054   0.00083  -0.01748  -0.01973   2.07149
   A20        2.01583  -0.00083   0.00755   0.00046   0.00786   2.02369
   A21        1.84875   0.00129  -0.00044   0.02820   0.02773   1.87648
   A22        1.96707  -0.00087   0.00323  -0.01527  -0.01202   1.95505
   A23        1.88001  -0.00037  -0.00484   0.00071  -0.00442   1.87560
   A24        1.86911   0.00100  -0.00120  -0.00303  -0.00434   1.86477
   A25        1.87700  -0.00020  -0.00544  -0.01116  -0.01658   1.86042
   A26        2.16534  -0.00183  -0.00293  -0.03129  -0.03430   2.13104
   A27        1.96236   0.00216   0.00229   0.02520   0.02741   1.98977
   A28        2.15444  -0.00028   0.00035   0.00717   0.00745   2.16189
   A29        1.84823   0.00034  -0.00140  -0.00054  -0.00194   1.84629
    D1        1.05757  -0.00025   0.00292   0.03091   0.03385   1.09142
    D2       -3.03307   0.00000   0.00629  -0.00158   0.00470  -3.02837
    D3       -1.00038   0.00012   0.00337   0.02206   0.02543  -0.97496
    D4       -3.12431  -0.00021   0.00319   0.02433   0.02754  -3.09677
    D5       -0.93175   0.00004   0.00656  -0.00816  -0.00161  -0.93337
    D6        1.10093   0.00016   0.00365   0.01548   0.01911   1.12004
    D7       -1.04016  -0.00021   0.00320   0.01962   0.02283  -1.01733
    D8        1.15239   0.00004   0.00657  -0.01288  -0.00632   1.14607
    D9       -3.09811   0.00016   0.00366   0.01077   0.01441  -3.08370
   D10       -1.49598   0.00015  -0.01799   0.23060   0.21261  -1.28336
   D11        2.59924   0.00041  -0.01978   0.24248   0.22271   2.82195
   D12        0.59345   0.00034  -0.01951   0.23481   0.21528   0.80873
   D13        0.41516  -0.00018   0.02269  -0.15016  -0.12750   0.28766
   D14       -2.79160   0.00000   0.02210  -0.13427  -0.11214  -2.90374
   D15        2.61235   0.00004   0.02424  -0.15875  -0.13445   2.47791
   D16       -0.59440   0.00023   0.02365  -0.14286  -0.11908  -0.71349
   D17       -1.65745  -0.00040   0.02533  -0.15993  -0.13472  -1.79217
   D18        1.41898  -0.00022   0.02474  -0.14403  -0.11936   1.29963
   D19        3.13611  -0.00004   0.00741   0.07237   0.08067  -3.06640
   D20        0.13778   0.00024   0.00242  -0.06625  -0.06463   0.07315
   D21       -0.07220   0.00005   0.00673   0.08936   0.09689   0.02469
   D22       -3.07053   0.00034   0.00174  -0.04926  -0.04841  -3.11894
   D23       -2.05757   0.00032  -0.00551   0.09946   0.09444  -1.96314
   D24        0.02153   0.00027  -0.00742   0.12051   0.11382   0.13535
   D25        2.06942   0.00036  -0.01252   0.11624   0.10421   2.17362
   D26        0.93881   0.00007  -0.00053   0.24286   0.24168   1.18048
   D27        3.01791   0.00002  -0.00244   0.26391   0.26106  -3.00421
   D28       -1.21739   0.00011  -0.00754   0.25964   0.25145  -0.96594
   D29       -2.78646   0.00110  -0.10596   0.04431  -0.06172  -2.84818
   D30        0.40284  -0.00009  -0.09636   0.01915  -0.07718   0.32565
   D31        1.43493   0.00024  -0.10669   0.00775  -0.09891   1.33603
   D32       -1.65896  -0.00095  -0.09708  -0.01740  -0.11436  -1.77332
   D33       -0.57958   0.00015  -0.09727   0.02186  -0.07550  -0.65509
   D34        2.60971  -0.00104  -0.08767  -0.00330  -0.09096   2.51875
   D35        3.07704   0.00103  -0.00875   0.06063   0.05202   3.12906
   D36       -0.01720  -0.00010   0.00082   0.03688   0.03756   0.02036
         Item               Value     Threshold  Converged?
 Maximum Force            0.002158     0.000450     NO 
 RMS     Force            0.000613     0.000300     NO 
 Maximum Displacement     0.472997     0.001800     NO 
 RMS     Displacement     0.097235     0.001200     NO 
 Predicted change in Energy=-5.324197D-04
 Lowest energy point so far.  Saving SCF results.
 GradGradGradGradGradGradGradGradGradGradGradGradGradGradGradGradGradGrad

 Leave Link  103 at Fri Mar 14 15:15:12 2025, MaxMem=  8589934592 cpu:               1.6 elap:               0.4
 (Enter /home/enzo/gaussian_versions/gdv.j21/gdv/l202.exe)
                          Input orientation:                          
 ---------------------------------------------------------------------
 Center     Atomic      Atomic             Coordinates (Angstroms)
 Number     Number       Type             X           Y           Z
 ---------------------------------------------------------------------
      1          6           0        3.063743    1.142853    0.460264
      2          6           0        2.074487    0.232370   -0.272187
      3         16           0        1.959494   -1.469723    0.495321
      4          6           0        0.674174    0.869089   -0.345893
      5          8           0        0.502563    2.063394   -0.137951
      6          7           0       -0.339141    0.028881   -0.715203
      7          6           0       -1.683434    0.497400   -0.916018
      8          6           0       -2.718345    0.005297    0.088942
      9          8           0       -3.907577    0.072983   -0.126941
     10          8           0       -2.187074   -0.467603    1.238639
     11          1           0        4.075495    0.731084    0.404189
     12          1           0        3.058623    2.135575    0.000981
     13          1           0        2.782217    1.253317    1.509873
     14          1           0        2.411472    0.090086   -1.306391
     15          1           0        3.154662   -1.911409    0.048094
     16          1           0       -0.141415   -0.953158   -0.854294
     17          1           0       -1.663408    1.591757   -0.858391
     18          1           0       -2.062799    0.243137   -1.913196
     19          1           0       -2.947343   -0.735890    1.792470
 ---------------------------------------------------------------------
                    Distance matrix (angstroms):
                    1          2          3          4          5
     1  C    0.000000
     2  C    1.531043   0.000000
     3  S    2.836573   1.870671   0.000000
     4  C    2.536705   1.540039   2.798165   0.000000
     5  O    2.786557   2.416943   3.873835   1.224359   0.000000
     6  N    3.768591   2.462371   2.999150   1.367168   2.276166
     7  C    4.984622   3.821875   4.374057   2.453877   2.799341
     8  C    5.904613   4.811779   4.921687   3.527663   3.829034
     9  O    7.077340   5.985950   6.098334   4.655553   4.838512
    10  O    5.547117   4.575309   4.330218   3.533303   3.941458
    11  H    1.093773   2.170307   3.054393   3.485778   3.851598
    12  H    1.093830   2.159939   3.801398   2.722114   2.560850
    13  H    1.092309   2.172315   3.020122   2.834669   2.927178
    14  H    2.157509   1.096988   2.425583   2.132511   2.983812
    15  H    3.083289   2.421807   1.350380   3.746894   4.781977
    16  H    4.048996   2.579641   2.549925   2.060156   3.166614
    17  H    4.928116   4.020377   4.932607   2.499839   2.330860
    18  H    5.720510   4.450860   4.991360   3.215474   3.611913
    19  H    6.437205   5.515353   5.128173   4.501549   4.844004
                    6          7          8          9         10
     6  N    0.000000
     7  C    1.437693   0.000000
     8  C    2.511537   1.524188   0.000000
     9  O    3.616869   2.397829   1.210562   0.000000
    10  O    2.734749   2.414007   1.351920   2.262118   0.000000
    11  H    4.608160   5.912937   6.839767   8.027742   6.430624
    12  H    4.061512   5.100158   6.157855   7.266264   5.985454
    13  H    4.024063   5.137937   5.816596   6.987539   5.265832
    14  H    2.814093   4.133589   5.316876   6.428202   5.285340
    15  H    4.068661   5.489904   6.177997   7.337825   5.660046
    16  H    1.011356   2.117959   2.906698   3.970640   2.966622
    17  H    2.053478   1.096057   2.127719   2.806775   2.985419
    18  H    2.109998   1.096782   2.120110   2.573493   3.233367
    19  H    3.698110   3.233323   1.871846   2.293570   0.978119
                   11         12         13         14         15
    11  H    0.000000
    12  H    1.780225   0.000000
    13  H    1.779841   1.769614   0.000000
    14  H    2.471019   2.512380   3.069512   0.000000
    15  H    2.820906   4.048398   3.505853   2.528427   0.000000
    16  H    4.711983   4.529019   4.359523   2.794635   3.549180
    17  H    5.938845   4.830304   5.048446   4.365819   6.025587
    18  H    6.579287   5.785702   6.017645   4.517824   5.975837
    19  H    7.307503   6.893937   6.071628   6.245165   6.454391
                   16         17         18         19
    16  H    0.000000
    17  H    2.965312   0.000000
    18  H    2.498821   1.758097   0.000000
    19  H    3.863392   3.754130   3.933558   0.000000
 Stoichiometry    C5H9NO3S
 Framework group  C1[X(C5H9NO3S)]
 Deg. of freedom    51
 Full point group                 C1      NOp   1
 RotChk:  IX=3 Diff= 5.51D-02
 Largest Abelian subgroup         C1      NOp   1
 Largest concise Abelian subgroup C1      NOp   1
                         Standard orientation:                         
 ---------------------------------------------------------------------
 Center     Atomic      Atomic             Coordinates (Angstroms)
 Number     Number       Type             X           Y           Z
 ---------------------------------------------------------------------
      1          6           0       -3.047352   -0.927922    0.628635
      2          6           0       -2.044700   -0.264517   -0.319349
      3         16           0       -1.977322    1.593162   -0.109821
      4          6           0       -0.634921   -0.861596   -0.152805
      5          8           0       -0.455860   -1.930153    0.417441
      6          7           0        0.380096   -0.152977   -0.733104
      7          6           0        1.736209   -0.630325   -0.740831
      8          6           0        2.729624    0.169683    0.093593
      9          8           0        3.926350    0.065590   -0.056311
     10          8           0        2.153147    0.960831    1.026035
     11          1           0       -4.061571   -0.576027    0.419181
     12          1           0       -3.014107   -2.013349    0.497456
     13          1           0       -2.800916   -0.704341    1.669029
     14          1           0       -2.347483   -0.454333   -1.356496
     15          1           0       -3.161688    1.849279   -0.705814
     16          1           0        0.175182    0.734191   -1.173314
     17          1           0        1.727720   -1.654246   -0.349867
     18          1           0        2.146630   -0.686203   -1.756391
     19          1           0        2.890457    1.403195    1.492303
 ---------------------------------------------------------------------
 Rotational constants (GHZ):           2.0352136           0.5868877           0.5036103
 Leave Link  202 at Fri Mar 14 15:15:12 2025, MaxMem=  8589934592 cpu:               0.1 elap:               0.2
 (Enter /home/enzo/gaussian_versions/gdv.j21/gdv/l301.exe)
 Standard basis: 6-31G(d) (6D, 7F)
 Ernie: Thresh=  0.10000D-02 Tol=  0.10000D-05 Strict=F.
 There are   172 symmetry adapted cartesian basis functions of A   symmetry.
 There are   172 symmetry adapted basis functions of A   symmetry.
   172 basis functions,   340 primitive gaussians,   172 cartesian basis functions
    43 alpha electrons       43 beta electrons
       nuclear repulsion energy       621.5492901454 Hartrees.
 IExCor=      4002 DFT=T Ex+Corr=B3LYP ScaHFX=  0.200000
 ScaDFX=  0.800000  0.720000  1.000000  0.810000  1.000000  0.000000
 ScaDFX=  0.000000  0.000000  0.000000  0.000000  0.000000  0.000000
 IRadAn=      5 IRanWt=     -1 IRanGd=            0 ICorTp=0 IEmpDi=  4
 NAtoms=   19 NActive=   19 NUniq=   19 SFac= 1.00D+00 NAtFMM=   60 NAOKFM=F Big=F
 Integral buffers will be    131072 words long.
 Raffenetti 2 integral format.
 Two-electron integral symmetry is turned on.
 Leave Link  301 at Fri Mar 14 15:15:12 2025, MaxMem=  8589934592 cpu:               0.6 elap:               0.3
 (Enter /home/enzo/gaussian_versions/gdv.j21/gdv/l302.exe)
 NPDir=0 NMtPBC=     1 NCelOv=     1 NCel=       1 NClECP=     1 NCelD=      1
         NCelK=      1 NCelE2=     1 NClLst=     1 CellRange=     0.0.
 One-electron integrals computed using PRISM.
 One-electron integral symmetry used in STVInt
 NBasis=   172 RedAO= T EigKep=  2.93D-03  NBF=   172
 NBsUse=   172 1.00D-06 EigRej= -1.00D+00 NBFU=   172
 Precomputing XC quadrature grid using
 IXCGrd= 4 IRadAn=           5 IRanWt=          -1 IRanGd=           0 AccXCQ= 0.00D+00.
 Generated NRdTot=       0 NPtTot=      407938 NUsed=           0 NTot=          64
 NSgBfM=   171   171   171   171   171 MxSgAt=    19 MxSgA2=    19 SizInc=   0.000
 NMBTot=     3489 MaxBatPerAtom=       85 MaxMicBPerAtom=      209 NBfPt=            50888400.
 Leave Link  302 at Fri Mar 14 15:15:13 2025, MaxMem=  8589934592 cpu:               4.3 elap:               0.9
 (Enter /home/enzo/gaussian_versions/gdv.j21/gdv/l303.exe)
 DipDrv:  MaxL=1.
 Leave Link  303 at Fri Mar 14 15:15:14 2025, MaxMem=  8589934592 cpu:               1.3 elap:               0.5
 (Enter /home/enzo/gaussian_versions/gdv.j21/gdv/l401.exe)
 Initial guess from the checkpoint file:  "/local/home/enzo/scratch/Gau-2337652.chk"
 B after Tr=     0.000000   -0.000000    0.000000
         Rot=    0.999980   -0.006174   -0.000567   -0.001562 Ang=  -0.73 deg.
 AO Guess basis will be translated and rotated to current coordinates.
 JPrj=2 DoOrth=T DoCkMO=T.
 Generating alternative initial guess.
 ExpMin= 1.17D-01 ExpMax= 2.19D+04 ExpMxC= 3.30D+03 IAcc=3 IRadAn=         5 AccDes= 0.00D+00
 Harris functional with IExCor= 4002 and IRadAn=       5 diagonalized for initial guess.
 HarFok:  IExCor=    4002 AccDes= 0.00D+00 IRadAn=         5 IDoV= 1 UseB2=F ITyADJ=14 ICtDFT=  3500011
 FoFCou: FMM=F IPFlag=           0 FMFlag=      100000 FMFlg1=           0
         NFxFlg=           0 DoJE=T BraDBF=F KetDBF=T FulRan=T
         wScrn=  0.000000 ICntrl=       500 IOpCl=  0 I1Cent=   200000004 NGrid=           0
         NMat0=    1 NMatS0=      1 NMatT0=    0 NMatD0=    1 NMtDS0=    0 NMtDT0=    0
 Petite list used in FoFCou.
 Harris En= -874.548222439913    
 Leave Link  401 at Fri Mar 14 15:15:15 2025, MaxMem=  8589934592 cpu:               8.5 elap:               1.4
 (Enter /home/enzo/gaussian_versions/gdv.j21/gdv/l502.exe)
 Integral symmetry usage will be decided dynamically.
 Closed shell SCF:
 Using DIIS extrapolation, IDIIS=  1040.
 NGot=  8589934592 LenX=  8589843591 LenY=  8589813566
 Requested convergence on RMS density matrix=1.00D-08 within 128 cycles.
 Requested convergence on MAX density matrix=1.00D-06.
 Requested convergence on             energy=1.00D-06.
 No special actions if energy rises.
 Fock matrices will be formed incrementally for  20 cycles.
 Integral accuracy reduced to 1.0D-05 until final iterations.

 Cycle   1  Pass 0  IDiag  1:
 FoFJK:  IHMeth= 1 ICntrl=       0 DoSepK=F KAlg= 0 I1Cent=           0 FoldK=F
 IRaf= 900000000 NMat=       1 IRICut=       1 DoRegI=T DoRafI=F ISym2E= 0 IDoP0=0 IntGTp=1.
 FoFCou: FMM=F IPFlag=           0 FMFlag=      100000 FMFlg1=           0
         NFxFlg=           0 DoJE=F BraDBF=F KetDBF=F FulRan=T
         wScrn=  0.000000 ICntrl=         0 IOpCl=  0 I1Cent=           0 NGrid=           0
         NMat0=    1 NMatS0=      1 NMatT0=    0 NMatD0=    1 NMtDS0=    0 NMtDT0=    0
 Symmetry not used in FoFCou.
 E= -874.560819712932    
 DIIS: error= 5.46D-03 at cycle   1 NSaved=   1.
 NSaved= 1 IEnMin= 1 EnMin= -874.560819712932     IErMin= 1 ErrMin= 5.46D-03
 ErrMax= 5.46D-03  0.00D+00 EMaxC= 1.00D-01 BMatC= 1.07D-02 BMatP= 1.07D-02
 IDIUse=3 WtCom= 9.45D-01 WtEn= 5.46D-02
 Coeff-Com:  0.100D+01
 Coeff-En:   0.100D+01
 Coeff:      0.100D+01
 Gap=     1.634 Goal=   None    Shift=    0.000
 GapD=    1.634 DampG=2.000 DampE=1.000 DampFc=2.0000 IDamp=-1.
 RMSDP=1.24D-03 MaxDP=3.08D-02              OVMax= 5.12D-02

 Cycle   2  Pass 0  IDiag  1:
 RMSU=  1.24D-03    CP:  9.99D-01
 E= -874.582365941061     Delta-E=       -0.021546228128 Rises=F Damp=F
 DIIS: error= 7.98D-04 at cycle   2 NSaved=   2.
 NSaved= 2 IEnMin= 2 EnMin= -874.582365941061     IErMin= 2 ErrMin= 7.98D-04
 ErrMax= 7.98D-04  0.00D+00 EMaxC= 1.00D-01 BMatC= 3.11D-04 BMatP= 1.07D-02
 IDIUse=3 WtCom= 9.92D-01 WtEn= 7.98D-03
 Coeff-Com: -0.407D-01 0.104D+01
 Coeff-En:   0.000D+00 0.100D+01
 Coeff:     -0.404D-01 0.104D+01
 Gap=     0.254 Goal=   None    Shift=    0.000
 RMSDP=3.01D-04 MaxDP=7.88D-03 DE=-2.15D-02 OVMax= 1.11D-02

 Cycle   3  Pass 0  IDiag  1:
 RMSU=  2.90D-04    CP:  9.99D-01  1.06D+00
 E= -874.582300363714     Delta-E=        0.000065577347 Rises=F Damp=F
 DIIS: error= 1.66D-03 at cycle   3 NSaved=   3.
 NSaved= 3 IEnMin= 2 EnMin= -874.582365941061     IErMin= 2 ErrMin= 7.98D-04
 ErrMax= 1.66D-03  0.00D+00 EMaxC= 1.00D-01 BMatC= 6.42D-04 BMatP= 3.11D-04
 IDIUse=3 WtCom= 1.97D-01 WtEn= 8.03D-01
 Coeff-Com: -0.473D-01 0.648D+00 0.400D+00
 Coeff-En:   0.000D+00 0.544D+00 0.456D+00
 Coeff:     -0.932D-02 0.565D+00 0.445D+00
 Gap=     0.254 Goal=   None    Shift=    0.000
 RMSDP=2.02D-04 MaxDP=7.33D-03 DE= 6.56D-05 OVMax= 1.03D-02

 Cycle   4  Pass 0  IDiag  1:
 RMSU=  1.06D-04    CP:  9.99D-01  1.09D+00  4.24D-01
 E= -874.582720510472     Delta-E=       -0.000420146759 Rises=F Damp=F
 DIIS: error= 7.03D-04 at cycle   4 NSaved=   4.
 NSaved= 4 IEnMin= 4 EnMin= -874.582720510472     IErMin= 4 ErrMin= 7.03D-04
 ErrMax= 7.03D-04  0.00D+00 EMaxC= 1.00D-01 BMatC= 1.36D-04 BMatP= 3.11D-04
 IDIUse=3 WtCom= 9.93D-01 WtEn= 7.03D-03
 Coeff-Com: -0.218D-01 0.220D+00 0.319D+00 0.483D+00
 Coeff-En:   0.000D+00 0.000D+00 0.203D+00 0.797D+00
 Coeff:     -0.216D-01 0.218D+00 0.318D+00 0.485D+00
 Gap=     0.254 Goal=   None    Shift=    0.000
 RMSDP=6.59D-05 MaxDP=2.47D-03 DE=-4.20D-04 OVMax= 3.28D-03

 Cycle   5  Pass 0  IDiag  1:
 RMSU=  3.31D-05    CP:  9.99D-01  1.10D+00  5.45D-01  5.86D-01
 E= -874.582825279423     Delta-E=       -0.000104768951 Rises=F Damp=F
 DIIS: error= 6.26D-05 at cycle   5 NSaved=   5.
 NSaved= 5 IEnMin= 5 EnMin= -874.582825279423     IErMin= 5 ErrMin= 6.26D-05
 ErrMax= 6.26D-05  0.00D+00 EMaxC= 1.00D-01 BMatC= 2.01D-06 BMatP= 1.36D-04
 IDIUse=1 WtCom= 1.00D+00 WtEn= 0.00D+00
 Coeff-Com: -0.499D-02 0.375D-01 0.101D+00 0.206D+00 0.661D+00
 Coeff:     -0.499D-02 0.375D-01 0.101D+00 0.206D+00 0.661D+00
 Gap=     0.254 Goal=   None    Shift=    0.000
 RMSDP=1.33D-05 MaxDP=4.40D-04 DE=-1.05D-04 OVMax= 3.39D-04

 Cycle   6  Pass 0  IDiag  1:
 RMSU=  8.18D-06    CP:  9.99D-01  1.10D+00  5.62D-01  6.48D-01  8.06D-01
 E= -874.582827016798     Delta-E=       -0.000001737375 Rises=F Damp=F
 DIIS: error= 4.77D-05 at cycle   6 NSaved=   6.
 NSaved= 6 IEnMin= 6 EnMin= -874.582827016798     IErMin= 6 ErrMin= 4.77D-05
 ErrMax= 4.77D-05  0.00D+00 EMaxC= 1.00D-01 BMatC= 4.56D-07 BMatP= 2.01D-06
 IDIUse=1 WtCom= 1.00D+00 WtEn= 0.00D+00
 Coeff-Com: -0.553D-03-0.244D-02 0.250D-01 0.677D-01 0.378D+00 0.532D+00
 Coeff:     -0.553D-03-0.244D-02 0.250D-01 0.677D-01 0.378D+00 0.532D+00
 Gap=     0.254 Goal=   None    Shift=    0.000
 RMSDP=4.60D-06 MaxDP=1.40D-04 DE=-1.74D-06 OVMax= 3.21D-04

 Initial convergence to 1.0D-05 achieved.  Increase integral accuracy.
 Cycle   7  Pass 1  IDiag  1:
 E= -874.582820701746     Delta-E=        0.000006315052 Rises=F Damp=F
 DIIS: error= 2.62D-05 at cycle   1 NSaved=   1.
 NSaved= 1 IEnMin= 1 EnMin= -874.582820701746     IErMin= 1 ErrMin= 2.62D-05
 ErrMax= 2.62D-05  0.00D+00 EMaxC= 1.00D-01 BMatC= 1.35D-07 BMatP= 1.35D-07
 IDIUse=1 WtCom= 1.00D+00 WtEn= 0.00D+00
 Coeff-Com:  0.100D+01
 Coeff:      0.100D+01
 Gap=     0.254 Goal=   None    Shift=    0.000
 RMSDP=4.60D-06 MaxDP=1.40D-04 DE= 6.32D-06 OVMax= 3.87D-04

 Cycle   8  Pass 1  IDiag  1:
 RMSU=  6.55D-06    CP:  1.00D+00
 E= -874.582820390534     Delta-E=        0.000000311212 Rises=F Damp=F
 DIIS: error= 5.80D-05 at cycle   2 NSaved=   2.
 NSaved= 2 IEnMin= 1 EnMin= -874.582820701746     IErMin= 1 ErrMin= 2.62D-05
 ErrMax= 5.80D-05  0.00D+00 EMaxC= 1.00D-01 BMatC= 5.54D-07 BMatP= 1.35D-07
 IDIUse=1 WtCom= 1.00D+00 WtEn= 0.00D+00
 Coeff-Com:  0.677D+00 0.323D+00
 Coeff:      0.677D+00 0.323D+00
 Gap=     0.254 Goal=   None    Shift=    0.000
 RMSDP=3.49D-06 MaxDP=1.45D-04 DE= 3.11D-07 OVMax= 2.83D-04

 Cycle   9  Pass 1  IDiag  1:
 RMSU=  2.35D-06    CP:  1.00D+00  6.06D-01
 E= -874.582820806429     Delta-E=       -0.000000415895 Rises=F Damp=F
 DIIS: error= 3.12D-06 at cycle   3 NSaved=   3.
 NSaved= 3 IEnMin= 3 EnMin= -874.582820806429     IErMin= 3 ErrMin= 3.12D-06
 ErrMax= 3.12D-06  0.00D+00 EMaxC= 1.00D-01 BMatC= 3.74D-09 BMatP= 1.35D-07
 IDIUse=1 WtCom= 1.00D+00 WtEn= 0.00D+00
 Coeff-Com:  0.142D+00 0.107D+00 0.750D+00
 Coeff:      0.142D+00 0.107D+00 0.750D+00
 Gap=     0.254 Goal=   None    Shift=    0.000
 RMSDP=5.87D-07 MaxDP=1.86D-05 DE=-4.16D-07 OVMax= 1.57D-05

 Cycle  10  Pass 1  IDiag  1:
 RMSU=  5.53D-07    CP:  1.00D+00  6.19D-01  9.27D-01
 E= -874.582820808742     Delta-E=       -0.000000002314 Rises=F Damp=F
 DIIS: error= 1.60D-06 at cycle   4 NSaved=   4.
 NSaved= 4 IEnMin= 4 EnMin= -874.582820808742     IErMin= 4 ErrMin= 1.60D-06
 ErrMax= 1.60D-06  0.00D+00 EMaxC= 1.00D-01 BMatC= 1.13D-09 BMatP= 3.74D-09
 IDIUse=1 WtCom= 1.00D+00 WtEn= 0.00D+00
 Coeff-Com:  0.132D-01 0.278D-01 0.417D+00 0.542D+00
 Coeff:      0.132D-01 0.278D-01 0.417D+00 0.542D+00
 Gap=     0.254 Goal=   None    Shift=    0.000
 RMSDP=2.46D-07 MaxDP=7.30D-06 DE=-2.31D-09 OVMax= 7.58D-06

 Cycle  11  Pass 1  IDiag  1:
 RMSU=  1.28D-07    CP:  1.00D+00  6.23D-01  9.50D-01  6.38D-01
 E= -874.582820809686     Delta-E=       -0.000000000944 Rises=F Damp=F
 DIIS: error= 8.48D-07 at cycle   5 NSaved=   5.
 NSaved= 5 IEnMin= 5 EnMin= -874.582820809686     IErMin= 5 ErrMin= 8.48D-07
 ErrMax= 8.48D-07  0.00D+00 EMaxC= 1.00D-01 BMatC= 1.92D-10 BMatP= 1.13D-09
 IDIUse=1 WtCom= 1.00D+00 WtEn= 0.00D+00
 Coeff-Com: -0.183D-02 0.110D-01 0.228D+00 0.360D+00 0.403D+00
 Coeff:     -0.183D-02 0.110D-01 0.228D+00 0.360D+00 0.403D+00
 Gap=     0.254 Goal=   None    Shift=    0.000
 RMSDP=8.58D-08 MaxDP=3.13D-06 DE=-9.44D-10 OVMax= 4.13D-06

 Cycle  12  Pass 1  IDiag  1:
 RMSU=  4.90D-08    CP:  1.00D+00  6.25D-01  9.51D-01  6.27D-01  4.62D-01
 E= -874.582820809817     Delta-E=       -0.000000000131 Rises=F Damp=F
 DIIS: error= 1.35D-07 at cycle   6 NSaved=   6.
 NSaved= 6 IEnMin= 6 EnMin= -874.582820809817     IErMin= 6 ErrMin= 1.35D-07
 ErrMax= 1.35D-07  0.00D+00 EMaxC= 1.00D-01 BMatC= 7.07D-12 BMatP= 1.92D-10
 IDIUse=1 WtCom= 1.00D+00 WtEn= 0.00D+00
 Coeff-Com: -0.224D-02 0.344D-02 0.836D-01 0.143D+00 0.218D+00 0.554D+00
 Coeff:     -0.224D-02 0.344D-02 0.836D-01 0.143D+00 0.218D+00 0.554D+00
 Gap=     0.254 Goal=   None    Shift=    0.000
 RMSDP=1.76D-08 MaxDP=5.46D-07 DE=-1.31D-10 OVMax= 8.56D-07

 Cycle  13  Pass 1  IDiag  1:
 RMSU=  1.27D-08    CP:  1.00D+00  6.25D-01  9.52D-01  6.29D-01  5.42D-01
                    CP:  8.75D-01
 E= -874.582820809822     Delta-E=       -0.000000000005 Rises=F Damp=F
 DIIS: error= 8.49D-08 at cycle   7 NSaved=   7.
 NSaved= 7 IEnMin= 7 EnMin= -874.582820809822     IErMin= 7 ErrMin= 8.49D-08
 ErrMax= 8.49D-08  0.00D+00 EMaxC= 1.00D-01 BMatC= 8.35D-13 BMatP= 7.07D-12
 IDIUse=1 WtCom= 1.00D+00 WtEn= 0.00D+00
 Coeff-Com: -0.110D-02 0.663D-03 0.203D-01 0.383D-01 0.744D-01 0.301D+00
 Coeff-Com:  0.566D+00
 Coeff:     -0.110D-02 0.663D-03 0.203D-01 0.383D-01 0.744D-01 0.301D+00
 Coeff:      0.566D+00
 Gap=     0.254 Goal=   None    Shift=    0.000
 RMSDP=5.84D-09 MaxDP=1.61D-07 DE=-5.00D-12 OVMax= 1.95D-07

 SCF Done:  E(RB3LYP) =  -874.582820810     A.U. after   13 cycles
            NFock= 13  Conv=0.58D-08     -V/T= 2.0064
 KE= 8.689843917015D+02 PE=-3.302905987556D+03 EE= 9.377894848989D+02
 Leave Link  502 at Fri Mar 14 15:15:25 2025, MaxMem=  8589934592 cpu:              78.0 elap:              10.2
 (Enter /home/enzo/gaussian_versions/gdv.j21/gdv/l701.exe)
 ... and contract with generalized density number  0.
 Compute integral first derivatives.
 Leave Link  701 at Fri Mar 14 15:15:26 2025, MaxMem=  8589934592 cpu:               3.0 elap:               0.8
 (Enter /home/enzo/gaussian_versions/gdv.j21/gdv/l702.exe)
 L702 exits ... SP integral derivatives will be done elsewhere.
 Leave Link  702 at Fri Mar 14 15:15:26 2025, MaxMem=  8589934592 cpu:               0.2 elap:               0.2
 (Enter /home/enzo/gaussian_versions/gdv.j21/gdv/l703.exe)
 Integral derivatives from FoFJK, PRISM(SPDF).
 Compute integral first derivatives, UseDBF=F ICtDFT=           0.
 Calling FoFJK, ICntrl=      2127 FMM=F ISym2X=0 I1Cent= 0 IOpClX= 0 NMat=1 NMatS=1 NMatT=0.
 FoFJK:  IHMeth= 1 ICntrl=    2127 DoSepK=F KAlg= 0 I1Cent=           0 FoldK=F
 IRaf=         0 NMat=       1 IRICut=       1 DoRegI=T DoRafI=F ISym2E= 0 IDoP0=0 IntGTp=1.
 FoFCou: FMM=F IPFlag=           0 FMFlag=      100000 FMFlg1=         800
         NFxFlg=           0 DoJE=F BraDBF=F KetDBF=F FulRan=T
         wScrn=  0.000000 ICntrl=      2127 IOpCl=  0 I1Cent=           0 NGrid=           0
         NMat0=    1 NMatS0=      1 NMatT0=    0 NMatD0=    1 NMtDS0=    0 NMtDT0=    0
 Symmetry not used in FoFCou.
 Leave Link  703 at Fri Mar 14 15:15:29 2025, MaxMem=  8589934592 cpu:              17.5 elap:               2.4
 (Enter /home/enzo/gaussian_versions/gdv.j21/gdv/l716.exe)
 Dipole        =-8.14181963D-01 7.54493884D-01-7.00044400D-01
 ***** Axes restored to original set *****
 -------------------------------------------------------------------
 Center     Atomic                   Forces (Hartrees/Bohr)
 Number     Number              X              Y              Z
 -------------------------------------------------------------------
      1        6          -0.002140277   -0.000685891   -0.001247886
      2        6           0.003243732    0.000726743    0.002462819
      3       16           0.000836444    0.001218217   -0.001093846
      4        6          -0.002518630    0.000497058    0.000924478
      5        8           0.001411039   -0.001586588   -0.000764122
      6        7           0.002030805   -0.000276323   -0.003519872
      7        6          -0.002921180    0.001653096    0.000656039
      8        6          -0.001238960    0.002883655   -0.001251338
      9        8          -0.000038500   -0.001863553    0.002087825
     10        8          -0.001916666   -0.000868136   -0.002024836
     11        1           0.000147337   -0.000392487    0.000541104
     12        1          -0.000087075   -0.000185882   -0.000156558
     13        1           0.000324478   -0.000030171    0.000610535
     14        1          -0.001162008   -0.001001997   -0.000132429
     15        1          -0.000099025    0.000461352    0.000011926
     16        1           0.001246696    0.000057048    0.001170055
     17        1           0.000797988   -0.000487892    0.001407899
     18        1           0.000625028   -0.001193294    0.000985964
     19        1           0.001458775    0.001075044   -0.000667758
 -------------------------------------------------------------------
 Cartesian Forces:  Max     0.003519872 RMS     0.001399332
 Leave Link  716 at Fri Mar 14 15:15:29 2025, MaxMem=  8589934592 cpu:               0.3 elap:               0.3
 (Enter /home/enzo/gaussian_versions/gdv.j21/gdv/l103.exe)

 GradGradGradGradGradGradGradGradGradGradGradGradGradGradGradGradGradGrad
 Berny optimization.
 Using GEDIIS/GDIIS optimizer.
 FormGI is forming the generalized inverse of G from B-inverse, IUseBI=4.
 GSVD:  received Info=                   1 from GESDD.
 Internal  Forces:  Max     0.004557659 RMS     0.001088211
 Search for a local minimum.
 Step number  15 out of a maximum of   93
 All quantities printed in internal units (Hartrees-Bohrs-Radians)
 RMS Force = .10882D-02 SwitMx=.10000D-02 MixMth= 1
 Mixed Optimization -- RFO/linear search
 Update second derivatives using D2CorX and points   15   14
 DE=  1.02D-04 DEPred=-5.32D-04 R=-1.91D-01
 Trust test=-1.91D-01 RLast= 7.35D-01 DXMaxT set to 1.09D+00
 ITU= -1  1  1  0  1 -1  1  1  1  1  0  0  1  1  0
 Use linear search instead of GDIIS.
     Eigenvalues ---    0.00027   0.00160   0.00450   0.00540   0.00807
     Eigenvalues ---    0.01000   0.01644   0.01906   0.03551   0.04013
     Eigenvalues ---    0.04838   0.04977   0.05599   0.05754   0.05797
     Eigenvalues ---    0.06538   0.07977   0.10589   0.13053   0.15961
     Eigenvalues ---    0.15990   0.16020   0.16101   0.16578   0.17248
     Eigenvalues ---    0.17785   0.20824   0.21571   0.22067   0.22265
     Eigenvalues ---    0.22921   0.24940   0.25057   0.26412   0.28936
     Eigenvalues ---    0.30618   0.32203   0.32414   0.32601   0.32659
     Eigenvalues ---    0.32721   0.32827   0.33088   0.34368   0.37997
     Eigenvalues ---    0.40808   0.44716   0.46180   0.50419   0.78054
     Eigenvalues ---    0.82495
 RFO step:  Lambda=-5.39857330D-04 EMin= 2.66862817D-04
 Quartic linear search produced a step of -0.56268.
 Iteration  1 RMS(Cart)=  0.10840659 RMS(Int)=  0.00650100
 Iteration  2 RMS(Cart)=  0.01062406 RMS(Int)=  0.00058615
 Iteration  3 RMS(Cart)=  0.00008008 RMS(Int)=  0.00058434
 Iteration  4 RMS(Cart)=  0.00000004 RMS(Int)=  0.00058434
 Variable       Old X    -DE/DX   Delta X   Delta X   Delta X     New X
                                 (Linear)    (Quad)   (Total)
    R1        2.89325  -0.00203   0.00027  -0.00992  -0.00965   2.88360
    R2        2.06693   0.00026  -0.00020   0.00094   0.00074   2.06767
    R3        2.06704  -0.00010  -0.00104   0.00079  -0.00025   2.06679
    R4        2.06416   0.00050   0.00084   0.00278   0.00362   2.06778
    R5        3.53506  -0.00202  -0.00266  -0.01077  -0.01342   3.52163
    R6        2.91025   0.00097   0.00251   0.00365   0.00616   2.91641
    R7        2.07301  -0.00010  -0.00024  -0.00042  -0.00066   2.07234
    R8        2.55185  -0.00024  -0.00182  -0.00016  -0.00198   2.54987
    R9        2.31370  -0.00188  -0.00009  -0.00030  -0.00039   2.31331
   R10        2.58357  -0.00032  -0.00238   0.00307   0.00069   2.58426
   R11        2.71685   0.00325   0.00576   0.00567   0.01143   2.72828
   R12        1.91119   0.00003  -0.00005   0.00241   0.00235   1.91354
   R13        2.88030  -0.00044  -0.00236  -0.00417  -0.00653   2.87377
   R14        2.07125  -0.00040   0.00235  -0.00754  -0.00518   2.06606
   R15        2.07262  -0.00084  -0.00289   0.00479   0.00190   2.07452
   R16        2.28763  -0.00044  -0.00077  -0.00416  -0.00493   2.28270
   R17        2.55476  -0.00254   0.00201  -0.00561  -0.00361   2.55115
   R18        1.84838  -0.00181  -0.00203  -0.00260  -0.00463   1.84375
    A1        1.92759  -0.00004  -0.00130   0.00114  -0.00016   1.92743
    A2        1.91327  -0.00029   0.00113  -0.00354  -0.00241   1.91086
    A3        1.93190   0.00047   0.00022   0.00323   0.00345   1.93535
    A4        1.90125   0.00026   0.00295   0.00350   0.00645   1.90769
    A5        1.90259  -0.00046  -0.00438  -0.00626  -0.01063   1.89196
    A6        1.88650   0.00007   0.00145   0.00197   0.00342   1.88992
    A7        1.96549  -0.00063  -0.00529  -0.00023  -0.00564   1.95985
    A8        1.94393  -0.00078  -0.00255  -0.00374  -0.00639   1.93754
    A9        1.90675   0.00127   0.00261   0.00598   0.00852   1.91527
   A10        1.91764   0.00142   0.01694   0.02018   0.03716   1.95480
   A11        1.86259  -0.00075  -0.00255  -0.01620  -0.01865   1.84394
   A12        1.86275  -0.00053  -0.00959  -0.00703  -0.01649   1.84626
   A13        1.67832  -0.00098   0.00163  -0.00670  -0.00506   1.67326
   A14        2.12071  -0.00214  -0.00860  -0.01887  -0.02746   2.09325
   A15        2.01836   0.00183   0.00781   0.01253   0.02035   2.03871
   A16        2.14298   0.00029   0.00033   0.00626   0.00659   2.14957
   A17        2.12997  -0.00074  -0.00790  -0.00153  -0.01239   2.11758
   A18        2.08173  -0.00104  -0.00822  -0.00225  -0.01340   2.06833
   A19        2.07149   0.00178   0.01110   0.00396   0.01202   2.08351
   A20        2.02369   0.00071  -0.00442  -0.00746  -0.01185   2.01184
   A21        1.87648  -0.00082  -0.01560   0.02564   0.01012   1.88660
   A22        1.95505  -0.00047   0.00676  -0.02280  -0.01607   1.93898
   A23        1.87560  -0.00025   0.00248  -0.00144   0.00121   1.87681
   A24        1.86477  -0.00024   0.00244   0.00924   0.01155   1.87632
   A25        1.86042   0.00114   0.00933  -0.00242   0.00689   1.86731
   A26        2.13104   0.00456   0.01930  -0.00981   0.00904   2.14008
   A27        1.98977  -0.00309  -0.01543   0.01468  -0.00120   1.98858
   A28        2.16189  -0.00144  -0.00419  -0.00296  -0.00760   2.15429
   A29        1.84629   0.00023   0.00109   0.00256   0.00365   1.84993
    D1        1.09142  -0.00064  -0.01905  -0.02390  -0.04293   1.04849
    D2       -3.02837   0.00016  -0.00264  -0.00032  -0.00298  -3.03134
    D3       -0.97496  -0.00017  -0.01431  -0.00747  -0.02177  -0.99673
    D4       -3.09677  -0.00054  -0.01549  -0.02111  -0.03659  -3.13336
    D5       -0.93337   0.00027   0.00091   0.00247   0.00336  -0.93000
    D6        1.12004  -0.00006  -0.01076  -0.00468  -0.01543   1.10461
    D7       -1.01733  -0.00034  -0.01285  -0.01892  -0.03175  -1.04908
    D8        1.14607   0.00046   0.00355   0.00467   0.00820   1.15428
    D9       -3.08370   0.00013  -0.00811  -0.00249  -0.01059  -3.09429
   D10       -1.28336  -0.00027  -0.11963  -0.03856  -0.15817  -1.44153
   D11        2.82195   0.00013  -0.12532  -0.04881  -0.17428   2.64767
   D12        0.80873   0.00045  -0.12114  -0.04192  -0.16293   0.64580
   D13        0.28766   0.00039   0.07174   0.04292   0.11461   0.40227
   D14       -2.90374   0.00024   0.06310   0.04148   0.10457  -2.79917
   D15        2.47791   0.00007   0.07565   0.05482   0.13051   2.60842
   D16       -0.71349  -0.00009   0.06701   0.05338   0.12047  -0.59302
   D17       -1.79217  -0.00038   0.07580   0.04211   0.11785  -1.67432
   D18        1.29963  -0.00054   0.06716   0.04066   0.10781   1.40743
   D19       -3.06640  -0.00082  -0.04539  -0.05461  -0.09958   3.11720
   D20        0.07315   0.00010   0.03637   0.04510   0.08111   0.15427
   D21        0.02469  -0.00105  -0.05452  -0.05686  -0.11103  -0.08634
   D22       -3.11894  -0.00013   0.02724   0.04285   0.06967  -3.04927
   D23       -1.96314   0.00052  -0.05314   0.02613  -0.02677  -1.98991
   D24        0.13535   0.00005  -0.06405   0.03859  -0.02542   0.10993
   D25        2.17362   0.00068  -0.05864   0.03864  -0.01994   2.15368
   D26        1.18048  -0.00039  -0.13599  -0.07302  -0.20898   0.97151
   D27       -3.00421  -0.00085  -0.14690  -0.06055  -0.20763   3.07134
   D28       -0.96594  -0.00023  -0.14149  -0.06050  -0.20215  -1.16809
   D29       -2.84818   0.00005   0.03473  -0.13252  -0.09765  -2.94583
   D30        0.32565  -0.00057   0.04343  -0.19589  -0.15253   0.17312
   D31        1.33603   0.00083   0.05565  -0.15961  -0.10386   1.23217
   D32       -1.77332   0.00021   0.06435  -0.22299  -0.15874  -1.93206
   D33       -0.65509  -0.00025   0.04249  -0.16059  -0.11803  -0.77312
   D34        2.51875  -0.00088   0.05118  -0.22396  -0.17291   2.34583
   D35        3.12906  -0.00022  -0.02927   0.06722   0.03763  -3.11650
   D36        0.02036  -0.00098  -0.02113   0.00270  -0.01812   0.00225
         Item               Value     Threshold  Converged?
 Maximum Force            0.004558     0.000450     NO 
 RMS     Force            0.001088     0.000300     NO 
 Maximum Displacement     0.492937     0.001800     NO 
 RMS     Displacement     0.108171     0.001200     NO 
 Predicted change in Energy=-5.186289D-04
 GradGradGradGradGradGradGradGradGradGradGradGradGradGradGradGradGradGrad

 Leave Link  103 at Fri Mar 14 15:15:29 2025, MaxMem=  8589934592 cpu:               0.8 elap:               0.3
 (Enter /home/enzo/gaussian_versions/gdv.j21/gdv/l202.exe)
                          Input orientation:                          
 ---------------------------------------------------------------------
 Center     Atomic      Atomic             Coordinates (Angstroms)
 Number     Number       Type             X           Y           Z
 ---------------------------------------------------------------------
      1          6           0        3.011588    1.155729    0.511214
      2          6           0        2.081736    0.228503   -0.266031
      3         16           0        1.970186   -1.466112    0.501249
      4          6           0        0.691029    0.870492   -0.454590
      5          8           0        0.567185    2.087086   -0.398801
      6          7           0       -0.342922    0.026180   -0.751628
      7          6           0       -1.689792    0.518519   -0.918781
      8          6           0       -2.687010    0.049975    0.129383
      9          8           0       -3.878249    0.213526    0.013839
     10          8           0       -2.121685   -0.584935    1.178110
     11          1           0        4.024153    0.742328    0.542975
     12          1           0        3.036476    2.136428    0.027699
     13          1           0        2.660307    1.288512    1.538978
     14          1           0        2.476699    0.070199   -1.276751
     15          1           0        3.097844   -1.947277   -0.062287
     16          1           0       -0.181901   -0.972168   -0.699331
     17          1           0       -1.659410    1.610705   -0.879518
     18          1           0       -2.091559    0.243980   -1.902831
     19          1           0       -2.858283   -0.852231    1.759410
 ---------------------------------------------------------------------
                    Distance matrix (angstroms):
                    1          2          3          4          5
     1  C    0.000000
     2  C    1.525937   0.000000
     3  S    2.821112   1.863567   0.000000
     4  C    2.529651   1.543299   2.830123   0.000000
     5  O    2.769596   2.401213   3.924758   1.224153   0.000000
     6  N    3.758110   2.481069   3.024418   1.367533   2.280376
     7  C    4.955189   3.838570   4.398942   2.451054   2.797272
     8  C    5.817432   4.788441   4.911851   3.524971   3.875383
     9  O    6.971728   5.966571   6.104338   4.639971   4.841734
    10  O    5.461241   4.518404   4.240050   3.563052   4.105651
    11  H    1.094165   2.165985   3.016245   3.481563   3.827002
    12  H    1.093699   2.153597   3.786756   2.708564   2.506339
    13  H    1.094225   2.171732   3.023426   2.833216   2.962072
    14  H    2.159005   1.096636   2.403765   2.122507   2.912881
    15  H    3.156738   2.409981   1.349334   3.726458   4.774261
    16  H    4.023896   2.598733   2.513334   2.053607   3.163936
    17  H    4.894830   4.035222   4.954522   2.500608   2.327177
    18  H    5.718480   4.482827   5.020138   3.198861   3.567641
    19  H    6.328134   5.447401   5.027319   4.524067   5.003128
                    6          7          8          9         10
     6  N    0.000000
     7  C    1.443744   0.000000
     8  C    2.504295   1.520732   0.000000
     9  O    3.622095   2.398362   1.207953   0.000000
    10  O    2.694689   2.408546   1.350012   2.253572   0.000000
    11  H    4.610879   5.902202   6.759447   7.937731   6.319521
    12  H    4.059658   5.084394   6.092776   7.177128   5.944400
    13  H    3.982429   5.055377   5.666986   6.799585   5.148541
    14  H    2.868441   4.205804   5.351777   6.486257   5.253635
    15  H    4.025990   5.452999   6.122931   7.303474   5.535164
    16  H    1.012602   2.131676   2.829685   3.946830   2.727177
    17  H    2.064029   1.093314   2.123611   2.770098   3.044400
    18  H    2.104860   1.097790   2.126521   2.620460   3.190644
    19  H    3.661141   3.227542   1.870908   2.285429   0.975670
                   11         12         13         14         15
    11  H    0.000000
    12  H    1.784525   0.000000
    13  H    1.774941   1.773253   0.000000
    14  H    2.481486   2.506839   3.073488   0.000000
    15  H    2.908328   4.085157   3.636732   2.435355   0.000000
    16  H    4.708897   4.533199   4.266011   2.913434   3.480429
    17  H    5.922875   4.811525   4.961137   4.431518   5.996546
    18  H    6.605471   5.796986   5.959641   4.614234   5.926138
    19  H    7.168700   6.832209   5.923361   6.207349   6.324013
                   16         17         18         19
    16  H    0.000000
    17  H    2.981063   0.000000
    18  H    2.564025   1.761210   0.000000
    19  H    3.636318   3.803589   3.898916   0.000000
 Stoichiometry    C5H9NO3S
 Framework group  C1[X(C5H9NO3S)]
 Deg. of freedom    51
 Full point group                 C1      NOp   1
 RotChk:  IX=3 Diff= 7.04D-02
 Largest Abelian subgroup         C1      NOp   1
 Largest concise Abelian subgroup C1      NOp   1
                         Standard orientation:                         
 ---------------------------------------------------------------------
 Center     Atomic      Atomic             Coordinates (Angstroms)
 Number     Number       Type             X           Y           Z
 ---------------------------------------------------------------------
      1          6           0       -2.971351   -0.890081    0.768353
      2          6           0       -2.039821   -0.270163   -0.269161
      3         16           0       -1.984241    1.588648   -0.148264
      4          6           0       -0.631550   -0.896872   -0.193116
      5          8           0       -0.484274   -2.011445    0.291226
      6          7           0        0.392560   -0.182087   -0.750276
      7          6           0        1.753353   -0.662550   -0.707895
      8          6           0        2.711611    0.174272    0.125228
      9          8           0        3.908682    0.015015    0.096842
     10          8           0        2.104805    1.121680    0.871377
     11          1           0       -3.992699   -0.521535    0.633374
     12          1           0       -2.962789   -1.978581    0.662191
     13          1           0       -2.645717   -0.641544    1.783005
     14          1           0       -2.410104   -0.490082   -1.277693
     15          1           0       -3.105690    1.807241   -0.866088
     16          1           0        0.209656    0.765423   -1.057090
     17          1           0        1.744387   -1.671061   -0.285803
     18          1           0        2.176208   -0.741299   -1.717912
     19          1           0        2.819535    1.598047    1.334159
 ---------------------------------------------------------------------
 Rotational constants (GHZ):           1.9776975           0.5979764           0.5042650
 Leave Link  202 at Fri Mar 14 15:15:30 2025, MaxMem=  8589934592 cpu:               0.8 elap:               0.3
 (Enter /home/enzo/gaussian_versions/gdv.j21/gdv/l301.exe)
 Standard basis: 6-31G(d) (6D, 7F)
 Ernie: Thresh=  0.10000D-02 Tol=  0.10000D-05 Strict=F.
 There are   172 symmetry adapted cartesian basis functions of A   symmetry.
 There are   172 symmetry adapted basis functions of A   symmetry.
   172 basis functions,   340 primitive gaussians,   172 cartesian basis functions
    43 alpha electrons       43 beta electrons
       nuclear repulsion energy       622.1080708851 Hartrees.
 IExCor=      4002 DFT=T Ex+Corr=B3LYP ScaHFX=  0.200000
 ScaDFX=  0.800000  0.720000  1.000000  0.810000  1.000000  0.000000
 ScaDFX=  0.000000  0.000000  0.000000  0.000000  0.000000  0.000000
 IRadAn=      5 IRanWt=     -1 IRanGd=            0 ICorTp=0 IEmpDi=  4
 NAtoms=   19 NActive=   19 NUniq=   19 SFac= 1.00D+00 NAtFMM=   60 NAOKFM=F Big=F
 Integral buffers will be    131072 words long.
 Raffenetti 2 integral format.
 Two-electron integral symmetry is turned on.
 Leave Link  301 at Fri Mar 14 15:15:30 2025, MaxMem=  8589934592 cpu:               0.8 elap:               0.4
 (Enter /home/enzo/gaussian_versions/gdv.j21/gdv/l302.exe)
 NPDir=0 NMtPBC=     1 NCelOv=     1 NCel=       1 NClECP=     1 NCelD=      1
         NCelK=      1 NCelE2=     1 NClLst=     1 CellRange=     0.0.
 One-electron integrals computed using PRISM.
 One-electron integral symmetry used in STVInt
 NBasis=   172 RedAO= T EigKep=  2.95D-03  NBF=   172
 NBsUse=   172 1.00D-06 EigRej= -1.00D+00 NBFU=   172
 Precomputing XC quadrature grid using
 IXCGrd= 4 IRadAn=           5 IRanWt=          -1 IRanGd=           0 AccXCQ= 0.00D+00.
 Generated NRdTot=       0 NPtTot=      407853 NUsed=           0 NTot=          64
 NSgBfM=   172   172   172   172   172 MxSgAt=    19 MxSgA2=    19 SizInc=   0.000
 NMBTot=     3478 MaxBatPerAtom=       85 MaxMicBPerAtom=      207 NBfPt=            50950721.
 Leave Link  302 at Fri Mar 14 15:15:31 2025, MaxMem=  8589934592 cpu:               3.2 elap:               0.6
 (Enter /home/enzo/gaussian_versions/gdv.j21/gdv/l303.exe)
 DipDrv:  MaxL=1.
 Leave Link  303 at Fri Mar 14 15:15:31 2025, MaxMem=  8589934592 cpu:               0.5 elap:               0.2
 (Enter /home/enzo/gaussian_versions/gdv.j21/gdv/l401.exe)
 Lowest energy guess from the checkpoint file:  "/local/home/enzo/scratch/Gau-2337652.chk"
 B after Tr=    -0.000000   -0.000000    0.000000
         Rot=    0.999961    0.008196   -0.000338   -0.003213 Ang=   1.01 deg.
 AO Guess basis will be translated and rotated to current coordinates.
 B after Tr=    -0.000000   -0.000000   -0.000000
         Rot=    0.999887    0.014916    0.000223   -0.001702 Ang=   1.72 deg.
 AO Guess basis will be translated and rotated to current coordinates.
 CkInt1:  FT= 4.37D-01
 Max alpha theta=  4.083 degrees.
 JPrj=2 DoOrth=T DoCkMO=T.
 Leave Link  401 at Fri Mar 14 15:15:32 2025, MaxMem=  8589934592 cpu:               4.4 elap:               0.8
 (Enter /home/enzo/gaussian_versions/gdv.j21/gdv/l502.exe)
 Integral symmetry usage will be decided dynamically.
 Closed shell SCF:
 Using DIIS extrapolation, IDIIS=  1040.
 NGot=  8589934592 LenX=  8589843591 LenY=  8589813566
 Requested convergence on RMS density matrix=1.00D-08 within 128 cycles.
 Requested convergence on MAX density matrix=1.00D-06.
 Requested convergence on             energy=1.00D-06.
 No special actions if energy rises.
 Fock matrices will be formed incrementally for  20 cycles.
 Integral accuracy reduced to 1.0D-05 until final iterations.

 Cycle   1  Pass 0  IDiag  1:
 FoFJK:  IHMeth= 1 ICntrl=       0 DoSepK=F KAlg= 0 I1Cent=           0 FoldK=F
 IRaf= 900000000 NMat=       1 IRICut=       1 DoRegI=T DoRafI=F ISym2E= 0 IDoP0=0 IntGTp=1.
 FoFCou: FMM=F IPFlag=           0 FMFlag=      100000 FMFlg1=           0
         NFxFlg=           0 DoJE=F BraDBF=F KetDBF=F FulRan=T
         wScrn=  0.000000 ICntrl=         0 IOpCl=  0 I1Cent=           0 NGrid=           0
         NMat0=    1 NMatS0=      1 NMatT0=    0 NMatD0=    1 NMtDS0=    0 NMtDT0=    0
 Symmetry not used in FoFCou.
 E= -874.555896383316    
 DIIS: error= 7.01D-03 at cycle   1 NSaved=   1.
 NSaved= 1 IEnMin= 1 EnMin= -874.555896383316     IErMin= 1 ErrMin= 7.01D-03
 ErrMax= 7.01D-03  0.00D+00 EMaxC= 1.00D-01 BMatC= 1.39D-02 BMatP= 1.39D-02
 IDIUse=3 WtCom= 9.30D-01 WtEn= 7.01D-02
 Coeff-Com:  0.100D+01
 Coeff-En:   0.100D+01
 Coeff:      0.100D+01
 Gap=    87.530 Goal=   None    Shift=    0.000
 GapD=   87.530 DampG=2.000 DampE=1.000 DampFc=2.0000 IDamp=-1.
 RMSDP=1.17D-03 MaxDP=3.32D-02              OVMax= 4.31D-02

 Cycle   2  Pass 0  IDiag  1:
 RMSU=  1.17D-03    CP:  9.99D-01
 E= -874.582515427721     Delta-E=       -0.026619044406 Rises=F Damp=F
 DIIS: error= 1.05D-03 at cycle   2 NSaved=   2.
 NSaved= 2 IEnMin= 2 EnMin= -874.582515427721     IErMin= 2 ErrMin= 1.05D-03
 ErrMax= 1.05D-03  0.00D+00 EMaxC= 1.00D-01 BMatC= 3.77D-04 BMatP= 1.39D-02
 IDIUse=3 WtCom= 9.89D-01 WtEn= 1.05D-02
 Coeff-Com: -0.493D-01 0.105D+01
 Coeff-En:   0.000D+00 0.100D+01
 Coeff:     -0.488D-01 0.105D+01
 Gap=     0.255 Goal=   None    Shift=    0.000
 RMSDP=2.04D-04 MaxDP=5.06D-03 DE=-2.66D-02 OVMax= 7.88D-03

 Cycle   3  Pass 0  IDiag  1:
 RMSU=  1.84D-04    CP:  9.98D-01  1.07D+00
 E= -874.582621603233     Delta-E=       -0.000106175512 Rises=F Damp=F
 DIIS: error= 1.79D-03 at cycle   3 NSaved=   3.
 NSaved= 3 IEnMin= 3 EnMin= -874.582621603233     IErMin= 2 ErrMin= 1.05D-03
 ErrMax= 1.79D-03  0.00D+00 EMaxC= 1.00D-01 BMatC= 5.15D-04 BMatP= 3.77D-04
 IDIUse=3 WtCom= 1.91D-01 WtEn= 8.09D-01
 Coeff-Com: -0.485D-01 0.596D+00 0.453D+00
 Coeff-En:   0.000D+00 0.404D+00 0.596D+00
 Coeff:     -0.926D-02 0.441D+00 0.568D+00
 Gap=     0.254 Goal=   None    Shift=    0.000
 RMSDP=1.55D-04 MaxDP=4.34D-03 DE=-1.06D-04 OVMax= 5.42D-03

 Cycle   4  Pass 0  IDiag  1:
 RMSU=  8.47D-05    CP:  9.99D-01  1.09D+00  3.07D-01
 E= -874.582871385302     Delta-E=       -0.000249782069 Rises=F Damp=F
 DIIS: error= 9.48D-04 at cycle   4 NSaved=   4.
 NSaved= 4 IEnMin= 4 EnMin= -874.582871385302     IErMin= 4 ErrMin= 9.48D-04
 ErrMax= 9.48D-04  0.00D+00 EMaxC= 1.00D-01 BMatC= 1.88D-04 BMatP= 3.77D-04
 IDIUse=3 WtCom= 9.91D-01 WtEn= 9.48D-03
 Coeff-Com: -0.169D-01 0.170D+00 0.380D+00 0.466D+00
 Coeff-En:   0.000D+00 0.000D+00 0.296D+00 0.704D+00
 Coeff:     -0.167D-01 0.169D+00 0.380D+00 0.468D+00
 Gap=     0.254 Goal=   None    Shift=    0.000
 RMSDP=7.21D-05 MaxDP=2.38D-03 DE=-2.50D-04 OVMax= 3.28D-03

 Cycle   5  Pass 0  IDiag  1:
 RMSU=  2.85D-05    CP:  9.98D-01  1.09D+00  5.82D-01  5.02D-01
 E= -874.583004853076     Delta-E=       -0.000133467773 Rises=F Damp=F
 DIIS: error= 2.26D-04 at cycle   5 NSaved=   5.
 NSaved= 5 IEnMin= 5 EnMin= -874.583004853076     IErMin= 5 ErrMin= 2.26D-04
 ErrMax= 2.26D-04  0.00D+00 EMaxC= 1.00D-01 BMatC= 1.06D-05 BMatP= 1.88D-04
 IDIUse=3 WtCom= 9.98D-01 WtEn= 2.26D-03
 Coeff-Com: -0.612D-02 0.514D-01 0.215D+00 0.324D+00 0.416D+00
 Coeff-En:   0.000D+00 0.000D+00 0.000D+00 0.000D+00 0.100D+01
 Coeff:     -0.610D-02 0.513D-01 0.214D+00 0.323D+00 0.417D+00
 Gap=     0.254 Goal=   None    Shift=    0.000
 RMSDP=1.80D-05 MaxDP=5.81D-04 DE=-1.33D-04 OVMax= 9.62D-04

 Cycle   6  Pass 0  IDiag  1:
 RMSU=  8.22D-06    CP:  9.98D-01  1.09D+00  5.70D-01  6.08D-01  5.44D-01
 E= -874.583013111751     Delta-E=       -0.000008258676 Rises=F Damp=F
 DIIS: error= 4.17D-05 at cycle   6 NSaved=   6.
 NSaved= 6 IEnMin= 6 EnMin= -874.583013111751     IErMin= 6 ErrMin= 4.17D-05
 ErrMax= 4.17D-05  0.00D+00 EMaxC= 1.00D-01 BMatC= 2.93D-07 BMatP= 1.06D-05
 IDIUse=1 WtCom= 1.00D+00 WtEn= 0.00D+00
 Coeff-Com:  0.229D-03-0.933D-02 0.268D-01 0.586D-01 0.171D+00 0.753D+00
 Coeff:      0.229D-03-0.933D-02 0.268D-01 0.586D-01 0.171D+00 0.753D+00
 Gap=     0.254 Goal=   None    Shift=    0.000
 RMSDP=4.23D-06 MaxDP=1.04D-04 DE=-8.26D-06 OVMax= 2.00D-04

 Initial convergence to 1.0D-05 achieved.  Increase integral accuracy.
 Cycle   7  Pass 1  IDiag  1:
 E= -874.583014007094     Delta-E=       -0.000000895343 Rises=F Damp=F
 DIIS: error= 1.57D-05 at cycle   1 NSaved=   1.
 NSaved= 1 IEnMin= 1 EnMin= -874.583014007094     IErMin= 1 ErrMin= 1.57D-05
 ErrMax= 1.57D-05  0.00D+00 EMaxC= 1.00D-01 BMatC= 5.64D-08 BMatP= 5.64D-08
 IDIUse=1 WtCom= 1.00D+00 WtEn= 0.00D+00
 Coeff-Com:  0.100D+01
 Coeff:      0.100D+01
 Gap=     0.254 Goal=   None    Shift=    0.000
 RMSDP=4.23D-06 MaxDP=1.04D-04 DE=-8.95D-07 OVMax= 8.10D-05

 Cycle   8  Pass 1  IDiag  1:
 RMSU=  4.58D-06    CP:  1.00D+00
 E= -874.583013999327     Delta-E=        0.000000007768 Rises=F Damp=F
 DIIS: error= 2.05D-05 at cycle   2 NSaved=   2.
 NSaved= 2 IEnMin= 1 EnMin= -874.583014007094     IErMin= 1 ErrMin= 1.57D-05
 ErrMax= 2.05D-05  0.00D+00 EMaxC= 1.00D-01 BMatC= 7.00D-08 BMatP= 5.64D-08
 IDIUse=1 WtCom= 1.00D+00 WtEn= 0.00D+00
 Coeff-Com:  0.530D+00 0.470D+00
 Coeff:      0.530D+00 0.470D+00
 Gap=     0.254 Goal=   None    Shift=    0.000
 RMSDP=1.73D-06 MaxDP=4.79D-05 DE= 7.77D-09 OVMax= 8.59D-05

 Cycle   9  Pass 1  IDiag  1:
 RMSU=  1.43D-06    CP:  1.00D+00  7.89D-01
 E= -874.583014052626     Delta-E=       -0.000000053299 Rises=F Damp=F
 DIIS: error= 6.55D-06 at cycle   3 NSaved=   3.
 NSaved= 3 IEnMin= 3 EnMin= -874.583014052626     IErMin= 3 ErrMin= 6.55D-06
 ErrMax= 6.55D-06  0.00D+00 EMaxC= 1.00D-01 BMatC= 7.95D-09 BMatP= 5.64D-08
 IDIUse=1 WtCom= 1.00D+00 WtEn= 0.00D+00
 Coeff-Com:  0.188D+00 0.270D+00 0.542D+00
 Coeff:      0.188D+00 0.270D+00 0.542D+00
 Gap=     0.254 Goal=   None    Shift=    0.000
 RMSDP=5.88D-07 MaxDP=2.58D-05 DE=-5.33D-08 OVMax= 4.41D-05

 Cycle  10  Pass 1  IDiag  1:
 RMSU=  5.36D-07    CP:  1.00D+00  8.03D-01  8.38D-01
 E= -874.583014057053     Delta-E=       -0.000000004427 Rises=F Damp=F
 DIIS: error= 2.32D-06 at cycle   4 NSaved=   4.
 NSaved= 4 IEnMin= 4 EnMin= -874.583014057053     IErMin= 4 ErrMin= 2.32D-06
 ErrMax= 2.32D-06  0.00D+00 EMaxC= 1.00D-01 BMatC= 2.01D-09 BMatP= 7.95D-09
 IDIUse=1 WtCom= 1.00D+00 WtEn= 0.00D+00
 Coeff-Com:  0.225D-02 0.732D-01 0.369D+00 0.555D+00
 Coeff:      0.225D-02 0.732D-01 0.369D+00 0.555D+00
 Gap=     0.254 Goal=   None    Shift=    0.000
 RMSDP=2.62D-07 MaxDP=1.02D-05 DE=-4.43D-09 OVMax= 1.44D-05

 Cycle  11  Pass 1  IDiag  1:
 RMSU=  1.03D-07    CP:  1.00D+00  8.19D-01  8.57D-01  5.73D-01
 E= -874.583014058613     Delta-E=       -0.000000001561 Rises=F Damp=F
 DIIS: error= 4.26D-07 at cycle   5 NSaved=   5.
 NSaved= 5 IEnMin= 5 EnMin= -874.583014058613     IErMin= 5 ErrMin= 4.26D-07
 ErrMax= 4.26D-07  0.00D+00 EMaxC= 1.00D-01 BMatC= 7.99D-11 BMatP= 2.01D-09
 IDIUse=1 WtCom= 1.00D+00 WtEn= 0.00D+00
 Coeff-Com: -0.520D-02 0.323D-01 0.191D+00 0.319D+00 0.463D+00
 Coeff:     -0.520D-02 0.323D-01 0.191D+00 0.319D+00 0.463D+00
 Gap=     0.254 Goal=   None    Shift=    0.000
 RMSDP=5.06D-08 MaxDP=1.69D-06 DE=-1.56D-09 OVMax= 2.70D-06

 Cycle  12  Pass 1  IDiag  1:
 RMSU=  3.83D-08    CP:  1.00D+00  8.20D-01  8.57D-01  5.91D-01  6.98D-01
 E= -874.583014058671     Delta-E=       -0.000000000057 Rises=F Damp=F
 DIIS: error= 1.34D-07 at cycle   6 NSaved=   6.
 NSaved= 6 IEnMin= 6 EnMin= -874.583014058671     IErMin= 6 ErrMin= 1.34D-07
 ErrMax= 1.34D-07  0.00D+00 EMaxC= 1.00D-01 BMatC= 4.07D-12 BMatP= 7.99D-11
 IDIUse=1 WtCom= 1.00D+00 WtEn= 0.00D+00
 Coeff-Com: -0.282D-02 0.838D-02 0.555D-01 0.996D-01 0.217D+00 0.623D+00
 Coeff:     -0.282D-02 0.838D-02 0.555D-01 0.996D-01 0.217D+00 0.623D+00
 Gap=     0.254 Goal=   None    Shift=    0.000
 RMSDP=1.95D-08 MaxDP=6.30D-07 DE=-5.71D-11 OVMax= 1.05D-06

 Cycle  13  Pass 1  IDiag  1:
 RMSU=  1.73D-08    CP:  1.00D+00  8.20D-01  8.60D-01  5.94D-01  7.42D-01
                    CP:  8.62D-01
 E= -874.583014058681     Delta-E=       -0.000000000010 Rises=F Damp=F
 DIIS: error= 8.71D-08 at cycle   7 NSaved=   7.
 NSaved= 7 IEnMin= 7 EnMin= -874.583014058681     IErMin= 7 ErrMin= 8.71D-08
 ErrMax= 8.71D-08  0.00D+00 EMaxC= 1.00D-01 BMatC= 1.89D-12 BMatP= 4.07D-12
 IDIUse=1 WtCom= 1.00D+00 WtEn= 0.00D+00
 Coeff-Com: -0.750D-03-0.185D-02-0.680D-02-0.647D-02 0.411D-01 0.432D+00
 Coeff-Com:  0.543D+00
 Coeff:     -0.750D-03-0.185D-02-0.680D-02-0.647D-02 0.411D-01 0.432D+00
 Coeff:      0.543D+00
 Gap=     0.254 Goal=   None    Shift=    0.000
 RMSDP=9.51D-09 MaxDP=3.49D-07 DE=-1.00D-11 OVMax= 4.97D-07

 SCF Done:  E(RB3LYP) =  -874.583014059     A.U. after   13 cycles
            NFock= 13  Conv=0.95D-08     -V/T= 2.0064
 KE= 8.690158521820D+02 PE=-3.304028302007D+03 EE= 9.383213648815D+02
 Leave Link  502 at Fri Mar 14 15:15:41 2025, MaxMem=  8589934592 cpu:              73.2 elap:               9.1
 (Enter /home/enzo/gaussian_versions/gdv.j21/gdv/l701.exe)
 ... and contract with generalized density number  0.
 Compute integral first derivatives.
 Leave Link  701 at Fri Mar 14 15:15:41 2025, MaxMem=  8589934592 cpu:               1.9 elap:               0.4
 (Enter /home/enzo/gaussian_versions/gdv.j21/gdv/l702.exe)
 L702 exits ... SP integral derivatives will be done elsewhere.
 Leave Link  702 at Fri Mar 14 15:15:42 2025, MaxMem=  8589934592 cpu:               0.2 elap:               0.2
 (Enter /home/enzo/gaussian_versions/gdv.j21/gdv/l703.exe)
 Integral derivatives from FoFJK, PRISM(SPDF).
 Compute integral first derivatives, UseDBF=F ICtDFT=           0.
 Calling FoFJK, ICntrl=      2127 FMM=F ISym2X=0 I1Cent= 0 IOpClX= 0 NMat=1 NMatS=1 NMatT=0.
 FoFJK:  IHMeth= 1 ICntrl=    2127 DoSepK=F KAlg= 0 I1Cent=           0 FoldK=F
 IRaf=         0 NMat=       1 IRICut=       1 DoRegI=T DoRafI=F ISym2E= 0 IDoP0=0 IntGTp=1.
 FoFCou: FMM=F IPFlag=           0 FMFlag=      100000 FMFlg1=         800
         NFxFlg=           0 DoJE=F BraDBF=F KetDBF=F FulRan=T
         wScrn=  0.000000 ICntrl=      2127 IOpCl=  0 I1Cent=           0 NGrid=           0
         NMat0=    1 NMatS0=      1 NMatT0=    0 NMatD0=    1 NMtDS0=    0 NMtDT0=    0
 Symmetry not used in FoFCou.
 Leave Link  703 at Fri Mar 14 15:15:44 2025, MaxMem=  8589934592 cpu:              14.5 elap:               2.1
 (Enter /home/enzo/gaussian_versions/gdv.j21/gdv/l716.exe)
 Dipole        =-7.47920341D-01 8.65465196D-01-6.32445512D-01
 ***** Axes restored to original set *****
 -------------------------------------------------------------------
 Center     Atomic                   Forces (Hartrees/Bohr)
 Number     Number              X              Y              Z
 -------------------------------------------------------------------
      1        6           0.000665273    0.001009455    0.000313615
      2        6          -0.000042958   -0.000904511   -0.001304551
      3       16          -0.000659377   -0.000604205    0.000186000
      4        6          -0.000331496   -0.000628786    0.001107325
      5        8          -0.001491840   -0.000158198   -0.000265871
      6        7           0.003188149    0.002923942   -0.000138583
      7        6           0.001177071   -0.002058383   -0.000231294
      8        6          -0.001203649   -0.002531073   -0.003453739
      9        8          -0.003722366    0.001126604    0.001079342
     10        8           0.002008594   -0.000121720    0.000146401
     11        1          -0.000032634    0.000074015   -0.000029590
     12        1           0.000299426   -0.000224205    0.000454721
     13        1           0.000004562   -0.000007649   -0.000455520
     14        1          -0.000143546    0.000286227   -0.000170839
     15        1          -0.000109315   -0.000165224    0.000291475
     16        1          -0.000265283    0.000742050    0.000137975
     17        1           0.002158611    0.000705458    0.000041963
     18        1          -0.001208579   -0.000080586    0.001821561
     19        1          -0.000290643    0.000616790    0.000469609
 -------------------------------------------------------------------
 Cartesian Forces:  Max     0.003722366 RMS     0.001225529
 Leave Link  716 at Fri Mar 14 15:15:44 2025, MaxMem=  8589934592 cpu:               0.1 elap:               0.2
 (Enter /home/enzo/gaussian_versions/gdv.j21/gdv/l103.exe)

 GradGradGradGradGradGradGradGradGradGradGradGradGradGradGradGradGradGrad
 Berny optimization.
 Using GEDIIS/GDIIS optimizer.
 FormGI is forming the generalized inverse of G from B-inverse, IUseBI=4.
 Internal  Forces:  Max     0.003720159 RMS     0.001038358
 Search for a local minimum.
 Step number  16 out of a maximum of   93
 All quantities printed in internal units (Hartrees-Bohrs-Radians)
 RMS Force = .10384D-02 SwitMx=.10000D-02 MixMth= 1
 Mixed Optimization -- RFO/linear search
 Update second derivatives using D2CorX and points   14   16
 DE= -9.13D-05 DEPred=-5.19D-04 R= 1.76D-01
 Trust test= 1.76D-01 RLast= 5.92D-01 DXMaxT set to 1.09D+00
 ITU=  0 -1  1  1  0  1 -1  1  1  1  1  0  0  1  1  0
 Use linear search instead of GDIIS.
     Eigenvalues ---    0.00028   0.00104   0.00449   0.00540   0.00808
     Eigenvalues ---    0.01006   0.01627   0.02016   0.03929   0.04422
     Eigenvalues ---    0.04770   0.05046   0.05623   0.05757   0.05823
     Eigenvalues ---    0.06578   0.07913   0.10479   0.14342   0.15884
     Eigenvalues ---    0.15976   0.16009   0.16071   0.16634   0.17397
     Eigenvalues ---    0.18111   0.21179   0.21626   0.22162   0.22246
     Eigenvalues ---    0.24389   0.25058   0.25941   0.27999   0.28938
     Eigenvalues ---    0.30689   0.32247   0.32448   0.32602   0.32671
     Eigenvalues ---    0.32772   0.32982   0.33161   0.34459   0.38267
     Eigenvalues ---    0.40860   0.45011   0.46200   0.50430   0.78565
     Eigenvalues ---    0.83715
 RFO step:  Lambda=-3.23543034D-04 EMin= 2.75596785D-04
 Quartic linear search produced a step of -0.44532.
 Iteration  1 RMS(Cart)=  0.09519528 RMS(Int)=  0.00542315
 Iteration  2 RMS(Cart)=  0.00789591 RMS(Int)=  0.00025095
 Iteration  3 RMS(Cart)=  0.00004268 RMS(Int)=  0.00024995
 Iteration  4 RMS(Cart)=  0.00000001 RMS(Int)=  0.00024995
 Variable       Old X    -DE/DX   Delta X   Delta X   Delta X     New X
                                 (Linear)    (Quad)   (Total)
    R1        2.88360   0.00123   0.00451  -0.00114   0.00337   2.88697
    R2        2.06767  -0.00006  -0.00049   0.00043  -0.00006   2.06761
    R3        2.06679  -0.00040  -0.00071   0.00061  -0.00010   2.06669
    R4        2.06778  -0.00043  -0.00095  -0.00138  -0.00233   2.06546
    R5        3.52163   0.00094   0.00387   0.00273   0.00660   3.52824
    R6        2.91641   0.00012  -0.00076  -0.00092  -0.00168   2.91473
    R7        2.07234   0.00006   0.00010   0.00021   0.00031   2.07265
    R8        2.54987  -0.00015  -0.00056   0.00165   0.00109   2.55097
    R9        2.31331  -0.00002   0.00010  -0.00161  -0.00151   2.31180
   R10        2.58426  -0.00218  -0.00219   0.00006  -0.00213   2.58214
   R11        2.72828   0.00022  -0.00053  -0.00076  -0.00129   2.72699
   R12        1.91354  -0.00077  -0.00109  -0.00105  -0.00214   1.91140
   R13        2.87377   0.00117   0.00104   0.00599   0.00703   2.88079
   R14        2.06606   0.00077   0.00417  -0.00228   0.00189   2.06795
   R15        2.07452  -0.00117  -0.00313  -0.00038  -0.00351   2.07101
   R16        2.28270   0.00372   0.00159   0.00359   0.00518   2.28788
   R17        2.55115   0.00097   0.00319  -0.00310   0.00009   2.55124
   R18        1.84375   0.00033   0.00046   0.00162   0.00208   1.84583
    A1        1.92743  -0.00003  -0.00096   0.00127   0.00031   1.92774
    A2        1.91086   0.00065   0.00197   0.00102   0.00299   1.91385
    A3        1.93535  -0.00024  -0.00136  -0.00018  -0.00155   1.93380
    A4        1.90769  -0.00028  -0.00054  -0.00410  -0.00464   1.90305
    A5        1.89196   0.00009   0.00127   0.00397   0.00524   1.89721
    A6        1.88992  -0.00021  -0.00038  -0.00210  -0.00247   1.88745
    A7        1.95985   0.00043  -0.00167   0.00691   0.00513   1.96498
    A8        1.93754   0.00101   0.00083   0.00468   0.00542   1.94296
    A9        1.91527  -0.00040  -0.00173   0.00327   0.00144   1.91671
   A10        1.95480  -0.00152  -0.00314  -0.02885  -0.03195   1.92285
   A11        1.84394   0.00046   0.00629   0.00386   0.01019   1.85413
   A12        1.84626  -0.00003  -0.00024   0.01095   0.01072   1.85698
   A13        1.67326   0.00075   0.00355  -0.00234   0.00121   1.67448
   A14        2.09325   0.00275   0.00542   0.01539   0.02082   2.11407
   A15        2.03871  -0.00199  -0.00288  -0.01415  -0.01703   2.02168
   A16        2.14957  -0.00077  -0.00267  -0.00098  -0.00365   2.14591
   A17        2.11758   0.00066  -0.00073   0.01253   0.01059   2.12817
   A18        2.06833  -0.00026  -0.00054   0.00918   0.00746   2.07579
   A19        2.08351  -0.00042   0.00343  -0.00956  -0.00737   2.07614
   A20        2.01184   0.00214   0.00178   0.00485   0.00670   2.01854
   A21        1.88660  -0.00276  -0.01685   0.00187  -0.01500   1.87160
   A22        1.93898   0.00125   0.01251  -0.00297   0.00955   1.94853
   A23        1.87681   0.00101   0.00143   0.00341   0.00493   1.88174
   A24        1.87632  -0.00234  -0.00321  -0.00973  -0.01286   1.86346
   A25        1.86731   0.00065   0.00432   0.00280   0.00705   1.87436
   A26        2.14008   0.00258   0.01125  -0.00606   0.00539   2.14548
   A27        1.98858  -0.00288  -0.01168   0.00294  -0.00852   1.98005
   A28        2.15429   0.00033   0.00007   0.00307   0.00335   2.15764
   A29        1.84993  -0.00026  -0.00076  -0.00036  -0.00112   1.84881
    D1        1.04849   0.00043   0.00404   0.01644   0.02052   1.06900
    D2       -3.03134  -0.00047  -0.00077  -0.01289  -0.01369  -3.04503
    D3       -0.99673  -0.00015  -0.00163   0.00529   0.00366  -0.99308
    D4       -3.13336   0.00048   0.00403   0.01281   0.01687  -3.11649
    D5       -0.93000  -0.00041  -0.00078  -0.01653  -0.01733  -0.94734
    D6        1.10461  -0.00009  -0.00164   0.00165   0.00001   1.10462
    D7       -1.04908   0.00049   0.00397   0.01074   0.01474  -1.03433
    D8        1.15428  -0.00040  -0.00084  -0.01859  -0.01946   1.13482
    D9       -3.09429  -0.00008  -0.00170  -0.00041  -0.00212  -3.09641
   D10       -1.44153   0.00025  -0.02424   0.20003   0.17580  -1.26573
   D11        2.64767  -0.00024  -0.02157   0.21122   0.18959   2.83725
   D12        0.64580   0.00029  -0.02331   0.21027   0.18700   0.83280
   D13        0.40227  -0.00003   0.00574  -0.11929  -0.11358   0.28869
   D14       -2.79917  -0.00022   0.00337  -0.11472  -0.11136  -2.91053
   D15        2.60842   0.00016   0.00175  -0.12880  -0.12698   2.48143
   D16       -0.59302  -0.00004  -0.00062  -0.12423  -0.12477  -0.71778
   D17       -1.67432  -0.00007   0.00751  -0.13224  -0.12479  -1.79911
   D18        1.40743  -0.00027   0.00514  -0.12767  -0.12257   1.28486
   D19        3.11720   0.00002   0.00842   0.03159   0.04031  -3.12567
   D20        0.15427   0.00021  -0.00734  -0.04557  -0.05318   0.10109
   D21       -0.08634  -0.00006   0.00629   0.03691   0.04347  -0.04287
   D22       -3.04927   0.00013  -0.00947  -0.04025  -0.05001  -3.09929
   D23       -1.98991  -0.00020  -0.03013   0.09127   0.06131  -1.92860
   D24        0.10993   0.00047  -0.03937   0.10020   0.06091   0.17084
   D25        2.15368   0.00030  -0.03752   0.10304   0.06573   2.21941
   D26        0.97151  -0.00037  -0.01456   0.17100   0.15630   1.12781
   D27        3.07134   0.00029  -0.02379   0.17993   0.15590  -3.05594
   D28       -1.16809   0.00013  -0.02195   0.18276   0.16072  -1.00737
   D29       -2.94583  -0.00166   0.07097   0.04899   0.12003  -2.82580
   D30        0.17312  -0.00030   0.10230   0.04695   0.14920   0.32233
   D31        1.23217  -0.00026   0.09030   0.04096   0.13129   1.36346
   D32       -1.93206   0.00110   0.12162   0.03893   0.16047  -1.77160
   D33       -0.77312  -0.00035   0.08619   0.04084   0.12709  -0.64603
   D34        2.34583   0.00101   0.11751   0.03881   0.15627   2.50210
   D35       -3.11650  -0.00137  -0.03992   0.00023  -0.03987   3.12682
   D36        0.00225   0.00005  -0.00866  -0.00195  -0.01043  -0.00819
         Item               Value     Threshold  Converged?
 Maximum Force            0.003720     0.000450     NO 
 RMS     Force            0.001038     0.000300     NO 
 Maximum Displacement     0.412899     0.001800     NO 
 RMS     Displacement     0.095325     0.001200     NO 
 Predicted change in Energy=-3.480169D-04
 Lowest energy point so far.  Saving SCF results.
 GradGradGradGradGradGradGradGradGradGradGradGradGradGradGradGradGradGrad

 Leave Link  103 at Fri Mar 14 15:15:44 2025, MaxMem=  8589934592 cpu:               1.4 elap:               0.4
 (Enter /home/enzo/gaussian_versions/gdv.j21/gdv/l202.exe)
                          Input orientation:                          
 ---------------------------------------------------------------------
 Center     Atomic      Atomic             Coordinates (Angstroms)
 Number     Number       Type             X           Y           Z
 ---------------------------------------------------------------------
      1          6           0        3.044559    1.133995    0.473818
      2          6           0        2.066393    0.227168   -0.271015
      3         16           0        1.932221   -1.468476    0.498862
      4          6           0        0.670671    0.875020   -0.377212
      5          8           0        0.512426    2.072009   -0.180305
      6          7           0       -0.342371    0.045921   -0.768887
      7          6           0       -1.696332    0.518407   -0.930062
      8          6           0       -2.699691    0.009868    0.098825
      9          8           0       -3.897240    0.048508   -0.074850
     10          8           0       -2.121889   -0.476651    1.217801
     11          1           0        4.051578    0.706537    0.455905
     12          1           0        3.066763    2.119247   -0.000365
     13          1           0        2.737514    1.264087    1.514698
     14          1           0        2.414016    0.070366   -1.299383
     15          1           0        3.143440   -1.903242    0.091194
     16          1           0       -0.151961   -0.941384   -0.878603
     17          1           0       -1.669249    1.610148   -0.860122
     18          1           0       -2.098677    0.263248   -1.917016
     19          1           0       -2.855778   -0.755333    1.799026
 ---------------------------------------------------------------------
                    Distance matrix (angstroms):
                    1          2          3          4          5
     1  C    0.000000
     2  C    1.527718   0.000000
     3  S    2.830332   1.867063   0.000000
     4  C    2.535087   1.542411   2.801962   0.000000
     5  O    2.778388   2.413810   3.874547   1.223354   0.000000
     6  N    3.768225   2.466348   3.012367   1.366407   2.276431
     7  C    4.982557   3.831091   4.376748   2.456729   2.802575
     8  C    5.865210   4.785348   4.878538   3.512042   3.827275
     9  O    7.047545   5.969533   6.050868   4.651920   4.852920
    10  O    5.462588   4.500404   4.235138   3.488477   3.923006
    11  H    1.094134   2.167756   3.037137   3.486116   3.846410
    12  H    1.093647   2.157302   3.795809   2.726054   2.561103
    13  H    1.092992   2.171262   3.024454   2.828876   2.911493
    14  H    2.161744   1.096799   2.415336   2.130052   2.979086
    15  H    3.062840   2.414513   1.349913   3.748698   4.774784
    16  H    4.044006   2.579878   2.553243   2.056075   3.163790
    17  H    4.922002   4.026748   4.929031   2.499767   2.331346
    18  H    5.738220   4.478664   5.008341   3.227158   3.620172
    19  H    6.335591   5.429378   5.012378   4.453078   4.822491
                    6          7          8          9         10
     6  N    0.000000
     7  C    1.443062   0.000000
     8  C    2.512206   1.524451   0.000000
     9  O    3.621986   2.407528   1.210694   0.000000
    10  O    2.717847   2.405110   1.350060   2.258010   0.000000
    11  H    4.609047   5.915637   6.796505   7.993648   6.331833
    12  H    4.063434   5.110196   6.140953   7.265731   5.928298
    13  H    4.022982   5.117801   5.756819   6.929954   5.170311
    14  H    2.807079   4.151156   5.301758   6.428990   5.216308
    15  H    4.085322   5.507335   6.148351   7.308083   5.570286
    16  H    1.011468   2.125728   2.889839   3.956390   2.914018
    17  H    2.053225   1.094314   2.131264   2.831840   2.979492
    18  H    2.109512   1.095931   2.118734   2.583509   3.221035
    19  H    3.681494   3.227174   1.870984   2.289588   0.976770
                   11         12         13         14         15
    11  H    0.000000
    12  H    1.781514   0.000000
    13  H    1.777264   1.770627   0.000000
    14  H    2.483417   2.512258   3.073870   0.000000
    15  H    2.787235   4.024261   3.496157   2.522081   0.000000
    16  H    4.708110   4.527577   4.352133   2.790149   3.567260
    17  H    5.939385   4.840266   5.017877   4.385992   6.034143
    18  H    6.607034   5.813782   6.013908   4.558845   6.017173
    19  H    7.186975   6.824772   5.953472   6.168683   6.342318
                   16         17         18         19
    16  H    0.000000
    17  H    2.968639   0.000000
    18  H    2.513791   1.765099   0.000000
    19  H    3.809847   3.751589   3.926789   0.000000
 Stoichiometry    C5H9NO3S
 Framework group  C1[X(C5H9NO3S)]
 Deg. of freedom    51
 Full point group                 C1      NOp   1
 RotChk:  IX=3 Diff= 5.07D-02
 Largest Abelian subgroup         C1      NOp   1
 Largest concise Abelian subgroup C1      NOp   1
                         Standard orientation:                         
 ---------------------------------------------------------------------
 Center     Atomic      Atomic             Coordinates (Angstroms)
 Number     Number       Type             X           Y           Z
 ---------------------------------------------------------------------
      1          6           0       -3.029906   -0.900076    0.655266
      2          6           0       -2.036412   -0.259534   -0.312515
      3         16           0       -1.948074    1.596049   -0.125618
      4          6           0       -0.630726   -0.876635   -0.163303
      5          8           0       -0.466191   -1.943181    0.412894
      6          7           0        0.386131   -0.195473   -0.770829
      7          6           0        1.750060   -0.665116   -0.731312
      8          6           0        2.711116    0.168696    0.108378
      9          8           0        3.914361    0.102376   -0.008163
     10          8           0        2.089169    0.976201    0.993692
     11          1           0       -4.040364   -0.523046    0.471008
     12          1           0       -3.024577   -1.985671    0.522910
     13          1           0       -2.758027   -0.682182    1.691237
     14          1           0       -2.349575   -0.449004   -1.346439
     15          1           0       -3.149044    1.850349   -0.687105
     16          1           0        0.188729    0.699867   -1.197990
     17          1           0        1.732665   -1.676838   -0.314613
     18          1           0        2.183820   -0.731846   -1.735536
     19          1           0        2.799144    1.442725    1.475741
 ---------------------------------------------------------------------
 Rotational constants (GHZ):           2.0178765           0.5954628           0.5088458
 Leave Link  202 at Fri Mar 14 15:15:45 2025, MaxMem=  8589934592 cpu:               0.1 elap:               0.2
 (Enter /home/enzo/gaussian_versions/gdv.j21/gdv/l301.exe)
 Standard basis: 6-31G(d) (6D, 7F)
 Ernie: Thresh=  0.10000D-02 Tol=  0.10000D-05 Strict=F.
 There are   172 symmetry adapted cartesian basis functions of A   symmetry.
 There are   172 symmetry adapted basis functions of A   symmetry.
   172 basis functions,   340 primitive gaussians,   172 cartesian basis functions
    43 alpha electrons       43 beta electrons
       nuclear repulsion energy       622.7276360221 Hartrees.
 IExCor=      4002 DFT=T Ex+Corr=B3LYP ScaHFX=  0.200000
 ScaDFX=  0.800000  0.720000  1.000000  0.810000  1.000000  0.000000
 ScaDFX=  0.000000  0.000000  0.000000  0.000000  0.000000  0.000000
 IRadAn=      5 IRanWt=     -1 IRanGd=            0 ICorTp=0 IEmpDi=  4
 NAtoms=   19 NActive=   19 NUniq=   19 SFac= 1.00D+00 NAtFMM=   60 NAOKFM=F Big=F
 Integral buffers will be    131072 words long.
 Raffenetti 2 integral format.
 Two-electron integral symmetry is turned on.
 Leave Link  301 at Fri Mar 14 15:15:45 2025, MaxMem=  8589934592 cpu:               0.4 elap:               0.2
 (Enter /home/enzo/gaussian_versions/gdv.j21/gdv/l302.exe)
 NPDir=0 NMtPBC=     1 NCelOv=     1 NCel=       1 NClECP=     1 NCelD=      1
         NCelK=      1 NCelE2=     1 NClLst=     1 CellRange=     0.0.
 One-electron integrals computed using PRISM.
 One-electron integral symmetry used in STVInt
 NBasis=   172 RedAO= T EigKep=  2.94D-03  NBF=   172
 NBsUse=   172 1.00D-06 EigRej= -1.00D+00 NBFU=   172
 Precomputing XC quadrature grid using
 IXCGrd= 4 IRadAn=           5 IRanWt=          -1 IRanGd=           0 AccXCQ= 0.00D+00.
 Generated NRdTot=       0 NPtTot=      408036 NUsed=           0 NTot=          64
 NSgBfM=   172   172   172   172   172 MxSgAt=    19 MxSgA2=    19 SizInc=   0.000
 NMBTot=     3477 MaxBatPerAtom=       85 MaxMicBPerAtom=      205 NBfPt=            51007977.
 Leave Link  302 at Fri Mar 14 15:15:46 2025, MaxMem=  8589934592 cpu:               3.9 elap:               0.8
 (Enter /home/enzo/gaussian_versions/gdv.j21/gdv/l303.exe)
 DipDrv:  MaxL=1.
 Leave Link  303 at Fri Mar 14 15:15:46 2025, MaxMem=  8589934592 cpu:               0.6 elap:               0.3
 (Enter /home/enzo/gaussian_versions/gdv.j21/gdv/l401.exe)
 Initial guess from the checkpoint file:  "/local/home/enzo/scratch/Gau-2337652.chk"
 B after Tr=     0.000000    0.000000    0.000000
         Rot=    0.999960   -0.008639    0.001454    0.001701 Ang=  -1.02 deg.
 AO Guess basis will be translated and rotated to current coordinates.
 JPrj=2 DoOrth=T DoCkMO=T.
 Generating alternative initial guess.
 ExpMin= 1.17D-01 ExpMax= 2.19D+04 ExpMxC= 3.30D+03 IAcc=3 IRadAn=         5 AccDes= 0.00D+00
 Harris functional with IExCor= 4002 and IRadAn=       5 diagonalized for initial guess.
 HarFok:  IExCor=    4002 AccDes= 0.00D+00 IRadAn=         5 IDoV= 1 UseB2=F ITyADJ=14 ICtDFT=  3500011
 FoFCou: FMM=F IPFlag=           0 FMFlag=      100000 FMFlg1=           0
         NFxFlg=           0 DoJE=T BraDBF=F KetDBF=T FulRan=T
         wScrn=  0.000000 ICntrl=       500 IOpCl=  0 I1Cent=   200000004 NGrid=           0
         NMat0=    1 NMatS0=      1 NMatT0=    0 NMatD0=    1 NMtDS0=    0 NMtDT0=    0
 Petite list used in FoFCou.
 Harris En= -874.548329693815    
 Leave Link  401 at Fri Mar 14 15:15:47 2025, MaxMem=  8589934592 cpu:               8.8 elap:               1.3
 (Enter /home/enzo/gaussian_versions/gdv.j21/gdv/l502.exe)
 Integral symmetry usage will be decided dynamically.
 Closed shell SCF:
 Using DIIS extrapolation, IDIIS=  1040.
 NGot=  8589934592 LenX=  8589843591 LenY=  8589813566
 Requested convergence on RMS density matrix=1.00D-08 within 128 cycles.
 Requested convergence on MAX density matrix=1.00D-06.
 Requested convergence on             energy=1.00D-06.
 No special actions if energy rises.
 Fock matrices will be formed incrementally for  20 cycles.
 Integral accuracy reduced to 1.0D-05 until final iterations.

 Cycle   1  Pass 0  IDiag  1:
 FoFJK:  IHMeth= 1 ICntrl=       0 DoSepK=F KAlg= 0 I1Cent=           0 FoldK=F
 IRaf= 900000000 NMat=       1 IRICut=       1 DoRegI=T DoRafI=F ISym2E= 0 IDoP0=0 IntGTp=1.
 FoFCou: FMM=F IPFlag=           0 FMFlag=      100000 FMFlg1=           0
         NFxFlg=           0 DoJE=F BraDBF=F KetDBF=F FulRan=T
         wScrn=  0.000000 ICntrl=         0 IOpCl=  0 I1Cent=           0 NGrid=           0
         NMat0=    1 NMatS0=      1 NMatT0=    0 NMatD0=    1 NMtDS0=    0 NMtDT0=    0
 Symmetry not used in FoFCou.
 E= -874.550242270818    
 DIIS: error= 5.85D-03 at cycle   1 NSaved=   1.
 NSaved= 1 IEnMin= 1 EnMin= -874.550242270818     IErMin= 1 ErrMin= 5.85D-03
 ErrMax= 5.85D-03  0.00D+00 EMaxC= 1.00D-01 BMatC= 1.65D-02 BMatP= 1.65D-02
 IDIUse=3 WtCom= 9.41D-01 WtEn= 5.85D-02
 Coeff-Com:  0.100D+01
 Coeff-En:   0.100D+01
 Coeff:      0.100D+01
 Gap=     1.631 Goal=   None    Shift=    0.000
 GapD=    1.631 DampG=2.000 DampE=1.000 DampFc=2.0000 IDamp=-1.
 RMSDP=1.37D-03 MaxDP=2.99D-02              OVMax= 4.15D-02

 Cycle   2  Pass 0  IDiag  1:
 RMSU=  1.37D-03    CP:  9.99D-01
 E= -874.582639089176     Delta-E=       -0.032396818358 Rises=F Damp=F
 DIIS: error= 1.14D-03 at cycle   2 NSaved=   2.
 NSaved= 2 IEnMin= 2 EnMin= -874.582639089176     IErMin= 2 ErrMin= 1.14D-03
 ErrMax= 1.14D-03  0.00D+00 EMaxC= 1.00D-01 BMatC= 4.08D-04 BMatP= 1.65D-02
 IDIUse=3 WtCom= 9.89D-01 WtEn= 1.14D-02
 Coeff-Com: -0.558D-01 0.106D+01
 Coeff-En:   0.000D+00 0.100D+01
 Coeff:     -0.552D-01 0.106D+01
 Gap=     0.254 Goal=   None    Shift=    0.000
 RMSDP=2.56D-04 MaxDP=5.39D-03 DE=-3.24D-02 OVMax= 7.49D-03

 Cycle   3  Pass 0  IDiag  1:
 RMSU=  2.38D-04    CP:  9.98D-01  1.07D+00
 E= -874.582851518218     Delta-E=       -0.000212429042 Rises=F Damp=F
 DIIS: error= 1.74D-03 at cycle   3 NSaved=   3.
 NSaved= 3 IEnMin= 3 EnMin= -874.582851518218     IErMin= 2 ErrMin= 1.14D-03
 ErrMax= 1.74D-03  0.00D+00 EMaxC= 1.00D-01 BMatC= 4.90D-04 BMatP= 4.08D-04
 IDIUse=3 WtCom= 1.93D-01 WtEn= 8.07D-01
 Coeff-Com: -0.465D-01 0.584D+00 0.463D+00
 Coeff-En:   0.000D+00 0.299D+00 0.701D+00
 Coeff:     -0.898D-02 0.354D+00 0.655D+00
 Gap=     0.253 Goal=   None    Shift=    0.000
 RMSDP=2.02D-04 MaxDP=6.10D-03 DE=-2.12D-04 OVMax= 7.45D-03

 Cycle   4  Pass 0  IDiag  1:
 RMSU=  1.19D-04    CP:  9.98D-01  1.10D+00  3.31D-01
 E= -874.582939038312     Delta-E=       -0.000087520094 Rises=F Damp=F
 DIIS: error= 1.30D-03 at cycle   4 NSaved=   4.
 NSaved= 4 IEnMin= 4 EnMin= -874.582939038312     IErMin= 2 ErrMin= 1.14D-03
 ErrMax= 1.30D-03  0.00D+00 EMaxC= 1.00D-01 BMatC= 3.93D-04 BMatP= 4.08D-04
 IDIUse=3 WtCom= 9.87D-01 WtEn= 1.30D-02
 Coeff-Com: -0.179D-01 0.185D+00 0.449D+00 0.384D+00
 Coeff-En:   0.000D+00 0.000D+00 0.448D+00 0.552D+00
 Coeff:     -0.176D-01 0.182D+00 0.449D+00 0.386D+00
 Gap=     0.253 Goal=   None    Shift=    0.000
 RMSDP=1.01D-04 MaxDP=3.45D-03 DE=-8.75D-05 OVMax= 4.52D-03

 Cycle   5  Pass 0  IDiag  1:
 RMSU=  3.46D-05    CP:  9.98D-01  1.09D+00  6.15D-01  4.47D-01
 E= -874.583229156505     Delta-E=       -0.000290118193 Rises=F Damp=F
 DIIS: error= 1.43D-04 at cycle   5 NSaved=   5.
 NSaved= 5 IEnMin= 5 EnMin= -874.583229156505     IErMin= 5 ErrMin= 1.43D-04
 ErrMax= 1.43D-04  0.00D+00 EMaxC= 1.00D-01 BMatC= 8.41D-06 BMatP= 3.93D-04
 IDIUse=3 WtCom= 9.99D-01 WtEn= 1.43D-03
 Coeff-Com: -0.614D-02 0.541D-01 0.236D+00 0.243D+00 0.474D+00
 Coeff-En:   0.000D+00 0.000D+00 0.000D+00 0.000D+00 0.100D+01
 Coeff:     -0.613D-02 0.540D-01 0.235D+00 0.242D+00 0.474D+00
 Gap=     0.253 Goal=   None    Shift=    0.000
 RMSDP=1.74D-05 MaxDP=4.76D-04 DE=-2.90D-04 OVMax= 8.43D-04

 Cycle   6  Pass 0  IDiag  1:
 RMSU=  9.54D-06    CP:  9.98D-01  1.09D+00  6.16D-01  5.21D-01  6.70D-01
 E= -874.583235505595     Delta-E=       -0.000006349089 Rises=F Damp=F
 DIIS: error= 4.40D-05 at cycle   6 NSaved=   6.
 NSaved= 6 IEnMin= 6 EnMin= -874.583235505595     IErMin= 6 ErrMin= 4.40D-05
 ErrMax= 4.40D-05  0.00D+00 EMaxC= 1.00D-01 BMatC= 5.35D-07 BMatP= 8.41D-06
 IDIUse=1 WtCom= 1.00D+00 WtEn= 0.00D+00
 Coeff-Com:  0.187D-04-0.717D-02 0.395D-01 0.541D-01 0.237D+00 0.677D+00
 Coeff:      0.187D-04-0.717D-02 0.395D-01 0.541D-01 0.237D+00 0.677D+00
 Gap=     0.253 Goal=   None    Shift=    0.000
 RMSDP=5.40D-06 MaxDP=1.37D-04 DE=-6.35D-06 OVMax= 1.91D-04

 Initial convergence to 1.0D-05 achieved.  Increase integral accuracy.
 Cycle   7  Pass 1  IDiag  1:
 E= -874.583230775284     Delta-E=        0.000004730311 Rises=F Damp=F
 DIIS: error= 1.14D-05 at cycle   1 NSaved=   1.
 NSaved= 1 IEnMin= 1 EnMin= -874.583230775284     IErMin= 1 ErrMin= 1.14D-05
 ErrMax= 1.14D-05  0.00D+00 EMaxC= 1.00D-01 BMatC= 7.42D-08 BMatP= 7.42D-08
 IDIUse=1 WtCom= 1.00D+00 WtEn= 0.00D+00
 Coeff-Com:  0.100D+01
 Coeff:      0.100D+01
 Gap=     0.253 Goal=   None    Shift=    0.000
 RMSDP=5.40D-06 MaxDP=1.37D-04 DE= 4.73D-06 OVMax= 1.69D-04

 Cycle   8  Pass 1  IDiag  1:
 RMSU=  5.51D-06    CP:  1.00D+00
 E= -874.583230717270     Delta-E=        0.000000058014 Rises=F Damp=F
 DIIS: error= 2.44D-05 at cycle   2 NSaved=   2.
 NSaved= 2 IEnMin= 1 EnMin= -874.583230775284     IErMin= 1 ErrMin= 1.14D-05
 ErrMax= 2.44D-05  0.00D+00 EMaxC= 1.00D-01 BMatC= 1.58D-07 BMatP= 7.42D-08
 IDIUse=1 WtCom= 1.00D+00 WtEn= 0.00D+00
 Coeff-Com:  0.604D+00 0.396D+00
 Coeff:      0.604D+00 0.396D+00
 Gap=     0.253 Goal=   None    Shift=    0.000
 RMSDP=2.38D-06 MaxDP=6.61D-05 DE= 5.80D-08 OVMax= 1.42D-04

 Cycle   9  Pass 1  IDiag  1:
 RMSU=  1.94D-06    CP:  1.00D+00  7.52D-01
 E= -874.583230832986     Delta-E=       -0.000000115717 Rises=F Damp=F
 DIIS: error= 6.60D-06 at cycle   3 NSaved=   3.
 NSaved= 3 IEnMin= 3 EnMin= -874.583230832986     IErMin= 3 ErrMin= 6.60D-06
 ErrMax= 6.60D-06  0.00D+00 EMaxC= 1.00D-01 BMatC= 1.29D-08 BMatP= 7.42D-08
 IDIUse=1 WtCom= 1.00D+00 WtEn= 0.00D+00
 Coeff-Com:  0.213D+00 0.240D+00 0.547D+00
 Coeff:      0.213D+00 0.240D+00 0.547D+00
 Gap=     0.253 Goal=   None    Shift=    0.000
 RMSDP=8.13D-07 MaxDP=1.90D-05 DE=-1.16D-07 OVMax= 3.53D-05

 Cycle  10  Pass 1  IDiag  1:
 RMSU=  7.08D-07    CP:  1.00D+00  7.61D-01  8.02D-01
 E= -874.583230842325     Delta-E=       -0.000000009338 Rises=F Damp=F
 DIIS: error= 1.58D-06 at cycle   4 NSaved=   4.
 NSaved= 4 IEnMin= 4 EnMin= -874.583230842325     IErMin= 4 ErrMin= 1.58D-06
 ErrMax= 1.58D-06  0.00D+00 EMaxC= 1.00D-01 BMatC= 1.28D-09 BMatP= 1.29D-08
 IDIUse=1 WtCom= 1.00D+00 WtEn= 0.00D+00
 Coeff-Com:  0.996D-02 0.588D-01 0.294D+00 0.637D+00
 Coeff:      0.996D-02 0.588D-01 0.294D+00 0.637D+00
 Gap=     0.253 Goal=   None    Shift=    0.000
 RMSDP=2.47D-07 MaxDP=7.99D-06 DE=-9.34D-09 OVMax= 7.88D-06

 Cycle  11  Pass 1  IDiag  1:
 RMSU=  1.14D-07    CP:  1.00D+00  7.71D-01  8.38D-01  7.21D-01
 E= -874.583230843479     Delta-E=       -0.000000001154 Rises=F Damp=F
 DIIS: error= 1.05D-06 at cycle   5 NSaved=   5.
 NSaved= 5 IEnMin= 5 EnMin= -874.583230843479     IErMin= 5 ErrMin= 1.05D-06
 ErrMax= 1.05D-06  0.00D+00 EMaxC= 1.00D-01 BMatC= 1.27D-10 BMatP= 1.28D-09
 IDIUse=1 WtCom= 1.00D+00 WtEn= 0.00D+00
 Coeff-Com: -0.420D-02 0.237D-01 0.149D+00 0.375D+00 0.456D+00
 Coeff:     -0.420D-02 0.237D-01 0.149D+00 0.375D+00 0.456D+00
 Gap=     0.253 Goal=   None    Shift=    0.000
 RMSDP=6.42D-08 MaxDP=2.09D-06 DE=-1.15D-09 OVMax= 2.24D-06

 Cycle  12  Pass 1  IDiag  1:
 RMSU=  4.33D-08    CP:  1.00D+00  7.75D-01  8.33D-01  7.09D-01  6.42D-01
 E= -874.583230843569     Delta-E=       -0.000000000090 Rises=F Damp=F
 DIIS: error= 1.08D-07 at cycle   6 NSaved=   6.
 NSaved= 6 IEnMin= 6 EnMin= -874.583230843569     IErMin= 6 ErrMin= 1.08D-07
 ErrMax= 1.08D-07  0.00D+00 EMaxC= 1.00D-01 BMatC= 4.22D-12 BMatP= 1.27D-10
 IDIUse=1 WtCom= 1.00D+00 WtEn= 0.00D+00
 Coeff-Com: -0.271D-02 0.537D-02 0.396D-01 0.110D+00 0.198D+00 0.650D+00
 Coeff:     -0.271D-02 0.537D-02 0.396D-01 0.110D+00 0.198D+00 0.650D+00
 Gap=     0.253 Goal=   None    Shift=    0.000
 RMSDP=1.69D-08 MaxDP=5.16D-07 DE=-8.96D-11 OVMax= 8.13D-07

 Cycle  13  Pass 1  IDiag  1:
 RMSU=  1.53D-08    CP:  1.00D+00  7.75D-01  8.34D-01  7.11D-01  6.92D-01
                    CP:  9.33D-01
 E= -874.583230843576     Delta-E=       -0.000000000007 Rises=F Damp=F
 DIIS: error= 5.42D-08 at cycle   7 NSaved=   7.
 NSaved= 7 IEnMin= 7 EnMin= -874.583230843576     IErMin= 7 ErrMin= 5.42D-08
 ErrMax= 5.42D-08  0.00D+00 EMaxC= 1.00D-01 BMatC= 1.78D-12 BMatP= 4.22D-12
 IDIUse=1 WtCom= 1.00D+00 WtEn= 0.00D+00
 Coeff-Com: -0.120D-02-0.249D-03 0.269D-02 0.131D-01 0.581D-01 0.422D+00
 Coeff-Com:  0.506D+00
 Coeff:     -0.120D-02-0.249D-03 0.269D-02 0.131D-01 0.581D-01 0.422D+00
 Coeff:      0.506D+00
 Gap=     0.253 Goal=   None    Shift=    0.000
 RMSDP=8.60D-09 MaxDP=3.36D-07 DE=-7.05D-12 OVMax= 4.24D-07

 SCF Done:  E(RB3LYP) =  -874.583230844     A.U. after   13 cycles
            NFock= 13  Conv=0.86D-08     -V/T= 2.0064
 KE= 8.689950176674D+02 PE=-3.305261578456D+03 EE= 9.389556939232D+02
 Leave Link  502 at Fri Mar 14 15:15:57 2025, MaxMem=  8589934592 cpu:              80.3 elap:               9.7
 (Enter /home/enzo/gaussian_versions/gdv.j21/gdv/l701.exe)
 ... and contract with generalized density number  0.
 Compute integral first derivatives.
 Leave Link  701 at Fri Mar 14 15:15:58 2025, MaxMem=  8589934592 cpu:               3.0 elap:               0.6
 (Enter /home/enzo/gaussian_versions/gdv.j21/gdv/l702.exe)
 L702 exits ... SP integral derivatives will be done elsewhere.
 Leave Link  702 at Fri Mar 14 15:15:58 2025, MaxMem=  8589934592 cpu:               0.1 elap:               0.2
 (Enter /home/enzo/gaussian_versions/gdv.j21/gdv/l703.exe)
 Integral derivatives from FoFJK, PRISM(SPDF).
 Compute integral first derivatives, UseDBF=F ICtDFT=           0.
 Calling FoFJK, ICntrl=      2127 FMM=F ISym2X=0 I1Cent= 0 IOpClX= 0 NMat=1 NMatS=1 NMatT=0.
 FoFJK:  IHMeth= 1 ICntrl=    2127 DoSepK=F KAlg= 0 I1Cent=           0 FoldK=F
 IRaf=         0 NMat=       1 IRICut=       1 DoRegI=T DoRafI=F ISym2E= 0 IDoP0=0 IntGTp=1.
 FoFCou: FMM=F IPFlag=           0 FMFlag=      100000 FMFlg1=         800
         NFxFlg=           0 DoJE=F BraDBF=F KetDBF=F FulRan=T
         wScrn=  0.000000 ICntrl=      2127 IOpCl=  0 I1Cent=           0 NGrid=           0
         NMat0=    1 NMatS0=      1 NMatT0=    0 NMatD0=    1 NMtDS0=    0 NMtDT0=    0
 Symmetry not used in FoFCou.
 Leave Link  703 at Fri Mar 14 15:16:00 2025, MaxMem=  8589934592 cpu:              14.9 elap:               2.1
 (Enter /home/enzo/gaussian_versions/gdv.j21/gdv/l716.exe)
 Dipole        =-8.07513359D-01 7.45791406D-01-6.70460926D-01
 ***** Axes restored to original set *****
 -------------------------------------------------------------------
 Center     Atomic                   Forces (Hartrees/Bohr)
 Number     Number              X              Y              Z
 -------------------------------------------------------------------
      1        6          -0.000730252   -0.000115576   -0.000475564
      2        6           0.000825285   -0.000052304    0.000770638
      3       16           0.000113550    0.000464237   -0.000136379
      4        6          -0.000481984   -0.000099579    0.000538345
      5        8           0.000182764   -0.000141339    0.000079300
      6        7          -0.000160380    0.000264902   -0.002480461
      7        6          -0.000406944   -0.000633848    0.000390929
      8        6          -0.001444562   -0.000344452   -0.001711465
      9        8           0.000890391    0.000192039    0.001079128
     10        8          -0.000380233   -0.000065158    0.000065719
     11        1           0.000081546   -0.000098567    0.000133407
     12        1           0.000079032   -0.000046242   -0.000018216
     13        1           0.000014776   -0.000024120    0.000096545
     14        1          -0.000234679   -0.000114272   -0.000118016
     15        1          -0.000043205    0.000133831   -0.000096496
     16        1           0.000400550   -0.000079897    0.001016493
     17        1           0.000424788    0.000494116    0.000569389
     18        1           0.000367343   -0.000116596    0.000485824
     19        1           0.000502216    0.000382824   -0.000189122
 -------------------------------------------------------------------
 Cartesian Forces:  Max     0.002480461 RMS     0.000593414
 Leave Link  716 at Fri Mar 14 15:16:00 2025, MaxMem=  8589934592 cpu:               0.4 elap:               0.2
 (Enter /home/enzo/gaussian_versions/gdv.j21/gdv/l103.exe)

 GradGradGradGradGradGradGradGradGradGradGradGradGradGradGradGradGradGrad
 Berny optimization.
 Using GEDIIS/GDIIS optimizer.
 FormGI is forming the generalized inverse of G from B-inverse, IUseBI=4.
 Internal  Forces:  Max     0.001402745 RMS     0.000376147
 Search for a local minimum.
 Step number  17 out of a maximum of   93
 All quantities printed in internal units (Hartrees-Bohrs-Radians)
 RMS Force = .37615D-03 SwitMx=.10000D-02 MixMth= 2
 Mixed Optimization -- En-DIIS/RFO-DIIS
 Update second derivatives using D2CorX and points   15   16   17
 DE= -2.17D-04 DEPred=-3.48D-04 R= 6.23D-01
 TightC=F SS=  1.41D+00  RLast= 6.42D-01 DXNew= 1.8414D+00 1.9246D+00
 Trust test= 6.23D-01 RLast= 6.42D-01 DXMaxT set to 1.84D+00
 ITU=  1  0 -1  1  1  0  1 -1  1  1  1  1  0  0  1  1  0
 Use linear search instead of GDIIS.
     Eigenvalues ---    0.00069   0.00114   0.00437   0.00555   0.00732
     Eigenvalues ---    0.00811   0.01663   0.01852   0.03615   0.04046
     Eigenvalues ---    0.04867   0.05021   0.05590   0.05693   0.05764
     Eigenvalues ---    0.06394   0.07903   0.10399   0.13611   0.15908
     Eigenvalues ---    0.15964   0.16011   0.16097   0.16639   0.17385
     Eigenvalues ---    0.17894   0.20955   0.21574   0.22102   0.22299
     Eigenvalues ---    0.24006   0.24704   0.25092   0.26176   0.28409
     Eigenvalues ---    0.29964   0.32235   0.32415   0.32586   0.32609
     Eigenvalues ---    0.32666   0.32884   0.33098   0.34417   0.38635
     Eigenvalues ---    0.40838   0.44838   0.46195   0.50346   0.78572
     Eigenvalues ---    0.84528
 RFO step:  Lambda=-2.54575227D-04 EMin= 6.85480897D-04
 Quartic linear search produced a step of -0.23443.
 Iteration  1 RMS(Cart)=  0.04920133 RMS(Int)=  0.00171398
 Iteration  2 RMS(Cart)=  0.00198934 RMS(Int)=  0.00021648
 Iteration  3 RMS(Cart)=  0.00000342 RMS(Int)=  0.00021647
 Iteration  4 RMS(Cart)=  0.00000000 RMS(Int)=  0.00021647
 Variable       Old X    -DE/DX   Delta X   Delta X   Delta X     New X
                                 (Linear)    (Quad)   (Total)
    R1        2.88697  -0.00065  -0.00079  -0.00013  -0.00091   2.88605
    R2        2.06761   0.00011   0.00001  -0.00000   0.00001   2.06762
    R3        2.06669  -0.00003   0.00002  -0.00068  -0.00066   2.06604
    R4        2.06546   0.00008   0.00055  -0.00019   0.00036   2.06581
    R5        3.52824  -0.00064  -0.00155  -0.00007  -0.00161   3.52662
    R6        2.91473   0.00005   0.00039   0.00222   0.00262   2.91735
    R7        2.07265   0.00005  -0.00007   0.00007  -0.00000   2.07265
    R8        2.55097  -0.00005  -0.00026  -0.00072  -0.00097   2.54999
    R9        2.31180  -0.00015   0.00035   0.00029   0.00064   2.31245
   R10        2.58214   0.00002   0.00050  -0.00282  -0.00232   2.57982
   R11        2.72699  -0.00006   0.00030   0.00057   0.00087   2.72787
   R12        1.91140   0.00004   0.00050  -0.00083  -0.00033   1.91107
   R13        2.88079  -0.00028  -0.00165   0.00111  -0.00054   2.88026
   R14        2.06795   0.00054  -0.00044   0.00276   0.00232   2.07027
   R15        2.07101  -0.00055   0.00082  -0.00293  -0.00211   2.06890
   R16        2.28788  -0.00103  -0.00121   0.00030  -0.00091   2.28697
   R17        2.55124  -0.00016  -0.00002   0.00216   0.00214   2.55339
   R18        1.84583  -0.00060  -0.00049  -0.00060  -0.00109   1.84474
    A1        1.92774   0.00000  -0.00007  -0.00011  -0.00018   1.92756
    A2        1.91385   0.00006  -0.00070   0.00285   0.00215   1.91600
    A3        1.93380  -0.00000   0.00036  -0.00104  -0.00068   1.93312
    A4        1.90305  -0.00001   0.00109   0.00019   0.00127   1.90432
    A5        1.89721  -0.00007  -0.00123  -0.00207  -0.00330   1.89391
    A6        1.88745   0.00002   0.00058   0.00016   0.00074   1.88819
    A7        1.96498  -0.00006  -0.00120  -0.00050  -0.00168   1.96331
    A8        1.94296  -0.00021  -0.00127  -0.00075  -0.00201   1.94095
    A9        1.91671   0.00023  -0.00034   0.00276   0.00244   1.91915
   A10        1.92285   0.00023   0.00749   0.00070   0.00819   1.93104
   A11        1.85413  -0.00009  -0.00239   0.00164  -0.00075   1.85338
   A12        1.85698  -0.00010  -0.00251  -0.00391  -0.00642   1.85056
   A13        1.67448  -0.00039  -0.00028   0.00090   0.00061   1.67509
   A14        2.11407  -0.00045  -0.00488   0.00017  -0.00472   2.10935
   A15        2.02168   0.00049   0.00399  -0.00043   0.00356   2.02523
   A16        2.14591  -0.00004   0.00086  -0.00013   0.00071   2.14663
   A17        2.12817  -0.00089  -0.00248  -0.00447  -0.00806   2.12011
   A18        2.07579  -0.00015  -0.00175  -0.00474  -0.00758   2.06821
   A19        2.07614   0.00099   0.00173   0.00361   0.00419   2.08033
   A20        2.01854   0.00038  -0.00157   0.00642   0.00483   2.02337
   A21        1.87160  -0.00055   0.00352  -0.01519  -0.01167   1.85993
   A22        1.94853  -0.00007  -0.00224   0.00706   0.00480   1.95332
   A23        1.88174  -0.00015  -0.00116  -0.00065  -0.00181   1.87993
   A24        1.86346   0.00004   0.00301  -0.00218   0.00081   1.86427
   A25        1.87436   0.00036  -0.00165   0.00449   0.00284   1.87719
   A26        2.14548   0.00140  -0.00126   0.01000   0.00873   2.15421
   A27        1.98005  -0.00107   0.00200  -0.00899  -0.00699   1.97306
   A28        2.15764  -0.00034  -0.00078  -0.00113  -0.00191   2.15573
   A29        1.84881   0.00016   0.00026   0.00054   0.00080   1.84962
    D1        1.06900  -0.00011  -0.00481  -0.00956  -0.01437   1.05463
    D2       -3.04503  -0.00001   0.00321  -0.00959  -0.00637  -3.05140
    D3       -0.99308  -0.00011  -0.00086  -0.01313  -0.01399  -1.00707
    D4       -3.11649  -0.00008  -0.00395  -0.00757  -0.01153  -3.12802
    D5       -0.94734   0.00002   0.00406  -0.00760  -0.00353  -0.95087
    D6        1.10462  -0.00008  -0.00000  -0.01115  -0.01115   1.09347
    D7       -1.03433  -0.00002  -0.00346  -0.00620  -0.00966  -1.04400
    D8        1.13482   0.00008   0.00456  -0.00623  -0.00166   1.13316
    D9       -3.09641  -0.00002   0.00050  -0.00978  -0.00929  -3.10570
   D10       -1.26573  -0.00015  -0.04121  -0.04465  -0.08586  -1.35160
   D11        2.83725  -0.00001  -0.04444  -0.04383  -0.08826   2.74900
   D12        0.83280   0.00004  -0.04384  -0.04048  -0.08433   0.74847
   D13        0.28869  -0.00001   0.02663   0.01250   0.03913   0.32781
   D14       -2.91053  -0.00000   0.02611   0.00509   0.03121  -2.87932
   D15        2.48143  -0.00007   0.02977   0.01182   0.04158   2.52301
   D16       -0.71778  -0.00006   0.02925   0.00442   0.03366  -0.68412
   D17       -1.79911  -0.00011   0.02925   0.01198   0.04123  -1.75787
   D18        1.28486  -0.00011   0.02873   0.00458   0.03332   1.31818
   D19       -3.12567  -0.00031  -0.00945  -0.02993  -0.03920   3.11831
   D20        0.10109   0.00029   0.01247   0.04722   0.05952   0.16061
   D21       -0.04287  -0.00032  -0.01019  -0.03748  -0.04750  -0.09036
   D22       -3.09929   0.00028   0.01172   0.03968   0.05122  -3.04806
   D23       -1.92860   0.00054  -0.01437   0.02530   0.01099  -1.91761
   D24        0.17084   0.00018  -0.01428   0.01737   0.00315   0.17399
   D25        2.21941   0.00024  -0.01541   0.01749   0.00213   2.22154
   D26        1.12781  -0.00011  -0.03664  -0.05227  -0.08896   1.03884
   D27       -3.05594  -0.00047  -0.03655  -0.06020  -0.09680   3.13045
   D28       -1.00737  -0.00041  -0.03768  -0.06008  -0.09782  -1.10520
   D29       -2.82580  -0.00064  -0.02814  -0.06588  -0.09404  -2.91984
   D30        0.32233  -0.00011  -0.03498  -0.04550  -0.08048   0.24185
   D31        1.36346  -0.00006  -0.03078  -0.05004  -0.08083   1.28263
   D32       -1.77160   0.00046  -0.03762  -0.02966  -0.06727  -1.83886
   D33       -0.64603  -0.00042  -0.02979  -0.05384  -0.08364  -0.72966
   D34        2.50210   0.00010  -0.03663  -0.03346  -0.07007   2.43203
   D35        3.12682  -0.00049   0.00935  -0.03475  -0.02537   3.10145
   D36       -0.00819   0.00003   0.00245  -0.01425  -0.01184  -0.02003
         Item               Value     Threshold  Converged?
 Maximum Force            0.001403     0.000450     NO 
 RMS     Force            0.000376     0.000300     NO 
 Maximum Displacement     0.180347     0.001800     NO 
 RMS     Displacement     0.049426     0.001200     NO 
 Predicted change in Energy=-1.684574D-04
 Lowest energy point so far.  Saving SCF results.
 GradGradGradGradGradGradGradGradGradGradGradGradGradGradGradGradGradGrad

 Leave Link  103 at Fri Mar 14 15:16:01 2025, MaxMem=  8589934592 cpu:               0.8 elap:               0.3
 (Enter /home/enzo/gaussian_versions/gdv.j21/gdv/l202.exe)
                          Input orientation:                          
 ---------------------------------------------------------------------
 Center     Atomic      Atomic             Coordinates (Angstroms)
 Number     Number       Type             X           Y           Z
 ---------------------------------------------------------------------
      1          6           0        3.021057    1.144643    0.497692
      2          6           0        2.067934    0.229585   -0.268250
      3         16           0        1.931053   -1.464468    0.502582
      4          6           0        0.673081    0.874362   -0.416409
      5          8           0        0.519939    2.079529   -0.269629
      6          7           0       -0.337130    0.037111   -0.793507
      7          6           0       -1.693125    0.510103   -0.939523
      8          6           0       -2.686084    0.020950    0.108255
      9          8           0       -3.885079    0.143943   -0.000801
     10          8           0       -2.088372   -0.541373    1.181688
     11          1           0        4.028291    0.717703    0.516292
     12          1           0        3.057197    2.126260    0.017664
     13          1           0        2.682797    1.281062    1.528233
     14          1           0        2.438800    0.072341   -1.288397
     15          1           0        3.105329   -1.930034    0.028032
     16          1           0       -0.156719   -0.957730   -0.814941
     17          1           0       -1.651437    1.602927   -0.874677
     18          1           0       -2.112486    0.253093   -1.917636
     19          1           0       -2.808652   -0.780567    1.795643
 ---------------------------------------------------------------------
                    Distance matrix (angstroms):
                    1          2          3          4          5
     1  C    0.000000
     2  C    1.527234   0.000000
     3  S    2.827649   1.866209   0.000000
     4  C    2.534092   1.543795   2.810189   0.000000
     5  O    2.778198   2.412174   3.891975   1.223693   0.000000
     6  N    3.764472   2.469266   3.013178   1.365181   2.276069
     7  C    4.969078   3.830778   4.371871   2.450564   2.794550
     8  C    5.829735   4.773466   4.866201   3.505364   3.828725
     9  O    6.996043   5.959633   6.055392   4.634983   4.819020
    10  O    5.423723   4.468957   4.179601   3.490536   3.972246
    11  H    1.094140   2.167202   3.026626   3.485958   3.844577
    12  H    1.093300   2.158186   3.794295   2.727577   2.553899
    13  H    1.093182   2.170486   3.025725   2.825950   2.923664
    14  H    2.163092   1.096798   2.413958   2.126350   2.957824
    15  H    3.111482   2.414110   1.349398   3.738716   4.780109
    16  H    4.030042   2.580246   2.520207   2.050356   3.159142
    17  H    4.891382   4.010928   4.913246   2.478750   2.303933
    18  H    5.742991   4.494101   5.015743   3.224755   3.602980
    19  H    6.275080   5.390840   4.960295   4.444596   4.850260
                    6          7          8          9         10
     6  N    0.000000
     7  C    1.443524   0.000000
     8  C    2.516152   1.524165   0.000000
     9  O    3.636995   2.412455   1.210210   0.000000
    10  O    2.702385   2.400283   1.351194   2.257453   0.000000
    11  H    4.608219   5.907376   6.762750   7.950975   6.280254
    12  H    4.067432   5.108202   6.117665   7.219773   5.911692
    13  H    4.007225   5.082606   5.694656   6.838711   5.119122
    14  H    2.819920   4.169670   5.312036   6.454028   5.193578
    15  H    4.049088   5.469514   6.111730   7.291640   5.498530
    16  H    1.011294   2.128520   2.864925   3.972049   2.809122
    17  H    2.045916   1.095540   2.130564   2.807392   3.002928
    18  H    2.112393   1.094816   2.118287   2.613093   3.199620
    19  H    3.671610   3.223564   1.872093   2.289241   0.976196
                   11         12         13         14         15
    11  H    0.000000
    12  H    1.782045   0.000000
    13  H    1.775317   1.770976   0.000000
    14  H    2.489954   2.511333   3.074727   0.000000
    15  H    2.846185   4.056593   3.569352   2.487318   0.000000
    16  H    4.700379   4.531389   4.308771   2.832301   3.506699
    17  H    5.914196   4.820932   4.966201   4.386787   5.993623
    18  H    6.621858   5.829217   5.993786   4.598133   5.981410
    19  H    7.115149   6.783734   5.871783   6.146097   6.278606
                   16         17         18         19
    16  H    0.000000
    17  H    2.965588   0.000000
    18  H    2.550893   1.767026   0.000000
    19  H    3.725492   3.761756   3.916829   0.000000
 Stoichiometry    C5H9NO3S
 Framework group  C1[X(C5H9NO3S)]
 Deg. of freedom    51
 Full point group                 C1      NOp   1
 RotChk:  IX=3 Diff= 2.37D-02
 Largest Abelian subgroup         C1      NOp   1
 Largest concise Abelian subgroup C1      NOp   1
                         Standard orientation:                         
 ---------------------------------------------------------------------
 Center     Atomic      Atomic             Coordinates (Angstroms)
 Number     Number       Type             X           Y           Z
 ---------------------------------------------------------------------
      1          6           0       -2.996557   -0.897136    0.713013
      2          6           0       -2.034131   -0.267976   -0.292142
      3         16           0       -1.949849    1.589555   -0.133371
      4          6           0       -0.624913   -0.888260   -0.179650
      5          8           0       -0.457030   -1.969597    0.368028
      6          7           0        0.383236   -0.200213   -0.791163
      7          6           0        1.750759   -0.659059   -0.735452
      8          6           0        2.701178    0.179543    0.111029
      9          8           0        3.904917    0.058525    0.079785
     10          8           0        2.059950    1.053968    0.917212
     11          1           0       -4.010673   -0.515319    0.561596
     12          1           0       -3.001167   -1.983561    0.590682
     13          1           0       -2.689677   -0.670459    1.737459
     14          1           0       -2.374271   -0.472408   -1.314629
     15          1           0       -3.115554    1.837669   -0.766178
     16          1           0        0.187462    0.724502   -1.150734
     17          1           0        1.724766   -1.667259   -0.307592
     18          1           0        2.197345   -0.734728   -1.732175
     19          1           0        2.755984    1.504328    1.432646
 ---------------------------------------------------------------------
 Rotational constants (GHZ):           1.9978548           0.6015410           0.5106914
 Leave Link  202 at Fri Mar 14 15:16:01 2025, MaxMem=  8589934592 cpu:               0.2 elap:               0.3
 (Enter /home/enzo/gaussian_versions/gdv.j21/gdv/l301.exe)
 Standard basis: 6-31G(d) (6D, 7F)
 Ernie: Thresh=  0.10000D-02 Tol=  0.10000D-05 Strict=F.
 There are   172 symmetry adapted cartesian basis functions of A   symmetry.
 There are   172 symmetry adapted basis functions of A   symmetry.
   172 basis functions,   340 primitive gaussians,   172 cartesian basis functions
    43 alpha electrons       43 beta electrons
       nuclear repulsion energy       623.3000389181 Hartrees.
 IExCor=      4002 DFT=T Ex+Corr=B3LYP ScaHFX=  0.200000
 ScaDFX=  0.800000  0.720000  1.000000  0.810000  1.000000  0.000000
 ScaDFX=  0.000000  0.000000  0.000000  0.000000  0.000000  0.000000
 IRadAn=      5 IRanWt=     -1 IRanGd=            0 ICorTp=0 IEmpDi=  4
 NAtoms=   19 NActive=   19 NUniq=   19 SFac= 1.00D+00 NAtFMM=   60 NAOKFM=F Big=F
 Integral buffers will be    131072 words long.
 Raffenetti 2 integral format.
 Two-electron integral symmetry is turned on.
 Leave Link  301 at Fri Mar 14 15:16:01 2025, MaxMem=  8589934592 cpu:               0.6 elap:               0.3
 (Enter /home/enzo/gaussian_versions/gdv.j21/gdv/l302.exe)
 NPDir=0 NMtPBC=     1 NCelOv=     1 NCel=       1 NClECP=     1 NCelD=      1
         NCelK=      1 NCelE2=     1 NClLst=     1 CellRange=     0.0.
 One-electron integrals computed using PRISM.
 One-electron integral symmetry used in STVInt
 NBasis=   172 RedAO= T EigKep=  2.96D-03  NBF=   172
 NBsUse=   172 1.00D-06 EigRej= -1.00D+00 NBFU=   172
 Precomputing XC quadrature grid using
 IXCGrd= 4 IRadAn=           5 IRanWt=          -1 IRanGd=           0 AccXCQ= 0.00D+00.
 Generated NRdTot=       0 NPtTot=      407819 NUsed=           0 NTot=          64
 NSgBfM=   171   171   171   171   171 MxSgAt=    19 MxSgA2=    19 SizInc=   0.000
 NMBTot=     3480 MaxBatPerAtom=       85 MaxMicBPerAtom=      201 NBfPt=            51067309.
 Leave Link  302 at Fri Mar 14 15:16:02 2025, MaxMem=  8589934592 cpu:               4.9 elap:               0.9
 (Enter /home/enzo/gaussian_versions/gdv.j21/gdv/l303.exe)
 DipDrv:  MaxL=1.
 Leave Link  303 at Fri Mar 14 15:16:02 2025, MaxMem=  8589934592 cpu:               0.6 elap:               0.2
 (Enter /home/enzo/gaussian_versions/gdv.j21/gdv/l401.exe)
 Initial guess from the checkpoint file:  "/local/home/enzo/scratch/Gau-2337652.chk"
 B after Tr=     0.000000   -0.000000   -0.000000
         Rot=    0.999987    0.004939   -0.000024   -0.001406 Ang=   0.59 deg.
 AO Guess basis will be translated and rotated to current coordinates.
 JPrj=2 DoOrth=T DoCkMO=T.
 Generating alternative initial guess.
 ExpMin= 1.17D-01 ExpMax= 2.19D+04 ExpMxC= 3.30D+03 IAcc=3 IRadAn=         5 AccDes= 0.00D+00
 Harris functional with IExCor= 4002 and IRadAn=       5 diagonalized for initial guess.
 HarFok:  IExCor=    4002 AccDes= 0.00D+00 IRadAn=         5 IDoV= 1 UseB2=F ITyADJ=14 ICtDFT=  3500011
 FoFCou: FMM=F IPFlag=           0 FMFlag=      100000 FMFlg1=           0
         NFxFlg=           0 DoJE=T BraDBF=F KetDBF=T FulRan=T
         wScrn=  0.000000 ICntrl=       500 IOpCl=  0 I1Cent=   200000004 NGrid=           0
         NMat0=    1 NMatS0=      1 NMatT0=    0 NMatD0=    1 NMtDS0=    0 NMtDT0=    0
 Petite list used in FoFCou.
 Harris En= -874.548029506714    
 Leave Link  401 at Fri Mar 14 15:16:04 2025, MaxMem=  8589934592 cpu:               8.5 elap:               1.4
 (Enter /home/enzo/gaussian_versions/gdv.j21/gdv/l502.exe)
 Integral symmetry usage will be decided dynamically.
 Closed shell SCF:
 Using DIIS extrapolation, IDIIS=  1040.
 NGot=  8589934592 LenX=  8589843591 LenY=  8589813566
 Requested convergence on RMS density matrix=1.00D-08 within 128 cycles.
 Requested convergence on MAX density matrix=1.00D-06.
 Requested convergence on             energy=1.00D-06.
 No special actions if energy rises.
 Fock matrices will be formed incrementally for  20 cycles.
 Integral accuracy reduced to 1.0D-05 until final iterations.

 Cycle   1  Pass 0  IDiag  1:
 FoFJK:  IHMeth= 1 ICntrl=       0 DoSepK=F KAlg= 0 I1Cent=           0 FoldK=F
 IRaf= 900000000 NMat=       1 IRICut=       1 DoRegI=T DoRafI=F ISym2E= 0 IDoP0=0 IntGTp=1.
 FoFCou: FMM=F IPFlag=           0 FMFlag=      100000 FMFlg1=           0
         NFxFlg=           0 DoJE=F BraDBF=F KetDBF=F FulRan=T
         wScrn=  0.000000 ICntrl=         0 IOpCl=  0 I1Cent=           0 NGrid=           0
         NMat0=    1 NMatS0=      1 NMatT0=    0 NMatD0=    1 NMtDS0=    0 NMtDT0=    0
 Symmetry not used in FoFCou.
 E= -874.573119076222    
 DIIS: error= 3.75D-03 at cycle   1 NSaved=   1.
 NSaved= 1 IEnMin= 1 EnMin= -874.573119076222     IErMin= 1 ErrMin= 3.75D-03
 ErrMax= 3.75D-03  0.00D+00 EMaxC= 1.00D-01 BMatC= 5.43D-03 BMatP= 5.43D-03
 IDIUse=3 WtCom= 9.62D-01 WtEn= 3.75D-02
 Coeff-Com:  0.100D+01
 Coeff-En:   0.100D+01
 Coeff:      0.100D+01
 Gap=     1.623 Goal=   None    Shift=    0.000
 GapD=    1.623 DampG=2.000 DampE=1.000 DampFc=2.0000 IDamp=-1.
 RMSDP=7.43D-04 MaxDP=2.09D-02              OVMax= 2.66D-02

 Cycle   2  Pass 0  IDiag  1:
 RMSU=  7.43D-04    CP:  9.99D-01
 E= -874.583208201791     Delta-E=       -0.010089125569 Rises=F Damp=F
 DIIS: error= 5.21D-04 at cycle   2 NSaved=   2.
 NSaved= 2 IEnMin= 2 EnMin= -874.583208201791     IErMin= 2 ErrMin= 5.21D-04
 ErrMax= 5.21D-04  0.00D+00 EMaxC= 1.00D-01 BMatC= 9.72D-05 BMatP= 5.43D-03
 IDIUse=3 WtCom= 9.95D-01 WtEn= 5.21D-03
 Coeff-Com: -0.683D-01 0.107D+01
 Coeff-En:   0.000D+00 0.100D+01
 Coeff:     -0.679D-01 0.107D+01
 Gap=     0.254 Goal=   None    Shift=    0.000
 RMSDP=1.11D-04 MaxDP=2.14D-03 DE=-1.01D-02 OVMax= 3.55D-03

 Cycle   3  Pass 0  IDiag  1:
 RMSU=  9.15D-05    CP:  9.99D-01  1.08D+00
 E= -874.583324114492     Delta-E=       -0.000115912701 Rises=F Damp=F
 DIIS: error= 4.04D-04 at cycle   3 NSaved=   3.
 NSaved= 3 IEnMin= 3 EnMin= -874.583324114492     IErMin= 3 ErrMin= 4.04D-04
 ErrMax= 4.04D-04  0.00D+00 EMaxC= 1.00D-01 BMatC= 4.75D-05 BMatP= 9.72D-05
 IDIUse=3 WtCom= 9.96D-01 WtEn= 4.04D-03
 Coeff-Com: -0.382D-01 0.467D+00 0.572D+00
 Coeff-En:   0.000D+00 0.000D+00 0.100D+01
 Coeff:     -0.381D-01 0.465D+00 0.573D+00
 Gap=     0.254 Goal=   None    Shift=    0.000
 RMSDP=4.79D-05 MaxDP=1.26D-03 DE=-1.16D-04 OVMax= 1.46D-03

 Cycle   4  Pass 0  IDiag  1:
 RMSU=  3.51D-05    CP:  9.99D-01  1.10D+00  6.58D-01
 E= -874.583353672941     Delta-E=       -0.000029558449 Rises=F Damp=F
 DIIS: error= 2.06D-04 at cycle   4 NSaved=   4.
 NSaved= 4 IEnMin= 4 EnMin= -874.583353672941     IErMin= 4 ErrMin= 2.06D-04
 ErrMax= 2.06D-04  0.00D+00 EMaxC= 1.00D-01 BMatC= 1.36D-05 BMatP= 4.75D-05
 IDIUse=3 WtCom= 9.98D-01 WtEn= 2.06D-03
 Coeff-Com: -0.137D-01 0.153D+00 0.360D+00 0.501D+00
 Coeff-En:   0.000D+00 0.000D+00 0.201D+00 0.799D+00
 Coeff:     -0.136D-01 0.152D+00 0.359D+00 0.502D+00
 Gap=     0.254 Goal=   None    Shift=    0.000
 RMSDP=1.92D-05 MaxDP=7.30D-04 DE=-2.96D-05 OVMax= 9.71D-04

 Cycle   5  Pass 0  IDiag  1:
 RMSU=  1.36D-05    CP:  9.99D-01  1.10D+00  7.30D-01  6.63D-01
 E= -874.583363235245     Delta-E=       -0.000009562303 Rises=F Damp=F
 DIIS: error= 5.80D-05 at cycle   5 NSaved=   5.
 NSaved= 5 IEnMin= 5 EnMin= -874.583363235245     IErMin= 5 ErrMin= 5.80D-05
 ErrMax= 5.80D-05  0.00D+00 EMaxC= 1.00D-01 BMatC= 1.19D-06 BMatP= 1.36D-05
 IDIUse=1 WtCom= 1.00D+00 WtEn= 0.00D+00
 Coeff-Com: -0.391D-02 0.388D-01 0.156D+00 0.296D+00 0.513D+00
 Coeff:     -0.391D-02 0.388D-01 0.156D+00 0.296D+00 0.513D+00
 Gap=     0.254 Goal=   None    Shift=    0.000
 RMSDP=7.02D-06 MaxDP=2.05D-04 DE=-9.56D-06 OVMax= 3.77D-04

 Initial convergence to 1.0D-05 achieved.  Increase integral accuracy.
 Cycle   6  Pass 1  IDiag  1:
 E= -874.583359708739     Delta-E=        0.000003526506 Rises=F Damp=F
 DIIS: error= 2.83D-05 at cycle   1 NSaved=   1.
 NSaved= 1 IEnMin= 1 EnMin= -874.583359708739     IErMin= 1 ErrMin= 2.83D-05
 ErrMax= 2.83D-05  0.00D+00 EMaxC= 1.00D-01 BMatC= 1.81D-07 BMatP= 1.81D-07
 IDIUse=1 WtCom= 1.00D+00 WtEn= 0.00D+00
 Coeff-Com:  0.100D+01
 Coeff:      0.100D+01
 Gap=     0.254 Goal=   None    Shift=    0.000
 RMSDP=7.02D-06 MaxDP=2.05D-04 DE= 3.53D-06 OVMax= 3.04D-04

 Cycle   7  Pass 1  IDiag  1:
 RMSU=  6.37D-06    CP:  1.00D+00
 E= -874.583359401519     Delta-E=        0.000000307220 Rises=F Damp=F
 DIIS: error= 4.79D-05 at cycle   2 NSaved=   2.
 NSaved= 2 IEnMin= 1 EnMin= -874.583359708739     IErMin= 1 ErrMin= 2.83D-05
 ErrMax= 4.79D-05  0.00D+00 EMaxC= 1.00D-01 BMatC= 6.06D-07 BMatP= 1.81D-07
 IDIUse=1 WtCom= 1.00D+00 WtEn= 0.00D+00
 Coeff-Com:  0.653D+00 0.347D+00
 Coeff:      0.653D+00 0.347D+00
 Gap=     0.254 Goal=   None    Shift=    0.000
 RMSDP=3.80D-06 MaxDP=1.12D-04 DE= 3.07D-07 OVMax= 2.26D-04

 Cycle   8  Pass 1  IDiag  1:
 RMSU=  2.18D-06    CP:  1.00D+00  5.12D-01
 E= -874.583359848693     Delta-E=       -0.000000447175 Rises=F Damp=F
 DIIS: error= 4.51D-06 at cycle   3 NSaved=   3.
 NSaved= 3 IEnMin= 3 EnMin= -874.583359848693     IErMin= 3 ErrMin= 4.51D-06
 ErrMax= 4.51D-06  0.00D+00 EMaxC= 1.00D-01 BMatC= 9.38D-09 BMatP= 1.81D-07
 IDIUse=1 WtCom= 1.00D+00 WtEn= 0.00D+00
 Coeff-Com:  0.242D+00 0.163D+00 0.595D+00
 Coeff:      0.242D+00 0.163D+00 0.595D+00
 Gap=     0.254 Goal=   None    Shift=    0.000
 RMSDP=6.53D-07 MaxDP=2.46D-05 DE=-4.47D-07 OVMax= 3.07D-05

 Cycle   9  Pass 1  IDiag  1:
 RMSU=  5.46D-07    CP:  1.00D+00  5.50D-01  8.81D-01
 E= -874.583359853877     Delta-E=       -0.000000005183 Rises=F Damp=F
 DIIS: error= 4.09D-06 at cycle   4 NSaved=   4.
 NSaved= 4 IEnMin= 4 EnMin= -874.583359853877     IErMin= 4 ErrMin= 4.09D-06
 ErrMax= 4.09D-06  0.00D+00 EMaxC= 1.00D-01 BMatC= 3.01D-09 BMatP= 9.38D-09
 IDIUse=1 WtCom= 1.00D+00 WtEn= 0.00D+00
 Coeff-Com:  0.217D-01 0.333D-01 0.384D+00 0.561D+00
 Coeff:      0.217D-01 0.333D-01 0.384D+00 0.561D+00
 Gap=     0.254 Goal=   None    Shift=    0.000
 RMSDP=2.45D-07 MaxDP=9.30D-06 DE=-5.18D-09 OVMax= 8.99D-06

 Cycle  10  Pass 1  IDiag  1:
 RMSU=  1.42D-07    CP:  1.00D+00  5.47D-01  9.28D-01  6.90D-01
 E= -874.583359856117     Delta-E=       -0.000000002241 Rises=F Damp=F
 DIIS: error= 4.30D-07 at cycle   5 NSaved=   5.
 NSaved= 5 IEnMin= 5 EnMin= -874.583359856117     IErMin= 5 ErrMin= 4.30D-07
 ErrMax= 4.30D-07  0.00D+00 EMaxC= 1.00D-01 BMatC= 5.48D-11 BMatP= 3.01D-09
 IDIUse=1 WtCom= 1.00D+00 WtEn= 0.00D+00
 Coeff-Com: -0.802D-02 0.225D-02 0.111D+00 0.213D+00 0.681D+00
 Coeff:     -0.802D-02 0.225D-02 0.111D+00 0.213D+00 0.681D+00
 Gap=     0.254 Goal=   None    Shift=    0.000
 RMSDP=5.52D-08 MaxDP=1.95D-06 DE=-2.24D-09 OVMax= 1.83D-06

 Cycle  11  Pass 1  IDiag  1:
 RMSU=  4.78D-08    CP:  1.00D+00  5.50D-01  9.30D-01  6.93D-01  8.48D-01
 E= -874.583359856172     Delta-E=       -0.000000000054 Rises=F Damp=F
 DIIS: error= 9.49D-08 at cycle   6 NSaved=   6.
 NSaved= 6 IEnMin= 6 EnMin= -874.583359856172     IErMin= 6 ErrMin= 9.49D-08
 ErrMax= 9.49D-08  0.00D+00 EMaxC= 1.00D-01 BMatC= 5.89D-12 BMatP= 5.48D-11
 IDIUse=1 WtCom= 1.00D+00 WtEn= 0.00D+00
 Coeff-Com: -0.536D-02-0.112D-02 0.289D-01 0.648D-01 0.308D+00 0.605D+00
 Coeff:     -0.536D-02-0.112D-02 0.289D-01 0.648D-01 0.308D+00 0.605D+00
 Gap=     0.254 Goal=   None    Shift=    0.000
 RMSDP=1.77D-08 MaxDP=5.68D-07 DE=-5.43D-11 OVMax= 6.57D-07

 Cycle  12  Pass 1  IDiag  1:
 RMSU=  1.53D-08    CP:  1.00D+00  5.50D-01  9.31D-01  7.00D-01  8.91D-01
                    CP:  9.00D-01
 E= -874.583359856178     Delta-E=       -0.000000000006 Rises=F Damp=F
 DIIS: error= 3.95D-08 at cycle   7 NSaved=   7.
 NSaved= 7 IEnMin= 7 EnMin= -874.583359856178     IErMin= 7 ErrMin= 3.95D-08
 ErrMax= 3.95D-08  0.00D+00 EMaxC= 1.00D-01 BMatC= 8.48D-13 BMatP= 5.89D-12
 IDIUse=1 WtCom= 1.00D+00 WtEn= 0.00D+00
 Coeff-Com: -0.951D-03-0.873D-03-0.602D-02-0.847D-02 0.105D-01 0.277D+00
 Coeff-Com:  0.729D+00
 Coeff:     -0.951D-03-0.873D-03-0.602D-02-0.847D-02 0.105D-01 0.277D+00
 Coeff:      0.729D+00
 Gap=     0.254 Goal=   None    Shift=    0.000
 RMSDP=7.39D-09 MaxDP=2.10D-07 DE=-6.14D-12 OVMax= 3.79D-07

 SCF Done:  E(RB3LYP) =  -874.583359856     A.U. after   12 cycles
            NFock= 12  Conv=0.74D-08     -V/T= 2.0064
 KE= 8.690032362779D+02 PE=-3.306401595545D+03 EE= 9.395149604923D+02
 Leave Link  502 at Fri Mar 14 15:16:12 2025, MaxMem=  8589934592 cpu:              69.7 elap:               8.1
 (Enter /home/enzo/gaussian_versions/gdv.j21/gdv/l701.exe)
 ... and contract with generalized density number  0.
 Compute integral first derivatives.
 Leave Link  701 at Fri Mar 14 15:16:12 2025, MaxMem=  8589934592 cpu:               1.3 elap:               0.5
 (Enter /home/enzo/gaussian_versions/gdv.j21/gdv/l702.exe)
 L702 exits ... SP integral derivatives will be done elsewhere.
 Leave Link  702 at Fri Mar 14 15:16:13 2025, MaxMem=  8589934592 cpu:               0.2 elap:               0.2
 (Enter /home/enzo/gaussian_versions/gdv.j21/gdv/l703.exe)
 Integral derivatives from FoFJK, PRISM(SPDF).
 Compute integral first derivatives, UseDBF=F ICtDFT=           0.
 Calling FoFJK, ICntrl=      2127 FMM=F ISym2X=0 I1Cent= 0 IOpClX= 0 NMat=1 NMatS=1 NMatT=0.
 FoFJK:  IHMeth= 1 ICntrl=    2127 DoSepK=F KAlg= 0 I1Cent=           0 FoldK=F
 IRaf=         0 NMat=       1 IRICut=       1 DoRegI=T DoRafI=F ISym2E= 0 IDoP0=0 IntGTp=1.
 FoFCou: FMM=F IPFlag=           0 FMFlag=      100000 FMFlg1=         800
         NFxFlg=           0 DoJE=F BraDBF=F KetDBF=F FulRan=T
         wScrn=  0.000000 ICntrl=      2127 IOpCl=  0 I1Cent=           0 NGrid=           0
         NMat0=    1 NMatS0=      1 NMatT0=    0 NMatD0=    1 NMtDS0=    0 NMtDT0=    0
 Symmetry not used in FoFCou.
 Leave Link  703 at Fri Mar 14 15:16:15 2025, MaxMem=  8589934592 cpu:              14.4 elap:               2.1
 (Enter /home/enzo/gaussian_versions/gdv.j21/gdv/l716.exe)
 Dipole        =-8.09954728D-01 8.02891279D-01-6.52967545D-01
 ***** Axes restored to original set *****
 -------------------------------------------------------------------
 Center     Atomic                   Forces (Hartrees/Bohr)
 Number     Number              X              Y              Z
 -------------------------------------------------------------------
      1        6          -0.000037242   -0.000238999   -0.000110217
      2        6          -0.000181448    0.000313982    0.000188751
      3       16           0.000128732    0.000178344   -0.000139948
      4        6           0.000683769    0.000365156    0.000556920
      5        8           0.000207749    0.000044572    0.000310585
      6        7          -0.001389220   -0.000828748   -0.001526351
      7        6          -0.000313193    0.000521478    0.000400762
      8        6          -0.000122426    0.001188477    0.000692885
      9        8           0.001241376   -0.000291761   -0.000289289
     10        8          -0.000249176   -0.000078170    0.000221174
     11        1           0.000059733   -0.000023349   -0.000027528
     12        1          -0.000028262    0.000055605   -0.000098444
     13        1          -0.000054518    0.000053115    0.000049295
     14        1           0.000030940   -0.000205547    0.000076532
     15        1           0.000105467    0.000021225    0.000075476
     16        1           0.000118406   -0.000435319    0.000347962
     17        1          -0.000719207   -0.000225709    0.000000612
     18        1           0.000427183   -0.000123658   -0.000634338
     19        1           0.000091338   -0.000290693   -0.000094839
 -------------------------------------------------------------------
 Cartesian Forces:  Max     0.001526351 RMS     0.000463735
 Leave Link  716 at Fri Mar 14 15:16:15 2025, MaxMem=  8589934592 cpu:               0.2 elap:               0.2
 (Enter /home/enzo/gaussian_versions/gdv.j21/gdv/l103.exe)

 GradGradGradGradGradGradGradGradGradGradGradGradGradGradGradGradGradGrad
 Berny optimization.
 Using GEDIIS/GDIIS optimizer.
 FormGI is forming the generalized inverse of G from B-inverse, IUseBI=4.
 Internal  Forces:  Max     0.001265258 RMS     0.000337182
 Search for a local minimum.
 Step number  18 out of a maximum of   93
 All quantities printed in internal units (Hartrees-Bohrs-Radians)
 RMS Force = .33718D-03 SwitMx=.10000D-02 MixMth= 2
 Mixed Optimization -- En-DIIS/RFO-DIIS
 Swapping is turned off.
 Update second derivatives using D2CorX and points   15   16   17   18
 DE= -1.29D-04 DEPred=-1.68D-04 R= 7.66D-01
 TightC=F SS=  1.41D+00  RLast= 3.29D-01 DXNew= 3.0969D+00 9.8606D-01
 Trust test= 7.66D-01 RLast= 3.29D-01 DXMaxT set to 1.84D+00
 ITU=  1  1  0 -1  1  1  0  1 -1  1  1  1  1  0  0  1  1  0
     Eigenvalues ---    0.00078   0.00109   0.00385   0.00512   0.00592
     Eigenvalues ---    0.00813   0.01682   0.02021   0.03927   0.04356
     Eigenvalues ---    0.04853   0.05030   0.05599   0.05713   0.05749
     Eigenvalues ---    0.06391   0.07935   0.10464   0.14723   0.15707
     Eigenvalues ---    0.15969   0.16011   0.16082   0.16650   0.17363
     Eigenvalues ---    0.18074   0.21034   0.21697   0.22046   0.22201
     Eigenvalues ---    0.24416   0.25013   0.25996   0.26613   0.28575
     Eigenvalues ---    0.29975   0.32322   0.32439   0.32603   0.32622
     Eigenvalues ---    0.32683   0.32942   0.33095   0.34577   0.39383
     Eigenvalues ---    0.40950   0.45374   0.46195   0.51055   0.78730
     Eigenvalues ---    0.86167
 En-DIIS/RFO-DIIS/Sim-DIIS IScMMF=       -3 using points:    18   17
 RFO step:  Lambda=-1.48544694D-04.
 NNeg= 0 NGDIIS= 2 SimSw=  2.50D-01 Rises=F DC= -1.29D-04 SmlDif=  1.00D-05
 NRisDI= 0 DoIntr=F SqrtH=F CThrHd= 10.0 CDAdj=  3.0
 RMS Error=  0.3079143213D-01 NUsed= 2 OKEnD=T EnDIS=F
 InvSVX:  RCond= 9.61D-02 Info=           0 Equed=N FErr=  3.32D-15 BErr=  6.13D-17
 DidBck=TT Rises=F RFO-DIIS coefs:    0.58417    0.41583
 Iteration  1 RMS(Cart)=  0.04537991 RMS(Int)=  0.00106271
 Iteration  2 RMS(Cart)=  0.00141374 RMS(Int)=  0.00004640
 Iteration  3 RMS(Cart)=  0.00000143 RMS(Int)=  0.00004640
 Iteration  4 RMS(Cart)=  0.00000000 RMS(Int)=  0.00004640
 Variable       Old X    -DE/DX   Delta X   Delta X   Delta X     New X
                                 (Linear)    (Quad)   (Total)
    R1        2.88605  -0.00022   0.00038  -0.00448  -0.00410   2.88195
    R2        2.06762   0.00006  -0.00000   0.00063   0.00063   2.06825
    R3        2.06604   0.00009   0.00027  -0.00007   0.00020   2.06624
    R4        2.06581   0.00007  -0.00015   0.00019   0.00004   2.06586
    R5        3.52662  -0.00023   0.00067  -0.00350  -0.00283   3.52380
    R6        2.91735  -0.00004  -0.00109   0.00253   0.00144   2.91879
    R7        2.07265  -0.00003   0.00000   0.00008   0.00008   2.07273
    R8        2.54999   0.00006   0.00041  -0.00026   0.00015   2.55014
    R9        2.31245   0.00006  -0.00027  -0.00109  -0.00136   2.31109
   R10        2.57982   0.00127   0.00096   0.00113   0.00210   2.58191
   R11        2.72787  -0.00014  -0.00036   0.00369   0.00332   2.73119
   R12        1.91107   0.00044   0.00014   0.00038   0.00051   1.91158
   R13        2.88026  -0.00043   0.00022   0.00133   0.00155   2.88181
   R14        2.07027  -0.00025  -0.00096  -0.00099  -0.00196   2.06832
   R15        2.06890   0.00043   0.00088  -0.00172  -0.00084   2.06806
   R16        2.28697  -0.00123   0.00038  -0.00053  -0.00015   2.28682
   R17        2.55339   0.00019  -0.00089  -0.00117  -0.00206   2.55133
   R18        1.84474  -0.00006   0.00045  -0.00139  -0.00094   1.84380
    A1        1.92756   0.00000   0.00008   0.00066   0.00073   1.92829
    A2        1.91600  -0.00011  -0.00089   0.00186   0.00097   1.91696
    A3        1.93312   0.00002   0.00028   0.00036   0.00065   1.93376
    A4        1.90432   0.00003  -0.00053  -0.00080  -0.00133   1.90300
    A5        1.89391   0.00003   0.00137  -0.00194  -0.00056   1.89334
    A6        1.88819   0.00003  -0.00031  -0.00022  -0.00053   1.88766
    A7        1.96331  -0.00010   0.00070   0.00203   0.00272   1.96602
    A8        1.94095  -0.00019   0.00084  -0.00006   0.00077   1.94173
    A9        1.91915   0.00000  -0.00101   0.00621   0.00519   1.92434
   A10        1.93104   0.00030  -0.00340  -0.00537  -0.00878   1.92226
   A11        1.85338  -0.00010   0.00031  -0.00188  -0.00159   1.85180
   A12        1.85056   0.00009   0.00267  -0.00103   0.00163   1.85219
   A13        1.67509  -0.00001  -0.00026  -0.00283  -0.00309   1.67200
   A14        2.10935  -0.00057   0.00196  -0.00020   0.00176   2.11111
   A15        2.02523   0.00052  -0.00148  -0.00155  -0.00303   2.02220
   A16        2.14663   0.00005  -0.00030   0.00132   0.00102   2.14765
   A17        2.12011  -0.00017   0.00335  -0.00520  -0.00164   2.11847
   A18        2.06821  -0.00006   0.00315  -0.00734  -0.00399   2.06422
   A19        2.08033   0.00018  -0.00174  -0.00213  -0.00364   2.07669
   A20        2.02337  -0.00079  -0.00201  -0.00072  -0.00273   2.02064
   A21        1.85993   0.00094   0.00485  -0.00450   0.00035   1.86028
   A22        1.95332  -0.00046  -0.00200  -0.00434  -0.00634   1.94699
   A23        1.87993  -0.00040   0.00075   0.00028   0.00102   1.88096
   A24        1.86427   0.00089  -0.00034   0.00107   0.00073   1.86500
   A25        1.87719  -0.00017  -0.00118   0.00930   0.00811   1.88531
   A26        2.15421  -0.00058  -0.00363   0.00769   0.00405   2.15826
   A27        1.97306   0.00053   0.00291  -0.00654  -0.00365   1.96941
   A28        2.15573   0.00006   0.00079  -0.00102  -0.00024   2.15549
   A29        1.84962   0.00020  -0.00033   0.00227   0.00194   1.85155
    D1        1.05463  -0.00010   0.00598  -0.01345  -0.00747   1.04716
    D2       -3.05140   0.00008   0.00265  -0.01906  -0.01642  -3.06782
    D3       -1.00707   0.00008   0.00582  -0.01650  -0.01068  -1.01775
    D4       -3.12802  -0.00013   0.00479  -0.01283  -0.00803  -3.13605
    D5       -0.95087   0.00004   0.00147  -0.01844  -0.01698  -0.96784
    D6        1.09347   0.00005   0.00464  -0.01588  -0.01124   1.08223
    D7       -1.04400  -0.00015   0.00402  -0.01169  -0.00767  -1.05166
    D8        1.13316   0.00002   0.00069  -0.01730  -0.01661   1.11655
    D9       -3.10570   0.00002   0.00386  -0.01474  -0.01087  -3.11657
   D10       -1.35160   0.00011   0.03570   0.04507   0.08077  -1.27082
   D11        2.74900   0.00020   0.03670   0.04776   0.08447   2.83347
   D12        0.74847  -0.00001   0.03507   0.05264   0.08770   0.83617
   D13        0.32781  -0.00014  -0.01627  -0.04890  -0.06517   0.26264
   D14       -2.87932  -0.00013  -0.01298  -0.05607  -0.06905  -2.94837
   D15        2.52301  -0.00018  -0.01729  -0.05033  -0.06761   2.45540
   D16       -0.68412  -0.00017  -0.01400  -0.05749  -0.07149  -0.75561
   D17       -1.75787  -0.00010  -0.01715  -0.05573  -0.07287  -1.83074
   D18        1.31818  -0.00009  -0.01385  -0.06290  -0.07675   1.24143
   D19        3.11831  -0.00007   0.01630  -0.04480  -0.02858   3.08972
   D20        0.16061   0.00018  -0.02475   0.04729   0.02263   0.18324
   D21       -0.09036  -0.00008   0.01975  -0.05220  -0.03253  -0.12289
   D22       -3.04806   0.00017  -0.02130   0.03989   0.01868  -3.02938
   D23       -1.91761   0.00038  -0.00457   0.08705   0.08245  -1.83516
   D24        0.17399   0.00006  -0.00131   0.08367   0.08231   0.25631
   D25        2.22154   0.00017  -0.00089   0.08980   0.08887   2.31040
   D26        1.03884   0.00010   0.03699  -0.00620   0.03085   1.06969
   D27        3.13045  -0.00022   0.04025  -0.00958   0.03071  -3.12203
   D28       -1.10520  -0.00011   0.04068  -0.00345   0.03726  -1.06793
   D29       -2.91984   0.00051   0.03910  -0.02027   0.01885  -2.90099
   D30        0.24185   0.00008   0.03346  -0.02702   0.00644   0.24829
   D31        1.28263   0.00011   0.03361  -0.01424   0.01939   1.30202
   D32       -1.83886  -0.00033   0.02797  -0.02099   0.00697  -1.83189
   D33       -0.72966   0.00006   0.03478  -0.02566   0.00913  -0.72054
   D34        2.43203  -0.00038   0.02914  -0.03241  -0.00329   2.42874
   D35        3.10145   0.00048   0.01055  -0.00455   0.00597   3.10742
   D36       -0.02003   0.00005   0.00492  -0.01143  -0.00648  -0.02650
         Item               Value     Threshold  Converged?
 Maximum Force            0.001265     0.000450     NO 
 RMS     Force            0.000337     0.000300     NO 
 Maximum Displacement     0.188730     0.001800     NO 
 RMS     Displacement     0.045702     0.001200     NO 
 Predicted change in Energy=-7.835869D-05
 Lowest energy point so far.  Saving SCF results.
 GradGradGradGradGradGradGradGradGradGradGradGradGradGradGradGradGradGrad

 Leave Link  103 at Fri Mar 14 15:16:15 2025, MaxMem=  8589934592 cpu:               1.1 elap:               0.3
 (Enter /home/enzo/gaussian_versions/gdv.j21/gdv/l202.exe)
                          Input orientation:                          
 ---------------------------------------------------------------------
 Center     Atomic      Atomic             Coordinates (Angstroms)
 Number     Number       Type             X           Y           Z
 ---------------------------------------------------------------------
      1          6           0        3.015750    1.132995    0.490056
      2          6           0        2.052206    0.222841   -0.264282
      3         16           0        1.899032   -1.464141    0.515322
      4          6           0        0.658276    0.873891   -0.401213
      5          8           0        0.497977    2.067697   -0.189562
      6          7           0       -0.340262    0.055818   -0.848905
      7          6           0       -1.703125    0.523707   -0.960840
      8          6           0       -2.665917    0.024003    0.111031
      9          8           0       -3.869395    0.120995    0.029487
     10          8           0       -2.032837   -0.530485    1.166745
     11          1           0        4.017772    0.693440    0.514784
     12          1           0        3.066284    2.108430   -0.001380
     13          1           0        2.679368    1.286878    1.518774
     14          1           0        2.411249    0.053909   -1.286831
     15          1           0        3.114476   -1.904244    0.127904
     16          1           0       -0.156721   -0.937336   -0.905687
     17          1           0       -1.665208    1.615455   -0.893084
     18          1           0       -2.140696    0.259561   -1.928522
     19          1           0       -2.731836   -0.783974    1.798511
 ---------------------------------------------------------------------
                    Distance matrix (angstroms):
                    1          2          3          4          5
     1  C    0.000000
     2  C    1.525065   0.000000
     3  S    2.827156   1.864712   0.000000
     4  C    2.533610   1.544558   2.801055   0.000000
     5  O    2.770330   2.413442   3.864414   1.222974   0.000000
     6  N    3.770404   2.468519   3.030813   1.366291   2.277067
     7  C    4.974345   3.831217   4.371056   2.451943   2.797074
     8  C    5.801281   4.737202   4.818380   3.469144   3.778527
     9  O    6.974345   5.929758   6.001954   4.610006   4.786603
    10  O    5.358480   4.393508   4.093368   3.416556   3.872356
    11  H    1.094471   2.166070   3.023941   3.486808   3.843650
    12  H    1.093406   2.157062   3.793774   2.735408   2.575514
    13  H    1.093204   2.169054   3.030503   2.818106   2.878638
    14  H    2.164988   1.096839   2.411347   2.128287   2.986628
    15  H    3.060346   2.409712   1.349476   3.745786   4.766882
    16  H    4.037194   2.576192   2.553999   2.049208   3.157798
    17  H    4.904815   4.019196   4.916435   2.488058   2.319231
    18  H    5.762061   4.511261   5.026224   3.247201   3.640870
    19  H    6.198514   5.306208   4.853261   4.368084   4.745119
                    6          7          8          9         10
     6  N    0.000000
     7  C    1.445283   0.000000
     8  C    2.516179   1.524986   0.000000
     9  O    3.637389   2.415709   1.210131   0.000000
    10  O    2.696554   2.397217   1.350103   2.256264   0.000000
    11  H    4.610713   5.910578   6.729254   7.922791   6.207489
    12  H    4.066457   5.116558   6.100458   7.214879   5.859131
    13  H    4.029836   5.092853   5.669979   6.816418   5.062767
    14  H    2.786144   4.153920   5.266168   6.417451   5.109936
    15  H    4.090380   5.503597   6.093551   7.272257   5.427820
    16  H    1.011566   2.128158   2.872970   3.972224   2.824945
    17  H    2.046925   1.094505   2.131287   2.818331   2.997183
    18  H    2.109181   1.094372   2.119227   2.615607   3.196324
    19  H    3.665199   3.222157   1.872101   2.289641   0.975697
                   11         12         13         14         15
    11  H    0.000000
    12  H    1.781559   0.000000
    13  H    1.775243   1.770739   0.000000
    14  H    2.497145   2.510480   3.076283   0.000000
    15  H    2.777334   4.015045   3.508147   2.516021   0.000000
    16  H    4.701442   4.525728   4.343793   2.778904   3.564259
    17  H    5.926927   4.839956   4.979996   4.383031   6.022962
    18  H    6.639633   5.851908   6.014337   4.601550   6.043821
    19  H    7.027654   6.724864   5.800673   6.055799   6.182661
                   16         17         18         19
    16  H    0.000000
    17  H    2.965204   0.000000
    18  H    2.532768   1.771065   0.000000
    19  H    3.737302   3.760271   3.915251   0.000000
 Stoichiometry    C5H9NO3S
 Framework group  C1[X(C5H9NO3S)]
 Deg. of freedom    51
 Full point group                 C1      NOp   1
 RotChk:  IX=0 Diff= 6.71D-03
 Largest Abelian subgroup         C1      NOp   1
 Largest concise Abelian subgroup C1      NOp   1
                         Standard orientation:                         
 ---------------------------------------------------------------------
 Center     Atomic      Atomic             Coordinates (Angstroms)
 Number     Number       Type             X           Y           Z
 ---------------------------------------------------------------------
      1          6           0       -2.994353   -0.900284    0.684827
      2          6           0       -2.020096   -0.266854   -0.302803
      3         16           0       -1.924853    1.587234   -0.128338
      4          6           0       -0.610946   -0.886110   -0.174447
      5          8           0       -0.437601   -1.935748    0.428773
      6          7           0        0.388746   -0.236111   -0.841431
      7          6           0        1.762744   -0.675332   -0.751674
      8          6           0        2.677082    0.180750    0.118206
      9          8           0        3.884239    0.096585    0.108010
     10          8           0        1.996473    1.037396    0.909224
     11          1           0       -4.004141   -0.506538    0.532647
     12          1           0       -3.009944   -1.984822    0.546729
     13          1           0       -2.692925   -0.692364    1.714877
     14          1           0       -2.344654   -0.459184   -1.332720
     15          1           0       -3.132927    1.837854   -0.674994
     16          1           0        0.190058    0.675480   -1.232315
     17          1           0        1.741478   -1.682498   -0.323764
     18          1           0        2.230497   -0.736843   -1.739133
     19          1           0        2.667523    1.507070    1.439397
 ---------------------------------------------------------------------
 Rotational constants (GHZ):           2.0032059           0.6093572           0.5183930
 Leave Link  202 at Fri Mar 14 15:16:16 2025, MaxMem=  8589934592 cpu:               0.1 elap:               0.2
 (Enter /home/enzo/gaussian_versions/gdv.j21/gdv/l301.exe)
 Standard basis: 6-31G(d) (6D, 7F)
 Ernie: Thresh=  0.10000D-02 Tol=  0.10000D-05 Strict=F.
 There are   172 symmetry adapted cartesian basis functions of A   symmetry.
 There are   172 symmetry adapted basis functions of A   symmetry.
   172 basis functions,   340 primitive gaussians,   172 cartesian basis functions
    43 alpha electrons       43 beta electrons
       nuclear repulsion energy       624.8767856334 Hartrees.
 IExCor=      4002 DFT=T Ex+Corr=B3LYP ScaHFX=  0.200000
 ScaDFX=  0.800000  0.720000  1.000000  0.810000  1.000000  0.000000
 ScaDFX=  0.000000  0.000000  0.000000  0.000000  0.000000  0.000000
 IRadAn=      5 IRanWt=     -1 IRanGd=            0 ICorTp=0 IEmpDi=  4
 NAtoms=   19 NActive=   19 NUniq=   19 SFac= 1.00D+00 NAtFMM=   60 NAOKFM=F Big=F
 Integral buffers will be    131072 words long.
 Raffenetti 2 integral format.
 Two-electron integral symmetry is turned on.
 Leave Link  301 at Fri Mar 14 15:16:16 2025, MaxMem=  8589934592 cpu:               0.5 elap:               0.3
 (Enter /home/enzo/gaussian_versions/gdv.j21/gdv/l302.exe)
 NPDir=0 NMtPBC=     1 NCelOv=     1 NCel=       1 NClECP=     1 NCelD=      1
         NCelK=      1 NCelE2=     1 NClLst=     1 CellRange=     0.0.
 One-electron integrals computed using PRISM.
 One-electron integral symmetry used in STVInt
 NBasis=   172 RedAO= T EigKep=  3.01D-03  NBF=   172
 NBsUse=   172 1.00D-06 EigRej= -1.00D+00 NBFU=   172
 Precomputing XC quadrature grid using
 IXCGrd= 4 IRadAn=           5 IRanWt=          -1 IRanGd=           0 AccXCQ= 0.00D+00.
 Generated NRdTot=       0 NPtTot=      407821 NUsed=           0 NTot=          64
 NSgBfM=   172   172   172   172   172 MxSgAt=    19 MxSgA2=    19 SizInc=   0.000
 NMBTot=     3463 MaxBatPerAtom=       85 MaxMicBPerAtom=      207 NBfPt=            51147377.
 Leave Link  302 at Fri Mar 14 15:16:17 2025, MaxMem=  8589934592 cpu:               5.0 elap:               0.8
 (Enter /home/enzo/gaussian_versions/gdv.j21/gdv/l303.exe)
 DipDrv:  MaxL=1.
 Leave Link  303 at Fri Mar 14 15:16:17 2025, MaxMem=  8589934592 cpu:               0.9 elap:               0.2
 (Enter /home/enzo/gaussian_versions/gdv.j21/gdv/l401.exe)
 Initial guess from the checkpoint file:  "/local/home/enzo/scratch/Gau-2337652.chk"
 B after Tr=    -0.000000    0.000000   -0.000000
         Rot=    0.999995    0.002154    0.001821   -0.001164 Ang=   0.35 deg.
 AO Guess basis will be translated and rotated to current coordinates.
 JPrj=2 DoOrth=T DoCkMO=T.
 Generating alternative initial guess.
 ExpMin= 1.17D-01 ExpMax= 2.19D+04 ExpMxC= 3.30D+03 IAcc=3 IRadAn=         5 AccDes= 0.00D+00
 Harris functional with IExCor= 4002 and IRadAn=       5 diagonalized for initial guess.
 HarFok:  IExCor=    4002 AccDes= 0.00D+00 IRadAn=         5 IDoV= 1 UseB2=F ITyADJ=14 ICtDFT=  3500011
 FoFCou: FMM=F IPFlag=           0 FMFlag=      100000 FMFlg1=           0
         NFxFlg=           0 DoJE=T BraDBF=F KetDBF=T FulRan=T
         wScrn=  0.000000 ICntrl=       500 IOpCl=  0 I1Cent=   200000004 NGrid=           0
         NMat0=    1 NMatS0=      1 NMatT0=    0 NMatD0=    1 NMtDS0=    0 NMtDT0=    0
 Petite list used in FoFCou.
 Harris En= -874.548008631749    
 Leave Link  401 at Fri Mar 14 15:16:18 2025, MaxMem=  8589934592 cpu:               8.0 elap:               1.2
 (Enter /home/enzo/gaussian_versions/gdv.j21/gdv/l502.exe)
 Integral symmetry usage will be decided dynamically.
 Closed shell SCF:
 Using DIIS extrapolation, IDIIS=  1040.
 NGot=  8589934592 LenX=  8589843591 LenY=  8589813566
 Requested convergence on RMS density matrix=1.00D-08 within 128 cycles.
 Requested convergence on MAX density matrix=1.00D-06.
 Requested convergence on             energy=1.00D-06.
 No special actions if energy rises.
 Fock matrices will be formed incrementally for  20 cycles.
 Integral accuracy reduced to 1.0D-05 until final iterations.

 Cycle   1  Pass 0  IDiag  1:
 FoFJK:  IHMeth= 1 ICntrl=       0 DoSepK=F KAlg= 0 I1Cent=           0 FoldK=F
 IRaf= 900000000 NMat=       1 IRICut=       1 DoRegI=T DoRafI=F ISym2E= 0 IDoP0=0 IntGTp=1.
 FoFCou: FMM=F IPFlag=           0 FMFlag=      100000 FMFlg1=           0
         NFxFlg=           0 DoJE=F BraDBF=F KetDBF=F FulRan=T
         wScrn=  0.000000 ICntrl=         0 IOpCl=  0 I1Cent=           0 NGrid=           0
         NMat0=    1 NMatS0=      1 NMatT0=    0 NMatD0=    1 NMtDS0=    0 NMtDT0=    0
 Symmetry not used in FoFCou.
 E= -874.578217642512    
 DIIS: error= 2.10D-03 at cycle   1 NSaved=   1.
 NSaved= 1 IEnMin= 1 EnMin= -874.578217642512     IErMin= 1 ErrMin= 2.10D-03
 ErrMax= 2.10D-03  0.00D+00 EMaxC= 1.00D-01 BMatC= 2.67D-03 BMatP= 2.67D-03
 IDIUse=3 WtCom= 9.79D-01 WtEn= 2.10D-02
 Coeff-Com:  0.100D+01
 Coeff-En:   0.100D+01
 Coeff:      0.100D+01
 Gap=     1.622 Goal=   None    Shift=    0.000
 GapD=    1.622 DampG=2.000 DampE=1.000 DampFc=2.0000 IDamp=-1.
 RMSDP=5.72D-04 MaxDP=1.48D-02              OVMax= 2.27D-02

 Cycle   2  Pass 0  IDiag  1:
 RMSU=  5.71D-04    CP:  1.00D+00
 E= -874.583369695531     Delta-E=       -0.005152053020 Rises=F Damp=F
 DIIS: error= 3.32D-04 at cycle   2 NSaved=   2.
 NSaved= 2 IEnMin= 2 EnMin= -874.583369695531     IErMin= 2 ErrMin= 3.32D-04
 ErrMax= 3.32D-04  0.00D+00 EMaxC= 1.00D-01 BMatC= 4.66D-05 BMatP= 2.67D-03
 IDIUse=3 WtCom= 9.97D-01 WtEn= 3.32D-03
 Coeff-Com: -0.692D-01 0.107D+01
 Coeff-En:   0.000D+00 0.100D+01
 Coeff:     -0.689D-01 0.107D+01
 Gap=     0.253 Goal=   None    Shift=    0.000
 RMSDP=9.19D-05 MaxDP=2.57D-03 DE=-5.15D-03 OVMax= 3.80D-03

 Cycle   3  Pass 0  IDiag  1:
 RMSU=  7.82D-05    CP:  1.00D+00  1.08D+00
 E= -874.583424633906     Delta-E=       -0.000054938375 Rises=F Damp=F
 DIIS: error= 2.27D-04 at cycle   3 NSaved=   3.
 NSaved= 3 IEnMin= 3 EnMin= -874.583424633906     IErMin= 3 ErrMin= 2.27D-04
 ErrMax= 2.27D-04  0.00D+00 EMaxC= 1.00D-01 BMatC= 2.56D-05 BMatP= 4.66D-05
 IDIUse=3 WtCom= 9.98D-01 WtEn= 2.27D-03
 Coeff-Com: -0.381D-01 0.487D+00 0.551D+00
 Coeff-En:   0.000D+00 0.000D+00 0.100D+01
 Coeff:     -0.380D-01 0.486D+00 0.552D+00
 Gap=     0.253 Goal=   None    Shift=    0.000
 RMSDP=4.28D-05 MaxDP=9.78D-04 DE=-5.49D-05 OVMax= 1.48D-03

 Cycle   4  Pass 0  IDiag  1:
 RMSU=  3.11D-05    CP:  1.00D+00  1.10D+00  6.42D-01
 E= -874.583439909348     Delta-E=       -0.000015275442 Rises=F Damp=F
 DIIS: error= 1.43D-04 at cycle   4 NSaved=   4.
 NSaved= 4 IEnMin= 4 EnMin= -874.583439909348     IErMin= 4 ErrMin= 1.43D-04
 ErrMax= 1.43D-04  0.00D+00 EMaxC= 1.00D-01 BMatC= 8.67D-06 BMatP= 2.56D-05
 IDIUse=3 WtCom= 9.99D-01 WtEn= 1.43D-03
 Coeff-Com: -0.152D-01 0.181D+00 0.370D+00 0.465D+00
 Coeff-En:   0.000D+00 0.000D+00 0.240D+00 0.760D+00
 Coeff:     -0.151D-01 0.180D+00 0.370D+00 0.465D+00
 Gap=     0.253 Goal=   None    Shift=    0.000
 RMSDP=1.71D-05 MaxDP=5.32D-04 DE=-1.53D-05 OVMax= 8.07D-04

 Cycle   5  Pass 0  IDiag  1:
 RMSU=  1.20D-05    CP:  1.00D+00  1.10D+00  7.12D-01  6.58D-01
 E= -874.583446074962     Delta-E=       -0.000006165614 Rises=F Damp=F
 DIIS: error= 3.96D-05 at cycle   5 NSaved=   5.
 NSaved= 5 IEnMin= 5 EnMin= -874.583446074962     IErMin= 5 ErrMin= 3.96D-05
 ErrMax= 3.96D-05  0.00D+00 EMaxC= 1.00D-01 BMatC= 6.69D-07 BMatP= 8.67D-06
 IDIUse=1 WtCom= 1.00D+00 WtEn= 0.00D+00
 Coeff-Com: -0.421D-02 0.455D-01 0.150D+00 0.273D+00 0.535D+00
 Coeff:     -0.421D-02 0.455D-01 0.150D+00 0.273D+00 0.535D+00
 Gap=     0.253 Goal=   None    Shift=    0.000
 RMSDP=5.91D-06 MaxDP=1.65D-04 DE=-6.17D-06 OVMax= 2.66D-04

 Initial convergence to 1.0D-05 achieved.  Increase integral accuracy.
 Cycle   6  Pass 1  IDiag  1:
 E= -874.583440885434     Delta-E=        0.000005189528 Rises=F Damp=F
 DIIS: error= 1.13D-05 at cycle   1 NSaved=   1.
 NSaved= 1 IEnMin= 1 EnMin= -874.583440885434     IErMin= 1 ErrMin= 1.13D-05
 ErrMax= 1.13D-05  0.00D+00 EMaxC= 1.00D-01 BMatC= 8.73D-08 BMatP= 8.73D-08
 IDIUse=1 WtCom= 1.00D+00 WtEn= 0.00D+00
 Coeff-Com:  0.100D+01
 Coeff:      0.100D+01
 Gap=     0.253 Goal=   None    Shift=    0.000
 RMSDP=5.91D-06 MaxDP=1.65D-04 DE= 5.19D-06 OVMax= 1.76D-04

 Cycle   7  Pass 1  IDiag  1:
 RMSU=  5.50D-06    CP:  1.00D+00
 E= -874.583440756271     Delta-E=        0.000000129163 Rises=F Damp=F
 DIIS: error= 2.11D-05 at cycle   2 NSaved=   2.
 NSaved= 2 IEnMin= 1 EnMin= -874.583440885434     IErMin= 1 ErrMin= 1.13D-05
 ErrMax= 2.11D-05  0.00D+00 EMaxC= 1.00D-01 BMatC= 2.45D-07 BMatP= 8.73D-08
 IDIUse=1 WtCom= 1.00D+00 WtEn= 0.00D+00
 Coeff-Com:  0.634D+00 0.366D+00
 Coeff:      0.634D+00 0.366D+00
 Gap=     0.253 Goal=   None    Shift=    0.000
 RMSDP=2.87D-06 MaxDP=9.77D-05 DE= 1.29D-07 OVMax= 1.48D-04

 Cycle   8  Pass 1  IDiag  1:
 RMSU=  1.87D-06    CP:  1.00D+00  6.07D-01
 E= -874.583440957592     Delta-E=       -0.000000201321 Rises=F Damp=F
 DIIS: error= 4.40D-06 at cycle   3 NSaved=   3.
 NSaved= 3 IEnMin= 3 EnMin= -874.583440957592     IErMin= 3 ErrMin= 4.40D-06
 ErrMax= 4.40D-06  0.00D+00 EMaxC= 1.00D-01 BMatC= 7.49D-09 BMatP= 8.73D-08
 IDIUse=1 WtCom= 1.00D+00 WtEn= 0.00D+00
 Coeff-Com:  0.234D+00 0.187D+00 0.578D+00
 Coeff:      0.234D+00 0.187D+00 0.578D+00
 Gap=     0.253 Goal=   None    Shift=    0.000
 RMSDP=6.62D-07 MaxDP=2.18D-05 DE=-2.01D-07 OVMax= 2.68D-05

 Cycle   9  Pass 1  IDiag  1:
 RMSU=  5.64D-07    CP:  1.00D+00  6.39D-01  8.43D-01
 E= -874.583440961173     Delta-E=       -0.000000003581 Rises=F Damp=F
 DIIS: error= 2.56D-06 at cycle   4 NSaved=   4.
 NSaved= 4 IEnMin= 4 EnMin= -874.583440961173     IErMin= 4 ErrMin= 2.56D-06
 ErrMax= 2.56D-06  0.00D+00 EMaxC= 1.00D-01 BMatC= 2.85D-09 BMatP= 7.49D-09
 IDIUse=1 WtCom= 1.00D+00 WtEn= 0.00D+00
 Coeff-Com:  0.133D-01 0.457D-01 0.409D+00 0.532D+00
 Coeff:      0.133D-01 0.457D-01 0.409D+00 0.532D+00
 Gap=     0.253 Goal=   None    Shift=    0.000
 RMSDP=2.81D-07 MaxDP=6.89D-06 DE=-3.58D-09 OVMax= 8.92D-06

 Cycle  10  Pass 1  IDiag  1:
 RMSU=  1.24D-07    CP:  1.00D+00  6.45D-01  8.94D-01  5.93D-01
 E= -874.583440963425     Delta-E=       -0.000000002251 Rises=F Damp=F
 DIIS: error= 2.52D-07 at cycle   5 NSaved=   5.
 NSaved= 5 IEnMin= 5 EnMin= -874.583440963425     IErMin= 5 ErrMin= 2.52D-07
 ErrMax= 2.52D-07  0.00D+00 EMaxC= 1.00D-01 BMatC= 2.99D-11 BMatP= 2.85D-09
 IDIUse=1 WtCom= 1.00D+00 WtEn= 0.00D+00
 Coeff-Com: -0.490D-02 0.100D-01 0.131D+00 0.204D+00 0.660D+00
 Coeff:     -0.490D-02 0.100D-01 0.131D+00 0.204D+00 0.660D+00
 Gap=     0.253 Goal=   None    Shift=    0.000
 RMSDP=4.64D-08 MaxDP=1.11D-06 DE=-2.25D-09 OVMax= 1.22D-06

 Cycle  11  Pass 1  IDiag  1:
 RMSU=  3.97D-08    CP:  1.00D+00  6.46D-01  8.97D-01  6.05D-01  8.23D-01
 E= -874.583440963459     Delta-E=       -0.000000000034 Rises=F Damp=F
 DIIS: error= 9.14D-08 at cycle   6 NSaved=   6.
 NSaved= 6 IEnMin= 6 EnMin= -874.583440963459     IErMin= 6 ErrMin= 9.14D-08
 ErrMax= 9.14D-08  0.00D+00 EMaxC= 1.00D-01 BMatC= 2.96D-12 BMatP= 2.99D-11
 IDIUse=1 WtCom= 1.00D+00 WtEn= 0.00D+00
 Coeff-Com: -0.312D-02 0.193D-02 0.351D-01 0.605D-01 0.298D+00 0.607D+00
 Coeff:     -0.312D-02 0.193D-02 0.351D-01 0.605D-01 0.298D+00 0.607D+00
 Gap=     0.253 Goal=   None    Shift=    0.000
 RMSDP=1.38D-08 MaxDP=3.23D-07 DE=-3.43D-11 OVMax= 5.19D-07

 Cycle  12  Pass 1  IDiag  1:
 RMSU=  1.14D-08    CP:  1.00D+00  6.46D-01  8.97D-01  6.08D-01  8.74D-01
                    CP:  9.16D-01
 E= -874.583440963460     Delta-E=       -0.000000000001 Rises=F Damp=F
 DIIS: error= 2.91D-08 at cycle   7 NSaved=   7.
 NSaved= 7 IEnMin= 7 EnMin= -874.583440963460     IErMin= 7 ErrMin= 2.91D-08
 ErrMax= 2.91D-08  0.00D+00 EMaxC= 1.00D-01 BMatC= 2.65D-13 BMatP= 2.96D-12
 IDIUse=1 WtCom= 1.00D+00 WtEn= 0.00D+00
 Coeff-Com: -0.422D-03-0.725D-03-0.663D-02-0.849D-02 0.111D-01 0.225D+00
 Coeff-Com:  0.780D+00
 Coeff:     -0.422D-03-0.725D-03-0.663D-02-0.849D-02 0.111D-01 0.225D+00
 Coeff:      0.780D+00
 Gap=     0.253 Goal=   None    Shift=    0.000
 RMSDP=5.16D-09 MaxDP=1.35D-07 DE=-6.82D-13 OVMax= 2.21D-07

 SCF Done:  E(RB3LYP) =  -874.583440963     A.U. after   12 cycles
            NFock= 12  Conv=0.52D-08     -V/T= 2.0064
 KE= 8.690062211047D+02 PE=-3.309562728724D+03 EE= 9.410962810223D+02
 Leave Link  502 at Fri Mar 14 15:16:25 2025, MaxMem=  8589934592 cpu:              64.7 elap:               6.3
 (Enter /home/enzo/gaussian_versions/gdv.j21/gdv/l701.exe)
 ... and contract with generalized density number  0.
 Compute integral first derivatives.
 Leave Link  701 at Fri Mar 14 15:16:25 2025, MaxMem=  8589934592 cpu:               2.5 elap:               0.5
 (Enter /home/enzo/gaussian_versions/gdv.j21/gdv/l702.exe)
 L702 exits ... SP integral derivatives will be done elsewhere.
 Leave Link  702 at Fri Mar 14 15:16:25 2025, MaxMem=  8589934592 cpu:               0.3 elap:               0.2
 (Enter /home/enzo/gaussian_versions/gdv.j21/gdv/l703.exe)
 Integral derivatives from FoFJK, PRISM(SPDF).
 Compute integral first derivatives, UseDBF=F ICtDFT=           0.
 Calling FoFJK, ICntrl=      2127 FMM=F ISym2X=0 I1Cent= 0 IOpClX= 0 NMat=1 NMatS=1 NMatT=0.
 FoFJK:  IHMeth= 1 ICntrl=    2127 DoSepK=F KAlg= 0 I1Cent=           0 FoldK=F
 IRaf=         0 NMat=       1 IRICut=       1 DoRegI=T DoRafI=F ISym2E= 0 IDoP0=0 IntGTp=1.
 FoFCou: FMM=F IPFlag=           0 FMFlag=      100000 FMFlg1=         800
         NFxFlg=           0 DoJE=F BraDBF=F KetDBF=F FulRan=T
         wScrn=  0.000000 ICntrl=      2127 IOpCl=  0 I1Cent=           0 NGrid=           0
         NMat0=    1 NMatS0=      1 NMatT0=    0 NMatD0=    1 NMtDS0=    0 NMtDT0=    0
 Symmetry not used in FoFCou.
 Leave Link  703 at Fri Mar 14 15:16:27 2025, MaxMem=  8589934592 cpu:              15.0 elap:               1.9
 (Enter /home/enzo/gaussian_versions/gdv.j21/gdv/l716.exe)
 Dipole        =-8.21782907D-01 7.62230851D-01-6.83008064D-01
 ***** Axes restored to original set *****
 -------------------------------------------------------------------
 Center     Atomic                   Forces (Hartrees/Bohr)
 Number     Number              X              Y              Z
 -------------------------------------------------------------------
      1        6           0.000522781   -0.000015259    0.000396717
      2        6          -0.001305550    0.000019141   -0.000627135
      3       16          -0.000143582   -0.000005663    0.000308682
      4        6           0.001621301    0.000289943    0.000382482
      5        8          -0.000370891    0.000267485    0.000427877
      6        7          -0.001536072   -0.000658396   -0.001249187
      7        6           0.000649764   -0.000471533    0.000536534
      8        6          -0.000278025   -0.000199896   -0.000093902
      9        8           0.001158429    0.000545919   -0.000397393
     10        8           0.000324082    0.000010504    0.000943239
     11        1          -0.000000457    0.000055468   -0.000188645
     12        1           0.000007500    0.000114982   -0.000068962
     13        1          -0.000136501    0.000062019   -0.000114576
     14        1           0.000396731    0.000124048    0.000126063
     15        1           0.000071388   -0.000133469   -0.000088924
     16        1          -0.000110280   -0.000362965    0.000396167
     17        1          -0.000909091    0.000282221   -0.000241528
     18        1           0.000268482    0.000417673   -0.000621684
     19        1          -0.000230010   -0.000342221    0.000174174
 -------------------------------------------------------------------
 Cartesian Forces:  Max     0.001621301 RMS     0.000538212
 Leave Link  716 at Fri Mar 14 15:16:27 2025, MaxMem=  8589934592 cpu:               0.2 elap:               0.2
 (Enter /home/enzo/gaussian_versions/gdv.j21/gdv/l103.exe)

 GradGradGradGradGradGradGradGradGradGradGradGradGradGradGradGradGradGrad
 Berny optimization.
 Using GEDIIS/GDIIS optimizer.
 FormGI is forming the generalized inverse of G from B-inverse, IUseBI=4.
 GSVD:  received Info=                   1 from GESDD.
 Internal  Forces:  Max     0.001430076 RMS     0.000392784
 Search for a local minimum.
 Step number  19 out of a maximum of   93
 All quantities printed in internal units (Hartrees-Bohrs-Radians)
 RMS Force = .39278D-03 SwitMx=.10000D-02 MixMth= 2
 Mixed Optimization -- En-DIIS/RFO-DIIS
 Swapping is turned off.
 Update second derivatives using D2CorX and points   15   17   18   19
 DE= -8.11D-05 DEPred=-7.84D-05 R= 1.04D+00
 TightC=F SS=  1.41D+00  RLast= 2.85D-01 DXNew= 3.0969D+00 8.5637D-01
 Trust test= 1.04D+00 RLast= 2.85D-01 DXMaxT set to 1.84D+00
 ITU=  1  1  1  0 -1  1  1  0  1 -1  1  1  1  1  0  0  1  1  0
     Eigenvalues ---    0.00082   0.00105   0.00285   0.00475   0.00620
     Eigenvalues ---    0.00820   0.01686   0.02017   0.03917   0.04463
     Eigenvalues ---    0.04872   0.05144   0.05569   0.05705   0.05741
     Eigenvalues ---    0.06801   0.08078   0.10534   0.14495   0.15600
     Eigenvalues ---    0.15991   0.16017   0.16057   0.16680   0.17341
     Eigenvalues ---    0.17985   0.21048   0.21704   0.22134   0.22394
     Eigenvalues ---    0.24322   0.25107   0.26049   0.27422   0.29492
     Eigenvalues ---    0.31636   0.32330   0.32489   0.32611   0.32673
     Eigenvalues ---    0.32845   0.33071   0.33319   0.34614   0.40607
     Eigenvalues ---    0.41034   0.44959   0.46204   0.54612   0.78485
     Eigenvalues ---    0.86202
 En-DIIS/RFO-DIIS/Sim-DIIS IScMMF=       -3 using points:    19   18   17
 RFO step:  Lambda=-7.23176648D-05.
 NNeg= 0 NGDIIS= 3 SimSw=  2.50D-01 Rises=F DC= -8.11D-05 SmlDif=  1.00D-05
 NRisDI= 0 DoIntr=F SqrtH=F CThrHd= 10.0 CDAdj=  3.0
 RMS Error=  0.1797882701D-01 NUsed= 3 OKEnD=T EnDIS=F
 InvSVX:  RCond= 9.79D-03 Info=           0 Equed=N FErr=  3.09D-15 BErr=  2.65D-17
 DidBck=FF Rises=F RFO-DIIS coefs:    1.43684   -0.03261   -0.40423
 Iteration  1 RMS(Cart)=  0.02005262 RMS(Int)=  0.00042390
 Iteration  2 RMS(Cart)=  0.00035367 RMS(Int)=  0.00031657
 Iteration  3 RMS(Cart)=  0.00000012 RMS(Int)=  0.00031657
 Variable       Old X    -DE/DX   Delta X   Delta X   Delta X     New X
                                 (Linear)    (Quad)   (Total)
    R1        2.88195   0.00039  -0.00216   0.00162  -0.00054   2.88142
    R2        2.06825  -0.00003   0.00028  -0.00019   0.00009   2.06834
    R3        2.06624   0.00013  -0.00018   0.00041   0.00023   2.06647
    R4        2.06586  -0.00006   0.00016  -0.00015   0.00002   2.06587
    R5        3.52380   0.00022  -0.00189   0.00124  -0.00064   3.52315
    R6        2.91879  -0.00065   0.00169  -0.00202  -0.00033   2.91846
    R7        2.07273  -0.00001   0.00003  -0.00009  -0.00006   2.07267
    R8        2.55014   0.00013  -0.00033   0.00049   0.00016   2.55030
    R9        2.31109   0.00038  -0.00033   0.00019  -0.00015   2.31094
   R10        2.58191   0.00113  -0.00002   0.00206   0.00204   2.58396
   R11        2.73119  -0.00087   0.00180  -0.00154   0.00026   2.73145
   R12        1.91158   0.00031   0.00009   0.00040   0.00050   1.91208
   R13        2.88181  -0.00018   0.00046  -0.00031   0.00015   2.88195
   R14        2.06832   0.00024   0.00008  -0.00040  -0.00032   2.06800
   R15        2.06806   0.00034  -0.00122   0.00153   0.00031   2.06838
   R16        2.28682  -0.00108  -0.00044  -0.00028  -0.00071   2.28610
   R17        2.55133   0.00105  -0.00003   0.00059   0.00055   2.55188
   R18        1.84380   0.00037  -0.00085   0.00077  -0.00008   1.84372
    A1        1.92829  -0.00004   0.00025  -0.00019   0.00006   1.92835
    A2        1.91696  -0.00002   0.00129  -0.00119   0.00010   1.91707
    A3        1.93376  -0.00010   0.00001   0.00020   0.00021   1.93397
    A4        1.90300  -0.00002  -0.00006  -0.00035  -0.00042   1.90258
    A5        1.89334   0.00017  -0.00158   0.00192   0.00033   1.89368
    A6        1.88766   0.00001   0.00007  -0.00037  -0.00030   1.88736
    A7        1.96602   0.00006   0.00051  -0.00005   0.00046   1.96649
    A8        1.94173   0.00015  -0.00047   0.00079   0.00032   1.94205
    A9        1.92434  -0.00035   0.00325  -0.00294   0.00031   1.92465
   A10        1.92226  -0.00023  -0.00053  -0.00115  -0.00168   1.92058
   A11        1.85180   0.00016  -0.00100   0.00048  -0.00052   1.85128
   A12        1.85219   0.00021  -0.00189   0.00300   0.00112   1.85330
   A13        1.67200   0.00016  -0.00110   0.00112   0.00002   1.67202
   A14        2.11111   0.00036  -0.00114   0.00173   0.00058   2.11169
   A15        2.02220  -0.00018   0.00011  -0.00072  -0.00062   2.02159
   A16        2.14765  -0.00017   0.00074  -0.00081  -0.00008   2.14757
   A17        2.11847  -0.00030  -0.00398   0.00197  -0.00363   2.11484
   A18        2.06422   0.00018  -0.00481   0.00229  -0.00414   2.06008
   A19        2.07669   0.00007   0.00010  -0.00081  -0.00240   2.07429
   A20        2.02064  -0.00029   0.00076   0.00115   0.00190   2.02254
   A21        1.86028   0.00085  -0.00456   0.00862   0.00405   1.86434
   A22        1.94699  -0.00034  -0.00083  -0.00247  -0.00330   1.94369
   A23        1.88096  -0.00052  -0.00028  -0.00298  -0.00328   1.87768
   A24        1.86500   0.00068   0.00064   0.00117   0.00182   1.86682
   A25        1.88531  -0.00043   0.00469  -0.00621  -0.00152   1.88378
   A26        2.15826  -0.00143   0.00530  -0.00689  -0.00160   2.15666
   A27        1.96941   0.00124  -0.00442   0.00606   0.00164   1.97105
   A28        2.15549   0.00019  -0.00088   0.00085  -0.00003   2.15546
   A29        1.85155   0.00013   0.00117  -0.00059   0.00057   1.85213
    D1        1.04716   0.00012  -0.00907   0.00554  -0.00353   1.04363
    D2       -3.06782  -0.00002  -0.00975   0.00459  -0.00516  -3.07297
    D3       -1.01775   0.00011  -0.01032   0.00694  -0.00338  -1.02113
    D4       -3.13605   0.00005  -0.00817   0.00422  -0.00395  -3.13999
    D5       -0.96784  -0.00009  -0.00884   0.00327  -0.00557  -0.97341
    D6        1.08223   0.00005  -0.00942   0.00563  -0.00379   1.07843
    D7       -1.05166  -0.00001  -0.00726   0.00313  -0.00413  -1.05579
    D8        1.11655  -0.00015  -0.00793   0.00218  -0.00575   1.11080
    D9       -3.11657  -0.00001  -0.00850   0.00453  -0.00397  -3.12054
   D10       -1.27082   0.00004   0.00058  -0.00167  -0.00109  -1.27191
   D11        2.83347  -0.00003   0.00122  -0.00179  -0.00057   2.83290
   D12        0.83617  -0.00025   0.00422  -0.00500  -0.00078   0.83539
   D13        0.26264  -0.00021  -0.01265  -0.00690  -0.01955   0.24309
   D14       -2.94837  -0.00010  -0.01755  -0.00380  -0.02135  -2.96972
   D15        2.45540  -0.00019  -0.01273  -0.00723  -0.01997   2.43543
   D16       -0.75561  -0.00008  -0.01762  -0.00414  -0.02176  -0.77737
   D17       -1.83074  -0.00000  -0.01516  -0.00563  -0.02079  -1.85154
   D18        1.24143   0.00010  -0.02006  -0.00253  -0.02259   1.21885
   D19        3.08972  -0.00001  -0.02833   0.01129  -0.01682   3.07290
   D20        0.18324   0.00019   0.03394  -0.00535   0.02839   0.21162
   D21       -0.12289   0.00012  -0.03341   0.01457  -0.01863  -0.14152
   D22       -3.02938   0.00033   0.02887  -0.00207   0.02658  -3.00280
   D23       -1.83516   0.00032   0.04046  -0.00255   0.03791  -1.79725
   D24        0.25631   0.00009   0.03723   0.00064   0.03788   0.29419
   D25        2.31040  -0.00009   0.03968  -0.00300   0.03669   2.34709
   D26        1.06969   0.00013  -0.02249   0.01462  -0.00789   1.06180
   D27       -3.12203  -0.00010  -0.02571   0.01780  -0.00791  -3.12994
   D28       -1.06793  -0.00028  -0.02326   0.01417  -0.00910  -1.07704
   D29       -2.90099   0.00009  -0.02978  -0.00984  -0.03962  -2.94061
   D30        0.24829   0.00029  -0.02972  -0.01239  -0.04211   0.20617
   D31        1.30202  -0.00043  -0.02421  -0.01942  -0.04362   1.25840
   D32       -1.83189  -0.00024  -0.02415  -0.02197  -0.04612  -1.87801
   D33       -0.72054  -0.00002  -0.02982  -0.01133  -0.04116  -0.76169
   D34        2.42874   0.00017  -0.02976  -0.01389  -0.04365   2.38509
   D35        3.10742   0.00012  -0.00765   0.01132   0.00367   3.11109
   D36       -0.02650   0.00032  -0.00762   0.00881   0.00119  -0.02531
         Item               Value     Threshold  Converged?
 Maximum Force            0.001430     0.000450     NO 
 RMS     Force            0.000393     0.000300     NO 
 Maximum Displacement     0.083297     0.001800     NO 
 RMS     Displacement     0.020001     0.001200     NO 
 Predicted change in Energy=-3.597203D-05
 Lowest energy point so far.  Saving SCF results.
 GradGradGradGradGradGradGradGradGradGradGradGradGradGradGradGradGradGrad

 Leave Link  103 at Fri Mar 14 15:16:28 2025, MaxMem=  8589934592 cpu:               0.7 elap:               0.3
 (Enter /home/enzo/gaussian_versions/gdv.j21/gdv/l202.exe)
                          Input orientation:                          
 ---------------------------------------------------------------------
 Center     Atomic      Atomic             Coordinates (Angstroms)
 Number     Number       Type             X           Y           Z
 ---------------------------------------------------------------------
      1          6           0        3.010782    1.134710    0.490999
      2          6           0        2.047575    0.222211   -0.260355
      3         16           0        1.889765   -1.460344    0.527034
      4          6           0        0.654239    0.873170   -0.401735
      5          8           0        0.489595    2.063700   -0.175895
      6          7           0       -0.338635    0.059173   -0.872174
      7          6           0       -1.703740    0.524087   -0.970078
      8          6           0       -2.653864    0.033044    0.117103
      9          8           0       -3.855265    0.165074    0.065099
     10          8           0       -2.013078   -0.559300    1.147680
     11          1           0        4.011322    0.692156    0.523202
     12          1           0        3.066917    2.106269   -0.007723
     13          1           0        2.670527    1.298000    1.517000
     14          1           0        2.408228    0.047054   -1.281258
     15          1           0        3.104757   -1.905048    0.143183
     16          1           0       -0.157199   -0.935261   -0.916668
     17          1           0       -1.671165    1.616394   -0.911991
     18          1           0       -2.150054    0.250883   -1.931419
     19          1           0       -2.704314   -0.806534    1.790306
 ---------------------------------------------------------------------
                    Distance matrix (angstroms):
                    1          2          3          4          5
     1  C    0.000000
     2  C    1.524780   0.000000
     3  S    2.827063   1.864371   0.000000
     4  C    2.533509   1.544384   2.799004   0.000000
     5  O    2.768421   2.413611   3.856615   1.222896   0.000000
     6  N    3.772746   2.468786   3.038500   1.367371   2.277916
     7  C    4.973361   3.829778   4.369507   2.450498   2.794969
     8  C    5.782878   4.720359   4.800293   3.452325   3.753764
     9  O    6.947243   5.912081   5.988383   4.588568   4.747701
    10  O    5.342291   4.368321   4.053303   3.401065   3.859450
    11  H    1.094519   2.165897   3.022296   3.486872   3.843492
    12  H    1.093527   2.156978   3.793730   2.738028   2.583154
    13  H    1.093213   2.168958   3.032834   2.815571   2.865075
    14  H    2.164938   1.096810   2.410596   2.128968   2.994969
    15  H    3.061036   2.409504   1.349558   3.744391   4.763596
    16  H    4.037624   2.575174   2.559307   2.047928   3.156083
    17  H    4.911316   4.024600   4.921111   2.494043   2.326113
    18  H    5.769184   4.518116   5.029158   3.254418   3.651837
    19  H    6.174055   5.276740   4.809251   4.348141   4.722843
                    6          7          8          9         10
     6  N    0.000000
     7  C    1.445421   0.000000
     8  C    2.517863   1.525064   0.000000
     9  O    3.640931   2.414444   1.209752   0.000000
    10  O    2.695567   2.398816   1.350395   2.256180   0.000000
    11  H    4.611927   5.909320   6.709995   7.897522   6.184619
    12  H    4.066407   5.117480   6.086147   7.189586   5.852057
    13  H    4.037066   5.091042   5.648802   6.780671   5.051942
    14  H    2.777184   4.151226   5.251703   6.407648   5.080881
    15  H    4.092195   5.501063   6.076067   7.261777   5.386305
    16  H    1.011829   2.127049   2.870476   3.981243   2.801280
    17  H    2.049917   1.094336   2.128786   2.798451   3.015427
    18  H    2.107128   1.094538   2.120783   2.627012   3.186850
    19  H    3.665336   3.223573   1.872711   2.290207   0.975654
                   11         12         13         14         15
    11  H    0.000000
    12  H    1.781431   0.000000
    13  H    1.775502   1.770651   0.000000
    14  H    2.498428   2.509209   3.076347   0.000000
    15  H    2.777003   4.014334   3.512185   2.514933   0.000000
    16  H    4.700881   4.524601   4.348130   2.771152   3.564285
    17  H    5.933351   4.848412   4.985144   4.386415   6.026888
    18  H    6.646987   5.861728   6.018808   4.608925   6.046904
    19  H    6.996527   6.710026   5.778640   6.025048   6.137186
                   16         17         18         19
    16  H    0.000000
    17  H    2.966995   0.000000
    18  H    2.531428   1.770082   0.000000
    19  H    3.719150   3.773644   3.908526   0.000000
 Stoichiometry    C5H9NO3S
 Framework group  C1[X(C5H9NO3S)]
 Deg. of freedom    51
 Full point group                 C1      NOp   1
 RotChk:  IX=2 Diff= 6.47D-03
 Largest Abelian subgroup         C1      NOp   1
 Largest concise Abelian subgroup C1      NOp   1
                         Standard orientation:                         
 ---------------------------------------------------------------------
 Center     Atomic      Atomic             Coordinates (Angstroms)
 Number     Number       Type             X           Y           Z
 ---------------------------------------------------------------------
      1          6           0       -2.985624   -0.907712    0.687123
      2          6           0       -2.014382   -0.271061   -0.300964
      3         16           0       -1.920659    1.582476   -0.123490
      4          6           0       -0.603596   -0.886747   -0.175530
      5          8           0       -0.422810   -1.925895    0.443310
      6          7           0        0.388937   -0.247298   -0.865231
      7          6           0        1.766059   -0.674164   -0.762458
      8          6           0        2.664958    0.184249    0.121244
      9          8           0        3.869935    0.080881    0.150314
     10          8           0        1.974374    1.068107    0.873211
     11          1           0       -3.995616   -0.512353    0.540226
     12          1           0       -3.003156   -1.991713    0.544162
     13          1           0       -2.680241   -0.705181    1.717093
     14          1           0       -2.340580   -0.461360   -1.330708
     15          1           0       -3.129567    1.832970   -0.668561
     16          1           0        0.188727    0.667802   -1.247730
     17          1           0        1.753973   -1.683638   -0.340098
     18          1           0        2.241871   -0.726356   -1.746781
     19          1           0        2.636105    1.539166    1.413688
 ---------------------------------------------------------------------
 Rotational constants (GHZ):           2.0000716           0.6135847           0.5213577
 Leave Link  202 at Fri Mar 14 15:16:28 2025, MaxMem=  8589934592 cpu:               0.3 elap:               0.2
 (Enter /home/enzo/gaussian_versions/gdv.j21/gdv/l301.exe)
 Standard basis: 6-31G(d) (6D, 7F)
 Ernie: Thresh=  0.10000D-02 Tol=  0.10000D-05 Strict=F.
 There are   172 symmetry adapted cartesian basis functions of A   symmetry.
 There are   172 symmetry adapted basis functions of A   symmetry.
   172 basis functions,   340 primitive gaussians,   172 cartesian basis functions
    43 alpha electrons       43 beta electrons
       nuclear repulsion energy       625.4724287801 Hartrees.
 IExCor=      4002 DFT=T Ex+Corr=B3LYP ScaHFX=  0.200000
 ScaDFX=  0.800000  0.720000  1.000000  0.810000  1.000000  0.000000
 ScaDFX=  0.000000  0.000000  0.000000  0.000000  0.000000  0.000000
 IRadAn=      5 IRanWt=     -1 IRanGd=            0 ICorTp=0 IEmpDi=  4
 NAtoms=   19 NActive=   19 NUniq=   19 SFac= 1.00D+00 NAtFMM=   60 NAOKFM=F Big=F
 Integral buffers will be    131072 words long.
 Raffenetti 2 integral format.
 Two-electron integral symmetry is turned on.
 Leave Link  301 at Fri Mar 14 15:16:28 2025, MaxMem=  8589934592 cpu:               0.4 elap:               0.3
 (Enter /home/enzo/gaussian_versions/gdv.j21/gdv/l302.exe)
 NPDir=0 NMtPBC=     1 NCelOv=     1 NCel=       1 NClECP=     1 NCelD=      1
         NCelK=      1 NCelE2=     1 NClLst=     1 CellRange=     0.0.
 One-electron integrals computed using PRISM.
 One-electron integral symmetry used in STVInt
 NBasis=   172 RedAO= T EigKep=  3.05D-03  NBF=   172
 NBsUse=   172 1.00D-06 EigRej= -1.00D+00 NBFU=   172
 Precomputing XC quadrature grid using
 IXCGrd= 4 IRadAn=           5 IRanWt=          -1 IRanGd=           0 AccXCQ= 0.00D+00.
 Generated NRdTot=       0 NPtTot=      407730 NUsed=           0 NTot=          64
 NSgBfM=   171   171   171   171   171 MxSgAt=    19 MxSgA2=    19 SizInc=   0.000
 NMBTot=     3459 MaxBatPerAtom=       85 MaxMicBPerAtom=      204 NBfPt=            51232624.
 Leave Link  302 at Fri Mar 14 15:16:29 2025, MaxMem=  8589934592 cpu:               7.1 elap:               1.0
 (Enter /home/enzo/gaussian_versions/gdv.j21/gdv/l303.exe)
 DipDrv:  MaxL=1.
 Leave Link  303 at Fri Mar 14 15:16:29 2025, MaxMem=  8589934592 cpu:               0.2 elap:               0.2
 (Enter /home/enzo/gaussian_versions/gdv.j21/gdv/l401.exe)
 Initial guess from the checkpoint file:  "/local/home/enzo/scratch/Gau-2337652.chk"
 B after Tr=     0.000000    0.000000    0.000000
         Rot=    0.999997    0.002171    0.000402   -0.001032 Ang=   0.28 deg.
 AO Guess basis will be translated and rotated to current coordinates.
 JPrj=2 DoOrth=T DoCkMO=T.
 Generating alternative initial guess.
 ExpMin= 1.17D-01 ExpMax= 2.19D+04 ExpMxC= 3.30D+03 IAcc=3 IRadAn=         5 AccDes= 0.00D+00
 Harris functional with IExCor= 4002 and IRadAn=       5 diagonalized for initial guess.
 HarFok:  IExCor=    4002 AccDes= 0.00D+00 IRadAn=         5 IDoV= 1 UseB2=F ITyADJ=14 ICtDFT=  3500011
 FoFCou: FMM=F IPFlag=           0 FMFlag=      100000 FMFlg1=           0
         NFxFlg=           0 DoJE=T BraDBF=F KetDBF=T FulRan=T
         wScrn=  0.000000 ICntrl=       500 IOpCl=  0 I1Cent=   200000004 NGrid=           0
         NMat0=    1 NMatS0=      1 NMatT0=    0 NMatD0=    1 NMtDS0=    0 NMtDT0=    0
 Petite list used in FoFCou.
 Harris En= -874.547958790532    
 Leave Link  401 at Fri Mar 14 15:16:31 2025, MaxMem=  8589934592 cpu:               7.4 elap:               1.1
 (Enter /home/enzo/gaussian_versions/gdv.j21/gdv/l502.exe)
 Integral symmetry usage will be decided dynamically.
 Closed shell SCF:
 Using DIIS extrapolation, IDIIS=  1040.
 NGot=  8589934592 LenX=  8589843591 LenY=  8589813566
 Requested convergence on RMS density matrix=1.00D-08 within 128 cycles.
 Requested convergence on MAX density matrix=1.00D-06.
 Requested convergence on             energy=1.00D-06.
 No special actions if energy rises.
 Fock matrices will be formed incrementally for  20 cycles.
 Integral accuracy reduced to 1.0D-05 until final iterations.

 Cycle   1  Pass 0  IDiag  1:
 FoFJK:  IHMeth= 1 ICntrl=       0 DoSepK=F KAlg= 0 I1Cent=           0 FoldK=F
 IRaf= 910000000 NMat=       1 IRICut=       1 DoRegI=T DoRafI=F ISym2E= 0 IDoP0=0 IntGTp=1.
 FoFCou: FMM=F IPFlag=           0 FMFlag=      100000 FMFlg1=           0
         NFxFlg=           0 DoJE=F BraDBF=F KetDBF=F FulRan=T
         wScrn=  0.000000 ICntrl=         0 IOpCl=  0 I1Cent=           0 NGrid=           0
         NMat0=    1 NMatS0=      1 NMatT0=    0 NMatD0=    1 NMtDS0=    0 NMtDT0=    0
 Symmetry not used in FoFCou.
 E= -874.581694892616    
 DIIS: error= 1.59D-03 at cycle   1 NSaved=   1.
 NSaved= 1 IEnMin= 1 EnMin= -874.581694892616     IErMin= 1 ErrMin= 1.59D-03
 ErrMax= 1.59D-03  0.00D+00 EMaxC= 1.00D-01 BMatC= 9.60D-04 BMatP= 9.60D-04
 IDIUse=3 WtCom= 9.84D-01 WtEn= 1.59D-02
 Coeff-Com:  0.100D+01
 Coeff-En:   0.100D+01
 Coeff:      0.100D+01
 Gap=     1.616 Goal=   None    Shift=    0.000
 GapD=    1.616 DampG=2.000 DampE=1.000 DampFc=2.0000 IDamp=-1.
 RMSDP=3.05D-04 MaxDP=9.65D-03              OVMax= 1.13D-02

 Cycle   2  Pass 0  IDiag  1:
 RMSU=  3.05D-04    CP:  1.00D+00
 E= -874.583469359527     Delta-E=       -0.001774466911 Rises=F Damp=F
 DIIS: error= 2.02D-04 at cycle   2 NSaved=   2.
 NSaved= 2 IEnMin= 2 EnMin= -874.583469359527     IErMin= 2 ErrMin= 2.02D-04
 ErrMax= 2.02D-04  0.00D+00 EMaxC= 1.00D-01 BMatC= 1.53D-05 BMatP= 9.60D-04
 IDIUse=3 WtCom= 9.98D-01 WtEn= 2.02D-03
 Coeff-Com: -0.773D-01 0.108D+01
 Coeff-En:   0.000D+00 0.100D+01
 Coeff:     -0.771D-01 0.108D+01
 Gap=     0.253 Goal=   None    Shift=    0.000
 RMSDP=3.73D-05 MaxDP=1.01D-03 DE=-1.77D-03 OVMax= 1.50D-03

 Cycle   3  Pass 0  IDiag  1:
 RMSU=  2.68D-05    CP:  1.00D+00  1.08D+00
 E= -874.583490491012     Delta-E=       -0.000021131485 Rises=F Damp=F
 DIIS: error= 1.01D-04 at cycle   3 NSaved=   3.
 NSaved= 3 IEnMin= 3 EnMin= -874.583490491012     IErMin= 3 ErrMin= 1.01D-04
 ErrMax= 1.01D-04  0.00D+00 EMaxC= 1.00D-01 BMatC= 3.96D-06 BMatP= 1.53D-05
 IDIUse=3 WtCom= 9.99D-01 WtEn= 1.01D-03
 Coeff-Com: -0.310D-01 0.385D+00 0.646D+00
 Coeff-En:   0.000D+00 0.000D+00 0.100D+01
 Coeff:     -0.310D-01 0.385D+00 0.646D+00
 Gap=     0.253 Goal=   None    Shift=    0.000
 RMSDP=1.70D-05 MaxDP=4.68D-04 DE=-2.11D-05 OVMax= 6.35D-04

 Cycle   4  Pass 0  IDiag  1:
 RMSU=  1.37D-05    CP:  1.00D+00  1.09D+00  6.42D-01
 E= -874.583491877745     Delta-E=       -0.000001386733 Rises=F Damp=F
 DIIS: error= 8.59D-05 at cycle   4 NSaved=   4.
 NSaved= 4 IEnMin= 4 EnMin= -874.583491877745     IErMin= 4 ErrMin= 8.59D-05
 ErrMax= 8.59D-05  0.00D+00 EMaxC= 1.00D-01 BMatC= 2.55D-06 BMatP= 3.96D-06
 IDIUse=1 WtCom= 1.00D+00 WtEn= 0.00D+00
 Coeff-Com: -0.114D-01 0.135D+00 0.441D+00 0.435D+00
 Coeff:     -0.114D-01 0.135D+00 0.441D+00 0.435D+00
 Gap=     0.253 Goal=   None    Shift=    0.000
 RMSDP=8.54D-06 MaxDP=2.79D-04 DE=-1.39D-06 OVMax= 4.35D-04

 Initial convergence to 1.0D-05 achieved.  Increase integral accuracy.
 Cycle   5  Pass 1  IDiag  1:
 E= -874.583488674233     Delta-E=        0.000003203512 Rises=F Damp=F
 DIIS: error= 1.71D-05 at cycle   1 NSaved=   1.
 NSaved= 1 IEnMin= 1 EnMin= -874.583488674233     IErMin= 1 ErrMin= 1.71D-05
 ErrMax= 1.71D-05  0.00D+00 EMaxC= 1.00D-01 BMatC= 1.50D-07 BMatP= 1.50D-07
 IDIUse=1 WtCom= 1.00D+00 WtEn= 0.00D+00
 Coeff-Com:  0.100D+01
 Coeff:      0.100D+01
 Gap=     0.253 Goal=   None    Shift=    0.000
 RMSDP=8.54D-06 MaxDP=2.79D-04 DE= 3.20D-06 OVMax= 2.88D-04

 Cycle   6  Pass 1  IDiag  1:
 RMSU=  6.24D-06    CP:  1.00D+00
 E= -874.583488321011     Delta-E=        0.000000353222 Rises=F Damp=F
 DIIS: error= 3.91D-05 at cycle   2 NSaved=   2.
 NSaved= 2 IEnMin= 1 EnMin= -874.583488674233     IErMin= 1 ErrMin= 1.71D-05
 ErrMax= 3.91D-05  0.00D+00 EMaxC= 1.00D-01 BMatC= 6.10D-07 BMatP= 1.50D-07
 IDIUse=1 WtCom= 1.00D+00 WtEn= 0.00D+00
 Coeff-Com:  0.675D+00 0.325D+00
 Coeff:      0.675D+00 0.325D+00
 Gap=     0.253 Goal=   None    Shift=    0.000
 RMSDP=4.05D-06 MaxDP=1.21D-04 DE= 3.53D-07 OVMax= 2.17D-04

 Cycle   7  Pass 1  IDiag  1:
 RMSU=  2.15D-06    CP:  1.00D+00  4.55D-01
 E= -874.583488794151     Delta-E=       -0.000000473140 Rises=F Damp=F
 DIIS: error= 4.86D-06 at cycle   3 NSaved=   3.
 NSaved= 3 IEnMin= 3 EnMin= -874.583488794151     IErMin= 3 ErrMin= 4.86D-06
 ErrMax= 4.86D-06  0.00D+00 EMaxC= 1.00D-01 BMatC= 7.76D-09 BMatP= 1.50D-07
 IDIUse=1 WtCom= 1.00D+00 WtEn= 0.00D+00
 Coeff-Com:  0.245D+00 0.151D+00 0.604D+00
 Coeff:      0.245D+00 0.151D+00 0.604D+00
 Gap=     0.253 Goal=   None    Shift=    0.000
 RMSDP=7.09D-07 MaxDP=1.86D-05 DE=-4.73D-07 OVMax= 2.62D-05

 Cycle   8  Pass 1  IDiag  1:
 RMSU=  6.33D-07    CP:  1.00D+00  4.79D-01  8.71D-01
 E= -874.583488799433     Delta-E=       -0.000000005282 Rises=F Damp=F
 DIIS: error= 2.10D-06 at cycle   4 NSaved=   4.
 NSaved= 4 IEnMin= 4 EnMin= -874.583488799433     IErMin= 4 ErrMin= 2.10D-06
 ErrMax= 2.10D-06  0.00D+00 EMaxC= 1.00D-01 BMatC= 1.46D-09 BMatP= 7.76D-09
 IDIUse=1 WtCom= 1.00D+00 WtEn= 0.00D+00
 Coeff-Com:  0.117D-01 0.242D-01 0.331D+00 0.633D+00
 Coeff:      0.117D-01 0.242D-01 0.331D+00 0.633D+00
 Gap=     0.253 Goal=   None    Shift=    0.000
 RMSDP=2.26D-07 MaxDP=5.57D-06 DE=-5.28D-09 OVMax= 7.12D-06

 Cycle   9  Pass 1  IDiag  1:
 RMSU=  1.12D-07    CP:  1.00D+00  4.82D-01  9.09D-01  7.22D-01
 E= -874.583488800575     Delta-E=       -0.000000001142 Rises=F Damp=F
 DIIS: error= 8.39D-07 at cycle   5 NSaved=   5.
 NSaved= 5 IEnMin= 5 EnMin= -874.583488800575     IErMin= 5 ErrMin= 8.39D-07
 ErrMax= 8.39D-07  0.00D+00 EMaxC= 1.00D-01 BMatC= 9.75D-11 BMatP= 1.46D-09
 IDIUse=1 WtCom= 1.00D+00 WtEn= 0.00D+00
 Coeff-Com: -0.656D-02 0.509D-02 0.150D+00 0.341D+00 0.511D+00
 Coeff:     -0.656D-02 0.509D-02 0.150D+00 0.341D+00 0.511D+00
 Gap=     0.253 Goal=   None    Shift=    0.000
 RMSDP=5.45D-08 MaxDP=1.80D-06 DE=-1.14D-09 OVMax= 1.70D-06

 Cycle  10  Pass 1  IDiag  1:
 RMSU=  4.35D-08    CP:  1.00D+00  4.84D-01  9.14D-01  7.12D-01  7.37D-01
 E= -874.583488800643     Delta-E=       -0.000000000068 Rises=F Damp=F
 DIIS: error= 1.46D-07 at cycle   6 NSaved=   6.
 NSaved= 6 IEnMin= 6 EnMin= -874.583488800643     IErMin= 6 ErrMin= 1.46D-07
 ErrMax= 1.46D-07  0.00D+00 EMaxC= 1.00D-01 BMatC= 6.53D-12 BMatP= 9.75D-11
 IDIUse=1 WtCom= 1.00D+00 WtEn= 0.00D+00
 Coeff-Com: -0.503D-02-0.552D-03 0.358D-01 0.953D-01 0.241D+00 0.634D+00
 Coeff:     -0.503D-02-0.552D-03 0.358D-01 0.953D-01 0.241D+00 0.634D+00
 Gap=     0.253 Goal=   None    Shift=    0.000
 RMSDP=1.88D-08 MaxDP=5.28D-07 DE=-6.84D-11 OVMax= 8.74D-07

 Cycle  11  Pass 1  IDiag  1:
 RMSU=  1.66D-08    CP:  1.00D+00  4.83D-01  9.15D-01  7.15D-01  7.90D-01
                    CP:  8.83D-01
 E= -874.583488800650     Delta-E=       -0.000000000007 Rises=F Damp=F
 DIIS: error= 6.81D-08 at cycle   7 NSaved=   7.
 NSaved= 7 IEnMin= 7 EnMin= -874.583488800650     IErMin= 7 ErrMin= 6.81D-08
 ErrMax= 6.81D-08  0.00D+00 EMaxC= 1.00D-01 BMatC= 2.02D-12 BMatP= 6.53D-12
 IDIUse=1 WtCom= 1.00D+00 WtEn= 0.00D+00
 Coeff-Com: -0.235D-02-0.102D-02 0.320D-02 0.155D-01 0.798D-01 0.391D+00
 Coeff-Com:  0.514D+00
 Coeff:     -0.235D-02-0.102D-02 0.320D-02 0.155D-01 0.798D-01 0.391D+00
 Coeff:      0.514D+00
 Gap=     0.253 Goal=   None    Shift=    0.000
 RMSDP=9.90D-09 MaxDP=3.71D-07 DE=-6.59D-12 OVMax= 5.16D-07

 SCF Done:  E(RB3LYP) =  -874.583488801     A.U. after   11 cycles
            NFock= 11  Conv=0.99D-08     -V/T= 2.0064
 KE= 8.690058599963D+02 PE=-3.310756810673D+03 EE= 9.416950330957D+02
 Leave Link  502 at Fri Mar 14 15:16:36 2025, MaxMem=  8589934592 cpu:              57.6 elap:               5.7
 (Enter /home/enzo/gaussian_versions/gdv.j21/gdv/l701.exe)
 ... and contract with generalized density number  0.
 Compute integral first derivatives.
 Leave Link  701 at Fri Mar 14 15:16:37 2025, MaxMem=  8589934592 cpu:               2.2 elap:               0.4
 (Enter /home/enzo/gaussian_versions/gdv.j21/gdv/l702.exe)
 L702 exits ... SP integral derivatives will be done elsewhere.
 Leave Link  702 at Fri Mar 14 15:16:37 2025, MaxMem=  8589934592 cpu:               0.3 elap:               0.2
 (Enter /home/enzo/gaussian_versions/gdv.j21/gdv/l703.exe)
 Integral derivatives from FoFJK, PRISM(SPDF).
 Compute integral first derivatives, UseDBF=F ICtDFT=           0.
 Calling FoFJK, ICntrl=      2127 FMM=F ISym2X=0 I1Cent= 0 IOpClX= 0 NMat=1 NMatS=1 NMatT=0.
 FoFJK:  IHMeth= 1 ICntrl=    2127 DoSepK=F KAlg= 0 I1Cent=           0 FoldK=F
 IRaf=         0 NMat=       1 IRICut=       1 DoRegI=T DoRafI=F ISym2E= 0 IDoP0=0 IntGTp=1.
 FoFCou: FMM=F IPFlag=           0 FMFlag=      100000 FMFlg1=         800
         NFxFlg=           0 DoJE=F BraDBF=F KetDBF=F FulRan=T
         wScrn=  0.000000 ICntrl=      2127 IOpCl=  0 I1Cent=           0 NGrid=           0
         NMat0=    1 NMatS0=      1 NMatT0=    0 NMatD0=    1 NMtDS0=    0 NMtDT0=    0
 Symmetry not used in FoFCou.
 Leave Link  703 at Fri Mar 14 15:16:39 2025, MaxMem=  8589934592 cpu:              15.8 elap:               2.0
 (Enter /home/enzo/gaussian_versions/gdv.j21/gdv/l716.exe)
 Dipole        =-8.24099416D-01 7.72275578D-01-7.06506401D-01
 ***** Axes restored to original set *****
 -------------------------------------------------------------------
 Center     Atomic                   Forces (Hartrees/Bohr)
 Number     Number              X              Y              Z
 -------------------------------------------------------------------
      1        6           0.000576900    0.000077964    0.000450726
      2        6          -0.001267634    0.000015113   -0.000789523
      3       16          -0.000165914   -0.000170156    0.000355289
      4        6           0.001475109    0.000346099    0.000325732
      5        8          -0.000375626    0.000127723    0.000332723
      6        7          -0.001206141   -0.000376131   -0.000600023
      7        6           0.000676331   -0.000462561    0.000380611
      8        6          -0.000109952   -0.000275749   -0.000081440
      9        8           0.000620638    0.000454889   -0.000387907
     10        8           0.000490176    0.000026398    0.000689500
     11        1          -0.000030887    0.000058779   -0.000191907
     12        1           0.000005015    0.000097280   -0.000032705
     13        1          -0.000117973    0.000044445   -0.000151661
     14        1           0.000355747    0.000145416    0.000117783
     15        1           0.000046934   -0.000112902   -0.000058788
     16        1          -0.000188971   -0.000267803    0.000187761
     17        1          -0.000610967    0.000183167   -0.000279099
     18        1           0.000097711    0.000368296   -0.000445754
     19        1          -0.000270495   -0.000280266    0.000178681
 -------------------------------------------------------------------
 Cartesian Forces:  Max     0.001475109 RMS     0.000446763
 Leave Link  716 at Fri Mar 14 15:16:39 2025, MaxMem=  8589934592 cpu:               0.3 elap:               0.2
 (Enter /home/enzo/gaussian_versions/gdv.j21/gdv/l103.exe)

 GradGradGradGradGradGradGradGradGradGradGradGradGradGradGradGradGradGrad
 Berny optimization.
 Using GEDIIS/GDIIS optimizer.
 FormGI is forming the generalized inverse of G from B-inverse, IUseBI=4.
 GSVD:  received Info=                   1 from GESDD.
 Internal  Forces:  Max     0.001112789 RMS     0.000309819
 Search for a local minimum.
 Step number  20 out of a maximum of   93
 All quantities printed in internal units (Hartrees-Bohrs-Radians)
 RMS Force = .30982D-03 SwitMx=.10000D-02 MixMth= 2
 Mixed Optimization -- En-DIIS/RFO-DIIS
 Swapping is turned off.
 Update second derivatives using D2CorX and points   15   17   18   19   20
 DE= -4.78D-05 DEPred=-3.60D-05 R= 1.33D+00
 TightC=F SS=  1.41D+00  RLast= 1.43D-01 DXNew= 3.0969D+00 4.2942D-01
 Trust test= 1.33D+00 RLast= 1.43D-01 DXMaxT set to 1.84D+00
 ITU=  1  1  1  1  0 -1  1  1  0  1 -1  1  1  1  1  0  0  1  1  0
     Eigenvalues ---    0.00071   0.00099   0.00292   0.00464   0.00656
     Eigenvalues ---    0.00828   0.01696   0.01981   0.03911   0.04412
     Eigenvalues ---    0.04882   0.05127   0.05556   0.05699   0.05740
     Eigenvalues ---    0.06640   0.07984   0.10492   0.13932   0.15562
     Eigenvalues ---    0.15975   0.16017   0.16072   0.16660   0.17381
     Eigenvalues ---    0.18064   0.21029   0.21749   0.22154   0.22377
     Eigenvalues ---    0.24345   0.25046   0.25684   0.26969   0.29051
     Eigenvalues ---    0.31206   0.32322   0.32467   0.32612   0.32673
     Eigenvalues ---    0.32681   0.33061   0.33177   0.35121   0.39191
     Eigenvalues ---    0.40865   0.44694   0.46181   0.51039   0.78536
     Eigenvalues ---    0.84756
 En-DIIS/RFO-DIIS/Sim-DIIS IScMMF=       -3 using points:    20   19   18   17
 RFO step:  Lambda=-7.44915038D-05.
 NNeg= 0 NGDIIS= 4 SimSw=  2.50D-01 Rises=F DC= -4.78D-05 SmlDif=  1.00D-05
 NRisDI= 0 DoIntr=F SqrtH=F CThrHd= 10.0 CDAdj=  3.0
 RMS Error=  0.2268359043D-01 NUsed= 4 OKEnD=T EnDIS=F
 InvSVX:  RCond= 2.03D-04 Info=           0 Equed=N FErr=  1.30D-13 BErr=  4.32D-17
 DidBck=FF Rises=F RFO-DIIS coefs:    2.32724   -1.10280   -0.36612    0.14168
 Iteration  1 RMS(Cart)=  0.02979678 RMS(Int)=  0.00044626
 Iteration  2 RMS(Cart)=  0.00060798 RMS(Int)=  0.00009326
 Iteration  3 RMS(Cart)=  0.00000028 RMS(Int)=  0.00009326
 Variable       Old X    -DE/DX   Delta X   Delta X   Delta X     New X
                                 (Linear)    (Quad)   (Total)
    R1        2.88142   0.00048  -0.00150   0.00173   0.00022   2.88164
    R2        2.06834  -0.00006   0.00026  -0.00028  -0.00002   2.06832
    R3        2.06647   0.00010   0.00044   0.00016   0.00060   2.06707
    R4        2.06587  -0.00010  -0.00002  -0.00046  -0.00047   2.06540
    R5        3.52315   0.00039  -0.00126   0.00214   0.00088   3.52403
    R6        2.91846  -0.00063  -0.00048  -0.00177  -0.00225   2.91621
    R7        2.07267  -0.00002  -0.00006  -0.00006  -0.00012   2.07255
    R8        2.55030   0.00010   0.00038   0.00019   0.00056   2.55086
    R9        2.31094   0.00024  -0.00059  -0.00002  -0.00061   2.31033
   R10        2.58396   0.00086   0.00351   0.00082   0.00433   2.58829
   R11        2.73145  -0.00084   0.00097  -0.00220  -0.00123   2.73022
   R12        1.91208   0.00022   0.00082   0.00000   0.00082   1.91290
   R13        2.88195  -0.00015   0.00062  -0.00023   0.00039   2.88234
   R14        2.06800   0.00015  -0.00119   0.00091  -0.00029   2.06771
   R15        2.06838   0.00026   0.00052  -0.00016   0.00036   2.06874
   R16        2.28610  -0.00055  -0.00085   0.00011  -0.00074   2.28536
   R17        2.55188   0.00088  -0.00003   0.00120   0.00116   2.55304
   R18        1.84372   0.00038  -0.00017   0.00055   0.00038   1.84410
    A1        1.92835  -0.00005   0.00027  -0.00045  -0.00018   1.92817
    A2        1.91707   0.00001   0.00005   0.00007   0.00012   1.91719
    A3        1.93397  -0.00010   0.00052  -0.00056  -0.00004   1.93392
    A4        1.90258  -0.00002  -0.00103  -0.00035  -0.00138   1.90120
    A5        1.89368   0.00017   0.00078   0.00162   0.00240   1.89608
    A6        1.88736  -0.00000  -0.00063  -0.00031  -0.00094   1.88642
    A7        1.96649   0.00007   0.00146  -0.00030   0.00115   1.96764
    A8        1.94205   0.00016   0.00088   0.00017   0.00104   1.94309
    A9        1.92465  -0.00033   0.00123  -0.00195  -0.00073   1.92392
   A10        1.92058  -0.00026  -0.00536  -0.00194  -0.00730   1.91328
   A11        1.85128   0.00017  -0.00094   0.00217   0.00124   1.85251
   A12        1.85330   0.00019   0.00276   0.00205   0.00480   1.85811
   A13        1.67202   0.00016  -0.00075   0.00060  -0.00015   1.67188
   A14        2.11169   0.00047   0.00184   0.00251   0.00434   2.11604
   A15        2.02159  -0.00033  -0.00200  -0.00162  -0.00362   2.01796
   A16        2.14757  -0.00014   0.00002  -0.00080  -0.00078   2.14679
   A17        2.11484  -0.00007  -0.00404   0.00041  -0.00410   2.11074
   A18        2.06008   0.00017  -0.00532   0.00089  -0.00493   2.05515
   A19        2.07429  -0.00012  -0.00460  -0.00041  -0.00547   2.06882
   A20        2.02254  -0.00028   0.00123   0.00135   0.00258   2.02512
   A21        1.86434   0.00058   0.00711  -0.00070   0.00642   1.87076
   A22        1.94369  -0.00014  -0.00648   0.00236  -0.00411   1.93958
   A23        1.87768  -0.00027  -0.00386  -0.00121  -0.00509   1.87259
   A24        1.86682   0.00044   0.00246   0.00044   0.00290   1.86971
   A25        1.88378  -0.00037  -0.00060  -0.00270  -0.00328   1.88050
   A26        2.15666  -0.00111  -0.00245  -0.00087  -0.00333   2.15333
   A27        1.97105   0.00084   0.00235  -0.00013   0.00220   1.97325
   A28        2.15546   0.00027   0.00018   0.00096   0.00113   2.15659
   A29        1.85213   0.00005   0.00108  -0.00053   0.00055   1.85268
    D1        1.04363   0.00014  -0.00433   0.00475   0.00042   1.04405
    D2       -3.07297  -0.00003  -0.00962   0.00209  -0.00753  -3.08051
    D3       -1.02113   0.00010  -0.00490   0.00351  -0.00139  -1.02252
    D4       -3.13999   0.00008  -0.00541   0.00407  -0.00133  -3.14132
    D5       -0.97341  -0.00009  -0.01070   0.00142  -0.00929  -0.98270
    D6        1.07843   0.00004  -0.00598   0.00284  -0.00314   1.07529
    D7       -1.05579   0.00002  -0.00583   0.00338  -0.00245  -1.05823
    D8        1.11080  -0.00015  -0.01112   0.00072  -0.01040   1.10039
    D9       -3.12054  -0.00001  -0.00640   0.00214  -0.00426  -3.12480
   D10       -1.27191   0.00005   0.02885  -0.01198   0.01687  -1.25504
   D11        2.83290  -0.00002   0.03071  -0.01050   0.02021   2.85311
   D12        0.83539  -0.00021   0.03059  -0.01312   0.01746   0.85286
   D13        0.24309  -0.00018  -0.04613  -0.00726  -0.05339   0.18970
   D14       -2.96972  -0.00009  -0.04825  -0.00606  -0.05431  -3.02403
   D15        2.43543  -0.00016  -0.04757  -0.00896  -0.05652   2.37892
   D16       -0.77737  -0.00008  -0.04970  -0.00776  -0.05744  -0.83482
   D17       -1.85154   0.00002  -0.04980  -0.00627  -0.05607  -1.90760
   D18        1.21885   0.00010  -0.05192  -0.00506  -0.05700   1.16185
   D19        3.07290   0.00004  -0.02319   0.00833  -0.01488   3.05803
   D20        0.21162   0.00014   0.03432   0.00475   0.03908   0.25071
   D21       -0.14152   0.00015  -0.02529   0.00971  -0.01559  -0.15711
   D22       -3.00280   0.00025   0.03221   0.00613   0.03836  -2.96444
   D23       -1.79725   0.00016   0.06726   0.00149   0.06870  -1.72856
   D24        0.29419   0.00007   0.06831   0.00028   0.06855   0.36274
   D25        2.34709  -0.00010   0.06834  -0.00210   0.06618   2.41327
   D26        1.06180   0.00011   0.00906   0.00530   0.01441   1.07622
   D27       -3.12994   0.00002   0.01011   0.00409   0.01427  -3.11567
   D28       -1.07704  -0.00016   0.01014   0.00171   0.01190  -1.06514
   D29       -2.94061   0.00005  -0.03503  -0.00326  -0.03830  -2.97891
   D30        0.20617   0.00021  -0.04305   0.00469  -0.03837   0.16781
   D31        1.25840  -0.00032  -0.04209  -0.00233  -0.04442   1.21398
   D32       -1.87801  -0.00016  -0.05011   0.00562  -0.04449  -1.92250
   D33       -0.76169   0.00002  -0.04073   0.00117  -0.03956  -0.80125
   D34        2.38509   0.00018  -0.04874   0.00912  -0.03963   2.34546
   D35        3.11109   0.00009   0.00981  -0.00475   0.00505   3.11615
   D36       -0.02531   0.00026   0.00180   0.00319   0.00500  -0.02031
         Item               Value     Threshold  Converged?
 Maximum Force            0.001113     0.000450     NO 
 RMS     Force            0.000310     0.000300     NO 
 Maximum Displacement     0.121461     0.001800     NO 
 RMS     Displacement     0.029746     0.001200     NO 
 Predicted change in Energy=-3.879428D-05
 Lowest energy point so far.  Saving SCF results.
 GradGradGradGradGradGradGradGradGradGradGradGradGradGradGradGradGradGrad

 Leave Link  103 at Fri Mar 14 15:16:40 2025, MaxMem=  8589934592 cpu:               1.0 elap:               0.3
 (Enter /home/enzo/gaussian_versions/gdv.j21/gdv/l202.exe)
                          Input orientation:                          
 ---------------------------------------------------------------------
 Center     Atomic      Atomic             Coordinates (Angstroms)
 Number     Number       Type             X           Y           Z
 ---------------------------------------------------------------------
      1          6           0        3.008994    1.134941    0.485021
      2          6           0        2.037904    0.220167   -0.253549
      3         16           0        1.873985   -1.455198    0.548880
      4          6           0        0.644509    0.870150   -0.385512
      5          8           0        0.465870    2.048180   -0.111621
      6          7           0       -0.335991    0.068482   -0.906974
      7          6           0       -1.704509    0.524826   -0.986181
      8          6           0       -2.636421    0.041414    0.120302
      9          8           0       -3.834625    0.203935    0.099281
     10          8           0       -1.984540   -0.580323    1.127141
     11          1           0        4.007521    0.687833    0.516424
     12          1           0        3.068759    2.101383   -0.023813
     13          1           0        2.672900    1.311369    1.509950
     14          1           0        2.392774    0.035708   -1.274771
     15          1           0        3.094181   -1.901537    0.182796
     16          1           0       -0.154171   -0.926010   -0.957993
     17          1           0       -1.684051    1.617834   -0.939755
     18          1           0       -2.160972    0.239857   -1.939527
     19          1           0       -2.665723   -0.823571    1.782209
 ---------------------------------------------------------------------
                    Distance matrix (angstroms):
                    1          2          3          4          5
     1  C    0.000000
     2  C    1.524897   0.000000
     3  S    2.828629   1.864835   0.000000
     4  C    2.533521   1.543191   2.791405   0.000000
     5  O    2.767213   2.415174   3.833107   1.222573   0.000000
     6  N    3.776759   2.466850   3.053703   1.369662   2.279204
     7  C    4.975318   3.825601   4.368355   2.449069   2.792133
     8  C    5.761904   4.692657   4.771508   3.421572   3.702041
     9  O    6.917419   5.883141   5.961802   4.554285   4.684013
    10  O    5.318819   4.327487   3.998501   3.362126   3.801062
    11  H    1.094508   2.165863   3.024172   3.486628   3.845553
    12  H    1.093844   2.157409   3.795357   2.742945   2.604913
    13  H    1.092962   2.168841   3.035756   2.811017   2.836082
    14  H    2.164465   1.096746   2.411980   2.131550   3.019259
    15  H    3.052670   2.409927   1.349857   3.742474   4.753416
    16  H    4.041710   2.571994   2.581496   2.047392   3.153823
    17  H    4.928271   4.034514   4.931448   2.507671   2.343751
    18  H    5.779979   4.524762   5.034506   3.268479   3.675809
    19  H    6.141732   5.230469   4.746472   4.304108   4.651927
                    6          7          8          9         10
     6  N    0.000000
     7  C    1.444772   0.000000
     8  C    2.519526   1.525271   0.000000
     9  O    3.642985   2.412176   1.209358   0.000000
    10  O    2.697460   2.401229   1.351011   2.257071   0.000000
    11  H    4.612565   5.908611   6.687057   7.868127   6.155160
    12  H    4.062632   5.118180   6.067398   7.160459   5.835416
    13  H    4.054592   5.100101   5.633187   6.750131   5.041506
    14  H    2.753635   4.136454   5.219106   6.379406   5.030861
    15  H    4.103005   5.502833   6.051344   7.242122   5.332054
    16  H    1.012262   2.123503   2.874055   3.992536   2.795985
    17  H    2.053980   1.094185   2.125048   2.775549   3.032202
    18  H    2.103828   1.094730   2.123282   2.638018   3.179352
    19  H    3.668122   3.225847   1.873764   2.292236   0.975855
                   11         12         13         14         15
    11  H    0.000000
    12  H    1.780801   0.000000
    13  H    1.776825   1.770101   0.000000
    14  H    2.498210   2.507761   3.075785   0.000000
    15  H    2.765924   4.008329   3.501654   2.523765   0.000000
    16  H    4.700859   4.519411   4.369089   2.740835   3.578386
    17  H    5.948055   4.864358   5.007794   4.385871   6.039669
    18  H    6.654524   5.872421   6.034347   4.606537   6.058585
    19  H    6.958358   6.685907   5.756126   5.972594   6.074259
                   16         17         18         19
    16  H    0.000000
    17  H    2.968503   0.000000
    18  H    2.519902   1.767998   0.000000
    19  H    3.718480   3.785925   3.903456   0.000000
 Stoichiometry    C5H9NO3S
 Framework group  C1[X(C5H9NO3S)]
 Deg. of freedom    51
 Full point group                 C1      NOp   1
 RotChk:  IX=2 Diff= 7.15D-03
 Largest Abelian subgroup         C1      NOp   1
 Largest concise Abelian subgroup C1      NOp   1
                         Standard orientation:                         
 ---------------------------------------------------------------------
 Center     Atomic      Atomic             Coordinates (Angstroms)
 Number     Number       Type             X           Y           Z
 ---------------------------------------------------------------------
      1          6           0       -2.980691   -0.925313    0.668705
      2          6           0       -2.003750   -0.276950   -0.306244
      3         16           0       -1.913555    1.575475   -0.111312
      4          6           0       -0.590542   -0.881778   -0.170355
      5          8           0       -0.393923   -1.891806    0.489849
      6          7           0        0.389909   -0.266543   -0.902595
      7          6           0        1.771369   -0.672319   -0.783090
      8          6           0        2.646022    0.188781    0.122416
      9          8           0        3.847760    0.072818    0.192596
     10          8           0        1.939200    1.088340    0.841045
     11          1           0       -3.990428   -0.530694    0.518188
     12          1           0       -2.996128   -2.008058    0.514041
     13          1           0       -2.681614   -0.734509    1.702490
     14          1           0       -2.321930   -0.459640   -1.339800
     15          1           0       -3.128793    1.827623   -0.642097
     16          1           0        0.185735    0.645547   -1.291285
     17          1           0        1.776110   -1.686104   -0.371437
     18          1           0        2.258422   -0.707777   -1.762863
     19          1           0        2.587403    1.562478    1.395409
 ---------------------------------------------------------------------
 Rotational constants (GHZ):           2.0043077           0.6192060           0.5267987
 Leave Link  202 at Fri Mar 14 15:16:40 2025, MaxMem=  8589934592 cpu:               0.8 elap:               0.4
 (Enter /home/enzo/gaussian_versions/gdv.j21/gdv/l301.exe)
 Standard basis: 6-31G(d) (6D, 7F)
 Ernie: Thresh=  0.10000D-02 Tol=  0.10000D-05 Strict=F.
 There are   172 symmetry adapted cartesian basis functions of A   symmetry.
 There are   172 symmetry adapted basis functions of A   symmetry.
   172 basis functions,   340 primitive gaussians,   172 cartesian basis functions
    43 alpha electrons       43 beta electrons
       nuclear repulsion energy       626.5067836626 Hartrees.
 IExCor=      4002 DFT=T Ex+Corr=B3LYP ScaHFX=  0.200000
 ScaDFX=  0.800000  0.720000  1.000000  0.810000  1.000000  0.000000
 ScaDFX=  0.000000  0.000000  0.000000  0.000000  0.000000  0.000000
 IRadAn=      5 IRanWt=     -1 IRanGd=            0 ICorTp=0 IEmpDi=  4
 NAtoms=   19 NActive=   19 NUniq=   19 SFac= 1.00D+00 NAtFMM=   60 NAOKFM=F Big=F
 Integral buffers will be    131072 words long.
 Raffenetti 2 integral format.
 Two-electron integral symmetry is turned on.
 Leave Link  301 at Fri Mar 14 15:16:40 2025, MaxMem=  8589934592 cpu:               0.3 elap:               0.2
 (Enter /home/enzo/gaussian_versions/gdv.j21/gdv/l302.exe)
 NPDir=0 NMtPBC=     1 NCelOv=     1 NCel=       1 NClECP=     1 NCelD=      1
         NCelK=      1 NCelE2=     1 NClLst=     1 CellRange=     0.0.
 One-electron integrals computed using PRISM.
 One-electron integral symmetry used in STVInt
 NBasis=   172 RedAO= T EigKep=  3.10D-03  NBF=   172
 NBsUse=   172 1.00D-06 EigRej= -1.00D+00 NBFU=   172
 Precomputing XC quadrature grid using
 IXCGrd= 4 IRadAn=           5 IRanWt=          -1 IRanGd=           0 AccXCQ= 0.00D+00.
 Generated NRdTot=       0 NPtTot=      407735 NUsed=           0 NTot=          64
 NSgBfM=   171   171   171   171   171 MxSgAt=    19 MxSgA2=    19 SizInc=   0.000
 NMBTot=     3478 MaxBatPerAtom=       85 MaxMicBPerAtom=      209 NBfPt=            51303843.
 Leave Link  302 at Fri Mar 14 15:16:41 2025, MaxMem=  8589934592 cpu:               4.7 elap:               0.8
 (Enter /home/enzo/gaussian_versions/gdv.j21/gdv/l303.exe)
 DipDrv:  MaxL=1.
 Leave Link  303 at Fri Mar 14 15:16:41 2025, MaxMem=  8589934592 cpu:               1.1 elap:               0.4
 (Enter /home/enzo/gaussian_versions/gdv.j21/gdv/l401.exe)
 Initial guess from the checkpoint file:  "/local/home/enzo/scratch/Gau-2337652.chk"
 B after Tr=    -0.000000   -0.000000    0.000000
         Rot=    0.999996    0.001989    0.000799   -0.001703 Ang=   0.31 deg.
 AO Guess basis will be translated and rotated to current coordinates.
 JPrj=2 DoOrth=T DoCkMO=T.
 Generating alternative initial guess.
 ExpMin= 1.17D-01 ExpMax= 2.19D+04 ExpMxC= 3.30D+03 IAcc=3 IRadAn=         5 AccDes= 0.00D+00
 Harris functional with IExCor= 4002 and IRadAn=       5 diagonalized for initial guess.
 HarFok:  IExCor=    4002 AccDes= 0.00D+00 IRadAn=         5 IDoV= 1 UseB2=F ITyADJ=14 ICtDFT=  3500011
 FoFCou: FMM=F IPFlag=           0 FMFlag=      100000 FMFlg1=           0
         NFxFlg=           0 DoJE=T BraDBF=F KetDBF=T FulRan=T
         wScrn=  0.000000 ICntrl=       500 IOpCl=  0 I1Cent=   200000004 NGrid=           0
         NMat0=    1 NMatS0=      1 NMatT0=    0 NMatD0=    1 NMtDS0=    0 NMtDT0=    0
 Petite list used in FoFCou.
 Harris En= -874.547910097114    
 Leave Link  401 at Fri Mar 14 15:16:43 2025, MaxMem=  8589934592 cpu:               8.6 elap:               1.2
 (Enter /home/enzo/gaussian_versions/gdv.j21/gdv/l502.exe)
 Integral symmetry usage will be decided dynamically.
 Closed shell SCF:
 Using DIIS extrapolation, IDIIS=  1040.
 NGot=  8589934592 LenX=  8589843591 LenY=  8589813566
 Requested convergence on RMS density matrix=1.00D-08 within 128 cycles.
 Requested convergence on MAX density matrix=1.00D-06.
 Requested convergence on             energy=1.00D-06.
 No special actions if energy rises.
 Fock matrices will be formed incrementally for  20 cycles.
 Integral accuracy reduced to 1.0D-05 until final iterations.

 Cycle   1  Pass 0  IDiag  1:
 FoFJK:  IHMeth= 1 ICntrl=       0 DoSepK=F KAlg= 0 I1Cent=           0 FoldK=F
 IRaf= 910000000 NMat=       1 IRICut=       1 DoRegI=T DoRafI=F ISym2E= 0 IDoP0=0 IntGTp=1.
 FoFCou: FMM=F IPFlag=           0 FMFlag=      100000 FMFlg1=           0
         NFxFlg=           0 DoJE=F BraDBF=F KetDBF=F FulRan=T
         wScrn=  0.000000 ICntrl=         0 IOpCl=  0 I1Cent=           0 NGrid=           0
         NMat0=    1 NMatS0=      1 NMatT0=    0 NMatD0=    1 NMtDS0=    0 NMtDT0=    0
 Symmetry not used in FoFCou.
 E= -874.580323166376    
 DIIS: error= 1.87D-03 at cycle   1 NSaved=   1.
 NSaved= 1 IEnMin= 1 EnMin= -874.580323166376     IErMin= 1 ErrMin= 1.87D-03
 ErrMax= 1.87D-03  0.00D+00 EMaxC= 1.00D-01 BMatC= 1.67D-03 BMatP= 1.67D-03
 IDIUse=3 WtCom= 9.81D-01 WtEn= 1.87D-02
 Coeff-Com:  0.100D+01
 Coeff-En:   0.100D+01
 Coeff:      0.100D+01
 Gap=     1.613 Goal=   None    Shift=    0.000
 GapD=    1.613 DampG=2.000 DampE=1.000 DampFc=2.0000 IDamp=-1.
 RMSDP=4.25D-04 MaxDP=1.09D-02              OVMax= 1.24D-02

 Cycle   2  Pass 0  IDiag  1:
 RMSU=  4.25D-04    CP:  1.00D+00
 E= -874.583490910622     Delta-E=       -0.003167744245 Rises=F Damp=F
 DIIS: error= 2.27D-04 at cycle   2 NSaved=   2.
 NSaved= 2 IEnMin= 2 EnMin= -874.583490910622     IErMin= 2 ErrMin= 2.27D-04
 ErrMax= 2.27D-04  0.00D+00 EMaxC= 1.00D-01 BMatC= 3.05D-05 BMatP= 1.67D-03
 IDIUse=3 WtCom= 9.98D-01 WtEn= 2.27D-03
 Coeff-Com: -0.727D-01 0.107D+01
 Coeff-En:   0.000D+00 0.100D+01
 Coeff:     -0.725D-01 0.107D+01
 Gap=     0.251 Goal=   None    Shift=    0.000
 RMSDP=6.36D-05 MaxDP=1.45D-03 DE=-3.17D-03 OVMax= 1.85D-03

 Cycle   3  Pass 0  IDiag  1:
 RMSU=  5.48D-05    CP:  1.00D+00  1.08D+00
 E= -874.583522273349     Delta-E=       -0.000031362727 Rises=F Damp=F
 DIIS: error= 2.56D-04 at cycle   3 NSaved=   3.
 NSaved= 3 IEnMin= 3 EnMin= -874.583522273349     IErMin= 2 ErrMin= 2.27D-04
 ErrMax= 2.56D-04  0.00D+00 EMaxC= 1.00D-01 BMatC= 1.83D-05 BMatP= 3.05D-05
 IDIUse=3 WtCom= 9.97D-01 WtEn= 2.56D-03
 Coeff-Com: -0.397D-01 0.504D+00 0.535D+00
 Coeff-En:   0.000D+00 0.000D+00 0.100D+01
 Coeff:     -0.396D-01 0.503D+00 0.536D+00
 Gap=     0.252 Goal=   None    Shift=    0.000
 RMSDP=3.81D-05 MaxDP=1.24D-03 DE=-3.14D-05 OVMax= 1.57D-03

 Cycle   4  Pass 0  IDiag  1:
 RMSU=  2.45D-05    CP:  1.00D+00  1.09D+00  4.77D-01
 E= -874.583531457282     Delta-E=       -0.000009183934 Rises=F Damp=F
 DIIS: error= 1.67D-04 at cycle   4 NSaved=   4.
 NSaved= 4 IEnMin= 4 EnMin= -874.583531457282     IErMin= 4 ErrMin= 1.67D-04
 ErrMax= 1.67D-04  0.00D+00 EMaxC= 1.00D-01 BMatC= 7.79D-06 BMatP= 1.83D-05
 IDIUse=3 WtCom= 9.98D-01 WtEn= 1.67D-03
 Coeff-Com: -0.146D-01 0.172D+00 0.383D+00 0.459D+00
 Coeff-En:   0.000D+00 0.000D+00 0.311D+00 0.689D+00
 Coeff:     -0.146D-01 0.172D+00 0.383D+00 0.459D+00
 Gap=     0.251 Goal=   None    Shift=    0.000
 RMSDP=1.59D-05 MaxDP=5.93D-04 DE=-9.18D-06 OVMax= 7.00D-04

 Cycle   5  Pass 0  IDiag  1:
 RMSU=  8.07D-06    CP:  1.00D+00  1.09D+00  6.23D-01  5.52D-01
 E= -874.583537226585     Delta-E=       -0.000005769303 Rises=F Damp=F
 DIIS: error= 2.15D-05 at cycle   5 NSaved=   5.
 NSaved= 5 IEnMin= 5 EnMin= -874.583537226585     IErMin= 5 ErrMin= 2.15D-05
 ErrMax= 2.15D-05  0.00D+00 EMaxC= 1.00D-01 BMatC= 2.96D-07 BMatP= 7.79D-06
 IDIUse=1 WtCom= 1.00D+00 WtEn= 0.00D+00
 Coeff-Com: -0.394D-02 0.426D-01 0.155D+00 0.240D+00 0.566D+00
 Coeff:     -0.394D-02 0.426D-01 0.155D+00 0.240D+00 0.566D+00
 Gap=     0.251 Goal=   None    Shift=    0.000
 RMSDP=4.07D-06 MaxDP=1.22D-04 DE=-5.77D-06 OVMax= 1.56D-04

 Initial convergence to 1.0D-05 achieved.  Increase integral accuracy.
 Cycle   6  Pass 1  IDiag  1:
 E= -874.583531652146     Delta-E=        0.000005574439 Rises=F Damp=F
 DIIS: error= 7.99D-06 at cycle   1 NSaved=   1.
 NSaved= 1 IEnMin= 1 EnMin= -874.583531652146     IErMin= 1 ErrMin= 7.99D-06
 ErrMax= 7.99D-06  0.00D+00 EMaxC= 1.00D-01 BMatC= 4.96D-08 BMatP= 4.96D-08
 IDIUse=1 WtCom= 1.00D+00 WtEn= 0.00D+00
 Coeff-Com:  0.100D+01
 Coeff:      0.100D+01
 Gap=     0.251 Goal=   None    Shift=    0.000
 RMSDP=4.07D-06 MaxDP=1.22D-04 DE= 5.57D-06 OVMax= 9.68D-05

 Cycle   7  Pass 1  IDiag  1:
 RMSU=  4.31D-06    CP:  1.00D+00
 E= -874.583531605776     Delta-E=        0.000000046370 Rises=F Damp=F
 DIIS: error= 1.49D-05 at cycle   2 NSaved=   2.
 NSaved= 2 IEnMin= 1 EnMin= -874.583531652146     IErMin= 1 ErrMin= 7.99D-06
 ErrMax= 1.49D-05  0.00D+00 EMaxC= 1.00D-01 BMatC= 1.08D-07 BMatP= 4.96D-08
 IDIUse=1 WtCom= 1.00D+00 WtEn= 0.00D+00
 Coeff-Com:  0.606D+00 0.394D+00
 Coeff:      0.606D+00 0.394D+00
 Gap=     0.251 Goal=   None    Shift=    0.000
 RMSDP=1.91D-06 MaxDP=5.93D-05 DE= 4.64D-08 OVMax= 8.59D-05

 Cycle   8  Pass 1  IDiag  1:
 RMSU=  1.49D-06    CP:  1.00D+00  7.25D-01
 E= -874.583531690212     Delta-E=       -0.000000084436 Rises=F Damp=F
 DIIS: error= 3.60D-06 at cycle   3 NSaved=   3.
 NSaved= 3 IEnMin= 3 EnMin= -874.583531690212     IErMin= 3 ErrMin= 3.60D-06
 ErrMax= 3.60D-06  0.00D+00 EMaxC= 1.00D-01 BMatC= 5.56D-09 BMatP= 4.96D-08
 IDIUse=1 WtCom= 1.00D+00 WtEn= 0.00D+00
 Coeff-Com:  0.171D+00 0.204D+00 0.625D+00
 Coeff:      0.171D+00 0.204D+00 0.625D+00
 Gap=     0.251 Goal=   None    Shift=    0.000
 RMSDP=5.69D-07 MaxDP=1.65D-05 DE=-8.44D-08 OVMax= 2.87D-05

 Cycle   9  Pass 1  IDiag  1:
 RMSU=  4.61D-07    CP:  1.00D+00  7.63D-01  8.09D-01
 E= -874.583531692718     Delta-E=       -0.000000002506 Rises=F Damp=F
 DIIS: error= 2.31D-06 at cycle   4 NSaved=   4.
 NSaved= 4 IEnMin= 4 EnMin= -874.583531692718     IErMin= 4 ErrMin= 2.31D-06
 ErrMax= 2.31D-06  0.00D+00 EMaxC= 1.00D-01 BMatC= 2.38D-09 BMatP= 5.56D-09
 IDIUse=1 WtCom= 1.00D+00 WtEn= 0.00D+00
 Coeff-Com:  0.783D-02 0.734D-01 0.446D+00 0.473D+00
 Coeff:      0.783D-02 0.734D-01 0.446D+00 0.473D+00
 Gap=     0.251 Goal=   None    Shift=    0.000
 RMSDP=2.45D-07 MaxDP=6.55D-06 DE=-2.51D-09 OVMax= 9.43D-06

 Cycle  10  Pass 1  IDiag  1:
 RMSU=  8.49D-08    CP:  1.00D+00  7.68D-01  8.56D-01  5.30D-01
 E= -874.583531694537     Delta-E=       -0.000000001819 Rises=F Damp=F
 DIIS: error= 2.61D-07 at cycle   5 NSaved=   5.
 NSaved= 5 IEnMin= 5 EnMin= -874.583531694537     IErMin= 5 ErrMin= 2.61D-07
 ErrMax= 2.61D-07  0.00D+00 EMaxC= 1.00D-01 BMatC= 2.64D-11 BMatP= 2.38D-09
 IDIUse=1 WtCom= 1.00D+00 WtEn= 0.00D+00
 Coeff-Com: -0.338D-02 0.250D-01 0.172D+00 0.209D+00 0.598D+00
 Coeff:     -0.338D-02 0.250D-01 0.172D+00 0.209D+00 0.598D+00
 Gap=     0.251 Goal=   None    Shift=    0.000
 RMSDP=3.94D-08 MaxDP=9.67D-07 DE=-1.82D-09 OVMax= 1.20D-06

 Cycle  11  Pass 1  IDiag  1:
 RMSU=  2.90D-08    CP:  1.00D+00  7.69D-01  8.55D-01  5.28D-01  6.95D-01
 E= -874.583531694556     Delta-E=       -0.000000000020 Rises=F Damp=F
 DIIS: error= 8.15D-08 at cycle   6 NSaved=   6.
 NSaved= 6 IEnMin= 6 EnMin= -874.583531694556     IErMin= 6 ErrMin= 8.15D-08
 ErrMax= 8.15D-08  0.00D+00 EMaxC= 1.00D-01 BMatC= 2.76D-12 BMatP= 2.64D-11
 IDIUse=1 WtCom= 1.00D+00 WtEn= 0.00D+00
 Coeff-Com: -0.257D-02 0.717D-02 0.527D-01 0.695D-01 0.296D+00 0.577D+00
 Coeff:     -0.257D-02 0.717D-02 0.527D-01 0.695D-01 0.296D+00 0.577D+00
 Gap=     0.251 Goal=   None    Shift=    0.000
 RMSDP=1.11D-08 MaxDP=3.03D-07 DE=-1.96D-11 OVMax= 3.38D-07

 Cycle  12  Pass 1  IDiag  1:
 RMSU=  8.27D-09    CP:  1.00D+00  7.69D-01  8.56D-01  5.32D-01  7.56D-01
                    CP:  8.28D-01
 E= -874.583531694567     Delta-E=       -0.000000000011 Rises=F Damp=F
 DIIS: error= 2.99D-08 at cycle   7 NSaved=   7.
 NSaved= 7 IEnMin= 7 EnMin= -874.583531694567     IErMin= 7 ErrMin= 2.99D-08
 ErrMax= 2.99D-08  0.00D+00 EMaxC= 1.00D-01 BMatC= 4.08D-13 BMatP= 2.76D-12
 IDIUse=1 WtCom= 1.00D+00 WtEn= 0.00D+00
 Coeff-Com: -0.956D-03 0.971D-03 0.805D-02 0.124D-01 0.843D-01 0.299D+00
 Coeff-Com:  0.597D+00
 Coeff:     -0.956D-03 0.971D-03 0.805D-02 0.124D-01 0.843D-01 0.299D+00
 Coeff:      0.597D+00
 Gap=     0.251 Goal=   None    Shift=    0.000
 RMSDP=5.35D-09 MaxDP=1.83D-07 DE=-1.09D-11 OVMax= 2.27D-07

 SCF Done:  E(RB3LYP) =  -874.583531695     A.U. after   12 cycles
            NFock= 12  Conv=0.53D-08     -V/T= 2.0064
 KE= 8.690027121334D+02 PE=-3.312833415006D+03 EE= 9.427403875160D+02
 Leave Link  502 at Fri Mar 14 15:16:49 2025, MaxMem=  8589934592 cpu:              60.3 elap:               5.9
 (Enter /home/enzo/gaussian_versions/gdv.j21/gdv/l701.exe)
 ... and contract with generalized density number  0.
 Compute integral first derivatives.
 Leave Link  701 at Fri Mar 14 15:16:49 2025, MaxMem=  8589934592 cpu:               1.2 elap:               0.3
 (Enter /home/enzo/gaussian_versions/gdv.j21/gdv/l702.exe)
 L702 exits ... SP integral derivatives will be done elsewhere.
 Leave Link  702 at Fri Mar 14 15:16:49 2025, MaxMem=  8589934592 cpu:               0.1 elap:               0.2
 (Enter /home/enzo/gaussian_versions/gdv.j21/gdv/l703.exe)
 Integral derivatives from FoFJK, PRISM(SPDF).
 Compute integral first derivatives, UseDBF=F ICtDFT=           0.
 Calling FoFJK, ICntrl=      2127 FMM=F ISym2X=0 I1Cent= 0 IOpClX= 0 NMat=1 NMatS=1 NMatT=0.
 FoFJK:  IHMeth= 1 ICntrl=    2127 DoSepK=F KAlg= 0 I1Cent=           0 FoldK=F
 IRaf=         0 NMat=       1 IRICut=       1 DoRegI=T DoRafI=F ISym2E= 0 IDoP0=0 IntGTp=1.
 FoFCou: FMM=F IPFlag=           0 FMFlag=      100000 FMFlg1=         800
         NFxFlg=           0 DoJE=F BraDBF=F KetDBF=F FulRan=T
         wScrn=  0.000000 ICntrl=      2127 IOpCl=  0 I1Cent=           0 NGrid=           0
         NMat0=    1 NMatS0=      1 NMatT0=    0 NMatD0=    1 NMtDS0=    0 NMtDT0=    0
 Symmetry not used in FoFCou.
 Leave Link  703 at Fri Mar 14 15:16:51 2025, MaxMem=  8589934592 cpu:              15.6 elap:               2.0
 (Enter /home/enzo/gaussian_versions/gdv.j21/gdv/l716.exe)
 Dipole        =-8.32800612D-01 7.63913757D-01-7.54672684D-01
 ***** Axes restored to original set *****
 -------------------------------------------------------------------
 Center     Atomic                   Forces (Hartrees/Bohr)
 Number     Number              X              Y              Z
 -------------------------------------------------------------------
      1        6           0.000315402    0.000059608    0.000285149
      2        6          -0.000680410    0.000122690   -0.000508497
      3       16          -0.000030161   -0.000196105    0.000199798
      4        6           0.000609252    0.000154086   -0.000008863
      5        8          -0.000178510   -0.000020170    0.000076190
      6        7          -0.000241820   -0.000109208    0.000083373
      7        6           0.000342215   -0.000158955    0.000228054
      8        6           0.000128284   -0.000115283   -0.000036467
      9        8          -0.000010739    0.000128518   -0.000122179
     10        8           0.000180993   -0.000004680    0.000157127
     11        1          -0.000036043    0.000030356   -0.000079706
     12        1          -0.000015389    0.000036606   -0.000016850
     13        1          -0.000037651    0.000006607   -0.000062589
     14        1           0.000119856    0.000038848    0.000096980
     15        1          -0.000019959   -0.000049163   -0.000020651
     16        1          -0.000106581   -0.000037207   -0.000037127
     17        1          -0.000195357    0.000037232   -0.000172928
     18        1          -0.000023233    0.000152536   -0.000143610
     19        1          -0.000120149   -0.000076315    0.000082796
 -------------------------------------------------------------------
 Cartesian Forces:  Max     0.000680410 RMS     0.000188465
 Leave Link  716 at Fri Mar 14 15:16:51 2025, MaxMem=  8589934592 cpu:               0.2 elap:               0.2
 (Enter /home/enzo/gaussian_versions/gdv.j21/gdv/l103.exe)

 GradGradGradGradGradGradGradGradGradGradGradGradGradGradGradGradGradGrad
 Berny optimization.
 Using GEDIIS/GDIIS optimizer.
 FormGI is forming the generalized inverse of G from B-inverse, IUseBI=4.
 GSVD:  received Info=                   1 from GESDD.
 Internal  Forces:  Max     0.000376704 RMS     0.000114195
 Search for a local minimum.
 Step number  21 out of a maximum of   93
 All quantities printed in internal units (Hartrees-Bohrs-Radians)
 RMS Force = .11420D-03 SwitMx=.10000D-02 MixMth= 2
 Mixed Optimization -- En-DIIS/RFO-DIIS
 Swapping is turned off.
 Update second derivatives using D2CorX and points   18   19   20   21
 DE= -4.29D-05 DEPred=-3.88D-05 R= 1.11D+00
 TightC=F SS=  1.41D+00  RLast= 2.20D-01 DXNew= 3.0969D+00 6.5874D-01
 Trust test= 1.11D+00 RLast= 2.20D-01 DXMaxT set to 1.84D+00
 ITU=  1  1  1  1  1  0 -1  1  1  0  1 -1  1  1  1  1  0  0  1  1
 ITU=  0
     Eigenvalues ---    0.00077   0.00106   0.00301   0.00461   0.00651
     Eigenvalues ---    0.00826   0.01698   0.01969   0.03899   0.04348
     Eigenvalues ---    0.04903   0.05101   0.05535   0.05684   0.05742
     Eigenvalues ---    0.06432   0.07925   0.10472   0.13675   0.15426
     Eigenvalues ---    0.15958   0.16015   0.16059   0.16648   0.17380
     Eigenvalues ---    0.18013   0.20982   0.21785   0.22160   0.22390
     Eigenvalues ---    0.24271   0.24812   0.25508   0.26749   0.28653
     Eigenvalues ---    0.30609   0.32324   0.32457   0.32602   0.32617
     Eigenvalues ---    0.32672   0.32998   0.33157   0.35072   0.38616
     Eigenvalues ---    0.40877   0.44758   0.46183   0.50234   0.78554
     Eigenvalues ---    0.84929
 En-DIIS/RFO-DIIS/Sim-DIIS IScMMF=       -3 using points:    21   20   19   18   17
 RFO step:  Lambda=-6.47829890D-06.
 NNeg= 0 NGDIIS= 5 SimSw=  2.50D-01 Rises=F DC= -4.29D-05 SmlDif=  1.00D-05
 NRisDI= 0 DoIntr=F SqrtH=F CThrHd= 10.0 CDAdj=  3.0
 RMS Error=  0.2338516896D-02 NUsed= 5 OKEnD=T EnDIS=F
 InvSVX:  RCond= 2.19D-05 Info=           0 Equed=N FErr=  3.12D-13 BErr=  6.96D-17
 DidBck=FF Rises=F RFO-DIIS coefs:    1.18497   -0.23343   -0.14685    0.12167    0.07364
 Iteration  1 RMS(Cart)=  0.00437134 RMS(Int)=  0.00014565
 Iteration  2 RMS(Cart)=  0.00001493 RMS(Int)=  0.00014525
 Iteration  3 RMS(Cart)=  0.00000000 RMS(Int)=  0.00014525
 Variable       Old X    -DE/DX   Delta X   Delta X   Delta X     New X
                                 (Linear)    (Quad)   (Total)
    R1        2.88164   0.00029   0.00094   0.00027   0.00120   2.88284
    R2        2.06832  -0.00005  -0.00013  -0.00006  -0.00019   2.06813
    R3        2.06707   0.00004   0.00011   0.00006   0.00017   2.06723
    R4        2.06540  -0.00005  -0.00012  -0.00001  -0.00014   2.06526
    R5        3.52403   0.00030   0.00086   0.00056   0.00142   3.52545
    R6        2.91621  -0.00038  -0.00087  -0.00062  -0.00150   2.91471
    R7        2.07255  -0.00006  -0.00003  -0.00018  -0.00022   2.07233
    R8        2.55086   0.00000   0.00014  -0.00010   0.00004   2.55090
    R9        2.31033   0.00002   0.00011  -0.00007   0.00004   2.31037
   R10        2.58829   0.00013   0.00046  -0.00010   0.00036   2.58865
   R11        2.73022  -0.00030  -0.00095  -0.00020  -0.00115   2.72907
   R12        1.91290   0.00002   0.00005  -0.00002   0.00003   1.91293
   R13        2.88234  -0.00003  -0.00020  -0.00018  -0.00038   2.88197
   R14        2.06771   0.00003   0.00017  -0.00007   0.00011   2.06782
   R15        2.06874   0.00009   0.00037   0.00007   0.00044   2.06918
   R16        2.28536   0.00003  -0.00001   0.00008   0.00007   2.28543
   R17        2.55304   0.00025   0.00043  -0.00009   0.00034   2.55338
   R18        1.84410   0.00016   0.00034  -0.00001   0.00033   1.84443
    A1        1.92817  -0.00002  -0.00017  -0.00005  -0.00022   1.92796
    A2        1.91719  -0.00001  -0.00033  -0.00019  -0.00052   1.91668
    A3        1.93392  -0.00004  -0.00009  -0.00004  -0.00013   1.93379
    A4        1.90120   0.00000  -0.00007   0.00009   0.00002   1.90122
    A5        1.89608   0.00007   0.00078   0.00013   0.00091   1.89699
    A6        1.88642   0.00001  -0.00011   0.00006  -0.00005   1.88637
    A7        1.96764  -0.00001  -0.00022  -0.00043  -0.00065   1.96699
    A8        1.94309   0.00009   0.00017   0.00002   0.00020   1.94329
    A9        1.92392  -0.00010  -0.00134   0.00019  -0.00115   1.92276
   A10        1.91328  -0.00010  -0.00016   0.00016   0.00001   1.91329
   A11        1.85251   0.00006   0.00062  -0.00036   0.00026   1.85278
   A12        1.85811   0.00006   0.00099   0.00045   0.00145   1.85955
   A13        1.67188   0.00009   0.00053   0.00007   0.00060   1.67248
   A14        2.11604   0.00030   0.00078   0.00031   0.00109   2.11712
   A15        2.01796  -0.00025  -0.00031  -0.00025  -0.00056   2.01740
   A16        2.14679  -0.00005  -0.00039   0.00002  -0.00037   2.14642
   A17        2.11074   0.00004   0.00033  -0.00001   0.00106   2.11180
   A18        2.05515   0.00009   0.00063   0.00009   0.00147   2.05662
   A19        2.06882  -0.00012  -0.00049  -0.00021   0.00007   2.06889
   A20        2.02512  -0.00006   0.00056  -0.00019   0.00038   2.02550
   A21        1.87076   0.00017   0.00178   0.00027   0.00205   1.87281
   A22        1.93958  -0.00001   0.00028  -0.00013   0.00015   1.93973
   A23        1.87259  -0.00003  -0.00085   0.00044  -0.00042   1.87218
   A24        1.86971   0.00008   0.00025   0.00001   0.00025   1.86997
   A25        1.88050  -0.00016  -0.00233  -0.00040  -0.00273   1.87777
   A26        2.15333  -0.00032  -0.00197   0.00041  -0.00156   2.15178
   A27        1.97325   0.00026   0.00155  -0.00024   0.00132   1.97457
   A28        2.15659   0.00006   0.00040  -0.00017   0.00023   2.15683
   A29        1.85268  -0.00001  -0.00036   0.00006  -0.00030   1.85238
    D1        1.04405   0.00006   0.00277   0.00064   0.00341   1.04746
    D2       -3.08051  -0.00002   0.00253   0.00055   0.00309  -3.07742
    D3       -1.02252   0.00005   0.00302   0.00125   0.00427  -1.01825
    D4       -3.14132   0.00004   0.00236   0.00060   0.00296  -3.13836
    D5       -0.98270  -0.00004   0.00213   0.00051   0.00264  -0.98005
    D6        1.07529   0.00003   0.00262   0.00121   0.00383   1.07912
    D7       -1.05823   0.00001   0.00196   0.00054   0.00249  -1.05574
    D8        1.10039  -0.00006   0.00172   0.00045   0.00217   1.10257
    D9       -3.12480   0.00001   0.00221   0.00115   0.00336  -3.12144
   D10       -1.25504   0.00001  -0.00628  -0.00075  -0.00703  -1.26207
   D11        2.85311  -0.00003  -0.00623  -0.00059  -0.00683   2.84628
   D12        0.85286  -0.00009  -0.00765  -0.00101  -0.00866   0.84420
   D13        0.18970  -0.00004   0.00092  -0.00061   0.00031   0.19001
   D14       -3.02403   0.00002   0.00218   0.00046   0.00264  -3.02140
   D15        2.37892  -0.00006   0.00066  -0.00103  -0.00038   2.37854
   D16       -0.83482  -0.00000   0.00191   0.00004   0.00195  -0.83287
   D17       -1.90760  -0.00001   0.00183  -0.00113   0.00070  -1.90691
   D18        1.16185   0.00005   0.00309  -0.00007   0.00302   1.16487
   D19        3.05803  -0.00001   0.00653  -0.00210   0.00435   3.06238
   D20        0.25071  -0.00002  -0.00295  -0.00161  -0.00447   0.24623
   D21       -0.15711   0.00006   0.00787  -0.00100   0.00679  -0.15033
   D22       -2.96444   0.00006  -0.00161  -0.00051  -0.00204  -2.96647
   D23       -1.72856  -0.00002  -0.00604  -0.00012  -0.00615  -1.73471
   D24        0.36274   0.00003  -0.00546   0.00052  -0.00492   0.35782
   D25        2.41327  -0.00007  -0.00705   0.00013  -0.00691   2.40637
   D26        1.07622   0.00002   0.00357  -0.00056   0.00300   1.07921
   D27       -3.11567   0.00007   0.00415   0.00009   0.00423  -3.11145
   D28       -1.06514  -0.00003   0.00257  -0.00031   0.00224  -1.06290
   D29       -2.97891   0.00004  -0.00192   0.00091  -0.00101  -2.97992
   D30        0.16781   0.00007  -0.00039   0.00012  -0.00027   0.16753
   D31        1.21398  -0.00012  -0.00394   0.00035  -0.00358   1.21039
   D32       -1.92250  -0.00008  -0.00240  -0.00044  -0.00284  -1.92534
   D33       -0.80125   0.00004  -0.00095   0.00060  -0.00035  -0.80160
   D34        2.34546   0.00007   0.00059  -0.00019   0.00040   2.34586
   D35        3.11615   0.00002   0.00146  -0.00007   0.00139   3.11754
   D36       -0.02031   0.00006   0.00300  -0.00086   0.00214  -0.01817
         Item               Value     Threshold  Converged?
 Maximum Force            0.000377     0.000450     YES
 RMS     Force            0.000114     0.000300     YES
 Maximum Displacement     0.019100     0.001800     NO 
 RMS     Displacement     0.004368     0.001200     NO 
 Predicted change in Energy=-2.760028D-06
 Lowest energy point so far.  Saving SCF results.
 GradGradGradGradGradGradGradGradGradGradGradGradGradGradGradGradGradGrad

 Leave Link  103 at Fri Mar 14 15:16:52 2025, MaxMem=  8589934592 cpu:               0.7 elap:               0.3
 (Enter /home/enzo/gaussian_versions/gdv.j21/gdv/l202.exe)
                          Input orientation:                          
 ---------------------------------------------------------------------
 Center     Atomic      Atomic             Coordinates (Angstroms)
 Number     Number       Type             X           Y           Z
 ---------------------------------------------------------------------
      1          6           0        3.011527    1.136427    0.483884
      2          6           0        2.038913    0.221246   -0.253488
      3         16           0        1.876082   -1.454047    0.551060
      4          6           0        0.646067    0.870843   -0.383867
      5          8           0        0.466534    2.048934   -0.110729
      6          7           0       -0.335451    0.067304   -0.901017
      7          6           0       -1.703155    0.523475   -0.984050
      8          6           0       -2.638402    0.040774    0.119651
      9          8           0       -3.836267    0.205354    0.093772
     10          8           0       -1.991220   -0.581373    1.129506
     11          1           0        4.010570    0.690452    0.511236
     12          1           0        3.068372    2.103560   -0.024160
     13          1           0        2.677867    1.311300    1.509796
     14          1           0        2.394006    0.036248   -1.274412
     15          1           0        3.091976   -1.904851    0.176163
     16          1           0       -0.153235   -0.927033   -0.953889
     17          1           0       -1.684934    1.616650   -0.939336
     18          1           0       -2.157026    0.238912   -1.939022
     19          1           0       -2.675831   -0.824735    1.781210
 ---------------------------------------------------------------------
                    Distance matrix (angstroms):
                    1          2          3          4          5
     1  C    0.000000
     2  C    1.525533   0.000000
     3  S    2.829188   1.865589   0.000000
     4  C    2.533560   1.542399   2.791440   0.000000
     5  O    2.768253   2.415202   3.833493   1.222594   0.000000
     6  N    3.776670   2.465887   3.051871   1.369853   2.279165
     7  C    4.975819   3.824675   4.367848   2.449435   2.792358
     8  C    5.766699   4.695645   4.775057   3.424950   3.704916
     9  O    6.921804   5.885456   5.966043   4.556571   4.685584
    10  O    5.328709   4.335763   4.006518   3.369646   3.807525
    11  H    1.094408   2.166192   3.025971   3.486205   3.846103
    12  H    1.093932   2.157657   3.795920   2.741631   2.603851
    13  H    1.092889   2.169251   3.034663   2.812147   2.839049
    14  H    2.164100   1.096631   2.412793   2.131879   3.019969
    15  H    3.057865   2.411189   1.349877   3.741735   4.754752
    16  H    4.042373   2.571891   2.580842   2.048455   3.154586
    17  H    4.930813   4.035416   4.932677   2.509650   2.345692
    18  H    5.778404   4.521863   5.033149   3.267289   3.674493
    19  H    6.154287   5.240504   4.757017   4.312487   4.659598
                    6          7          8          9         10
     6  N    0.000000
     7  C    1.444161   0.000000
     8  C    2.519136   1.525071   0.000000
     9  O    3.642029   2.411030   1.209396   0.000000
    10  O    2.699143   2.402247   1.351192   2.257407   0.000000
    11  H    4.612014   5.908504   6.692103   7.872894   6.166139
    12  H    4.062171   5.117180   6.069846   7.161784   5.842883
    13  H    4.054581   5.102283   5.639986   6.757380   5.052445
    14  H    2.755054   4.136234   5.221930   6.380974   5.038897
    15  H    4.098410   5.498740   6.051932   7.242949   5.338476
    16  H    1.012277   2.123002   2.874924   3.993071   2.799679
    17  H    2.055005   1.094241   2.124603   2.772599   3.034011
    18  H    2.103578   1.094964   2.123468   2.636897   3.180601
    19  H    3.669803   3.226520   1.873842   2.292410   0.976030
                   11         12         13         14         15
    11  H    0.000000
    12  H    1.780804   0.000000
    13  H    1.777265   1.770083   0.000000
    14  H    2.495957   2.508322   3.075410   0.000000
    15  H    2.773389   4.013484   3.506236   2.521744   0.000000
    16  H    4.701077   4.519695   4.369785   2.742095   3.572750
    17  H    5.949854   4.865033   5.012536   4.387220   6.038558
    18  H    6.651834   5.869276   6.034944   4.603768   6.051591
    19  H    6.972559   6.695532   5.770475   5.981752   6.083619
                   16         17         18         19
    16  H    0.000000
    17  H    2.969282   0.000000
    18  H    2.518947   1.766467   0.000000
    19  H    3.722192   3.787295   3.903925   0.000000
 Stoichiometry    C5H9NO3S
 Framework group  C1[X(C5H9NO3S)]
 Deg. of freedom    51
 Full point group                 C1      NOp   1
 RotChk:  IX=2 Diff= 6.89D-04
 Largest Abelian subgroup         C1      NOp   1
 Largest concise Abelian subgroup C1      NOp   1
                         Standard orientation:                         
 ---------------------------------------------------------------------
 Center     Atomic      Atomic             Coordinates (Angstroms)
 Number     Number       Type             X           Y           Z
 ---------------------------------------------------------------------
      1          6           0       -2.983601   -0.925920    0.666662
      2          6           0       -2.004742   -0.277040   -0.307011
      3         16           0       -1.914931    1.575929   -0.109871
      4          6           0       -0.592445   -0.881631   -0.169602
      5          8           0       -0.395461   -1.892097    0.489861
      6          7           0        0.389203   -0.263501   -0.898148
      7          6           0        1.769798   -0.671054   -0.782133
      8          6           0        2.648135    0.188075    0.121339
      9          8           0        3.849717    0.067990    0.187826
     10          8           0        1.946151    1.089437    0.842785
     11          1           0       -3.993463   -0.533283    0.512572
     12          1           0       -2.996588   -2.008919    0.512938
     13          1           0       -2.687125   -0.733657    1.700849
     14          1           0       -2.323072   -0.458874   -1.340550
     15          1           0       -3.125423    1.830071   -0.650508
     16          1           0        0.185182    0.647940   -1.288475
     17          1           0        1.776326   -1.685538   -0.372080
     18          1           0        2.254491   -0.707641   -1.763297
     19          1           0        2.598024    1.562329    1.394211
 ---------------------------------------------------------------------
 Rotational constants (GHZ):           2.0050578           0.6183580           0.5260576
 Leave Link  202 at Fri Mar 14 15:16:52 2025, MaxMem=  8589934592 cpu:               0.3 elap:               0.3
 (Enter /home/enzo/gaussian_versions/gdv.j21/gdv/l301.exe)
 Standard basis: 6-31G(d) (6D, 7F)
 Ernie: Thresh=  0.10000D-02 Tol=  0.10000D-05 Strict=F.
 There are   172 symmetry adapted cartesian basis functions of A   symmetry.
 There are   172 symmetry adapted basis functions of A   symmetry.
   172 basis functions,   340 primitive gaussians,   172 cartesian basis functions
    43 alpha electrons       43 beta electrons
       nuclear repulsion energy       626.3425951666 Hartrees.
 IExCor=      4002 DFT=T Ex+Corr=B3LYP ScaHFX=  0.200000
 ScaDFX=  0.800000  0.720000  1.000000  0.810000  1.000000  0.000000
 ScaDFX=  0.000000  0.000000  0.000000  0.000000  0.000000  0.000000
 IRadAn=      5 IRanWt=     -1 IRanGd=            0 ICorTp=0 IEmpDi=  4
 NAtoms=   19 NActive=   19 NUniq=   19 SFac= 1.00D+00 NAtFMM=   60 NAOKFM=F Big=F
 Integral buffers will be    131072 words long.
 Raffenetti 2 integral format.
 Two-electron integral symmetry is turned on.
 Leave Link  301 at Fri Mar 14 15:16:52 2025, MaxMem=  8589934592 cpu:               0.5 elap:               0.2
 (Enter /home/enzo/gaussian_versions/gdv.j21/gdv/l302.exe)
 NPDir=0 NMtPBC=     1 NCelOv=     1 NCel=       1 NClECP=     1 NCelD=      1
         NCelK=      1 NCelE2=     1 NClLst=     1 CellRange=     0.0.
 One-electron integrals computed using PRISM.
 One-electron integral symmetry used in STVInt
 NBasis=   172 RedAO= T EigKep=  3.10D-03  NBF=   172
 NBsUse=   172 1.00D-06 EigRej= -1.00D+00 NBFU=   172
 Precomputing XC quadrature grid using
 IXCGrd= 4 IRadAn=           5 IRanWt=          -1 IRanGd=           0 AccXCQ= 0.00D+00.
 Generated NRdTot=       0 NPtTot=      407776 NUsed=           0 NTot=          64
 NSgBfM=   172   172   172   172   172 MxSgAt=    19 MxSgA2=    19 SizInc=   0.000
 NMBTot=     3470 MaxBatPerAtom=       85 MaxMicBPerAtom=      206 NBfPt=            51291475.
 Leave Link  302 at Fri Mar 14 15:16:53 2025, MaxMem=  8589934592 cpu:               4.8 elap:               0.7
 (Enter /home/enzo/gaussian_versions/gdv.j21/gdv/l303.exe)
 DipDrv:  MaxL=1.
 Leave Link  303 at Fri Mar 14 15:16:54 2025, MaxMem=  8589934592 cpu:               1.4 elap:               0.5
 (Enter /home/enzo/gaussian_versions/gdv.j21/gdv/l401.exe)
 Initial guess from the checkpoint file:  "/local/home/enzo/scratch/Gau-2337652.chk"
 B after Tr=     0.000000    0.000000    0.000000
         Rot=    1.000000   -0.000262   -0.000140    0.000232 Ang=  -0.04 deg.
 AO Guess basis will be translated and rotated to current coordinates.
 JPrj=2 DoOrth=T DoCkMO=T.
 Leave Link  401 at Fri Mar 14 15:16:54 2025, MaxMem=  8589934592 cpu:               1.6 elap:               0.5
 (Enter /home/enzo/gaussian_versions/gdv.j21/gdv/l502.exe)
 Integral symmetry usage will be decided dynamically.
 Closed shell SCF:
 Using DIIS extrapolation, IDIIS=  1040.
 NGot=  8589934592 LenX=  8589843591 LenY=  8589813566
 Requested convergence on RMS density matrix=1.00D-08 within 128 cycles.
 Requested convergence on MAX density matrix=1.00D-06.
 Requested convergence on             energy=1.00D-06.
 No special actions if energy rises.
 Fock matrices will be formed incrementally for  20 cycles.

 Cycle   1  Pass 1  IDiag  1:
 FoFJK:  IHMeth= 1 ICntrl=       0 DoSepK=F KAlg= 0 I1Cent=           0 FoldK=F
 IRaf= 910000000 NMat=       1 IRICut=       1 DoRegI=T DoRafI=F ISym2E= 0 IDoP0=0 IntGTp=1.
 FoFCou: FMM=F IPFlag=           0 FMFlag=      100000 FMFlg1=           0
         NFxFlg=           0 DoJE=F BraDBF=F KetDBF=F FulRan=T
         wScrn=  0.000000 ICntrl=         0 IOpCl=  0 I1Cent=           0 NGrid=           0
         NMat0=    1 NMatS0=      1 NMatT0=    0 NMatD0=    1 NMtDS0=    0 NMtDT0=    0
 Symmetry not used in FoFCou.
 E= -874.583495272643    
 DIIS: error= 2.13D-04 at cycle   1 NSaved=   1.
 NSaved= 1 IEnMin= 1 EnMin= -874.583495272643     IErMin= 1 ErrMin= 2.13D-04
 ErrMax= 2.13D-04  0.00D+00 EMaxC= 1.00D-01 BMatC= 2.19D-05 BMatP= 2.19D-05
 IDIUse=3 WtCom= 9.98D-01 WtEn= 2.13D-03
 Coeff-Com:  0.100D+01
 Coeff-En:   0.100D+01
 Coeff:      0.100D+01
 Gap=     1.612 Goal=   None    Shift=    0.000
 RMSDP=5.18D-05 MaxDP=1.64D-03              OVMax= 2.37D-03

 Cycle   2  Pass 1  IDiag  1:
 RMSU=  5.18D-05    CP:  1.00D+00
 E= -874.583535085484     Delta-E=       -0.000039812841 Rises=F Damp=F
 DIIS: error= 2.46D-05 at cycle   2 NSaved=   2.
 NSaved= 2 IEnMin= 2 EnMin= -874.583535085484     IErMin= 2 ErrMin= 2.46D-05
 ErrMax= 2.46D-05  0.00D+00 EMaxC= 1.00D-01 BMatC= 2.92D-07 BMatP= 2.19D-05
 IDIUse=1 WtCom= 1.00D+00 WtEn= 0.00D+00
 Coeff-Com: -0.701D-01 0.107D+01
 Coeff:     -0.701D-01 0.107D+01
 Gap=     0.251 Goal=   None    Shift=    0.000
 RMSDP=7.70D-06 MaxDP=2.52D-04 DE=-3.98D-05 OVMax= 3.47D-04

 Cycle   3  Pass 1  IDiag  1:
 RMSU=  6.04D-06    CP:  1.00D+00  1.09D+00
 E= -874.583535347186     Delta-E=       -0.000000261703 Rises=F Damp=F
 DIIS: error= 3.36D-05 at cycle   3 NSaved=   3.
 NSaved= 3 IEnMin= 3 EnMin= -874.583535347186     IErMin= 2 ErrMin= 2.46D-05
 ErrMax= 3.36D-05  0.00D+00 EMaxC= 1.00D-01 BMatC= 3.02D-07 BMatP= 2.92D-07
 IDIUse=1 WtCom= 1.00D+00 WtEn= 0.00D+00
 Coeff-Com: -0.453D-01 0.606D+00 0.439D+00
 Coeff:     -0.453D-01 0.606D+00 0.439D+00
 Gap=     0.251 Goal=   None    Shift=    0.000
 RMSDP=3.46D-06 MaxDP=9.96D-05 DE=-2.62D-07 OVMax= 2.32D-04

 Cycle   4  Pass 1  IDiag  1:
 RMSU=  2.71D-06    CP:  1.00D+00  1.10D+00  6.56D-01
 E= -874.583535551526     Delta-E=       -0.000000204339 Rises=F Damp=F
 DIIS: error= 1.33D-05 at cycle   4 NSaved=   4.
 NSaved= 4 IEnMin= 4 EnMin= -874.583535551526     IErMin= 4 ErrMin= 1.33D-05
 ErrMax= 1.33D-05  0.00D+00 EMaxC= 1.00D-01 BMatC= 4.72D-08 BMatP= 2.92D-07
 IDIUse=1 WtCom= 1.00D+00 WtEn= 0.00D+00
 Coeff-Com: -0.127D-01 0.159D+00 0.285D+00 0.569D+00
 Coeff:     -0.127D-01 0.159D+00 0.285D+00 0.569D+00
 Gap=     0.251 Goal=   None    Shift=    0.000
 RMSDP=1.26D-06 MaxDP=4.03D-05 DE=-2.04D-07 OVMax= 7.38D-05

 Cycle   5  Pass 1  IDiag  1:
 RMSU=  8.94D-07    CP:  1.00D+00  1.11D+00  7.38D-01  7.54D-01
 E= -874.583535586042     Delta-E=       -0.000000034517 Rises=F Damp=F
 DIIS: error= 2.81D-06 at cycle   5 NSaved=   5.
 NSaved= 5 IEnMin= 5 EnMin= -874.583535586042     IErMin= 5 ErrMin= 2.81D-06
 ErrMax= 2.81D-06  0.00D+00 EMaxC= 1.00D-01 BMatC= 2.36D-09 BMatP= 4.72D-08
 IDIUse=1 WtCom= 1.00D+00 WtEn= 0.00D+00
 Coeff-Com: -0.285D-02 0.314D-01 0.109D+00 0.282D+00 0.580D+00
 Coeff:     -0.285D-02 0.314D-01 0.109D+00 0.282D+00 0.580D+00
 Gap=     0.251 Goal=   None    Shift=    0.000
 RMSDP=3.61D-07 MaxDP=1.30D-05 DE=-3.45D-08 OVMax= 9.70D-06

 Cycle   6  Pass 1  IDiag  1:
 RMSU=  2.34D-07    CP:  1.00D+00  1.11D+00  7.59D-01  8.04D-01  7.78D-01
 E= -874.583535587974     Delta-E=       -0.000000001931 Rises=F Damp=F
 DIIS: error= 1.36D-06 at cycle   6 NSaved=   6.
 NSaved= 6 IEnMin= 6 EnMin= -874.583535587974     IErMin= 6 ErrMin= 1.36D-06
 ErrMax= 1.36D-06  0.00D+00 EMaxC= 1.00D-01 BMatC= 3.19D-10 BMatP= 2.36D-09
 IDIUse=1 WtCom= 1.00D+00 WtEn= 0.00D+00
 Coeff-Com:  0.429D-03-0.945D-02 0.137D-01 0.601D-01 0.302D+00 0.633D+00
 Coeff:      0.429D-03-0.945D-02 0.137D-01 0.601D-01 0.302D+00 0.633D+00
 Gap=     0.251 Goal=   None    Shift=    0.000
 RMSDP=1.19D-07 MaxDP=2.66D-06 DE=-1.93D-09 OVMax= 4.65D-06

 Cycle   7  Pass 1  IDiag  1:
 RMSU=  8.21D-08    CP:  1.00D+00  1.11D+00  7.68D-01  8.17D-01  7.96D-01
                    CP:  7.67D-01
 E= -874.583535588220     Delta-E=       -0.000000000247 Rises=F Damp=F
 DIIS: error= 3.02D-07 at cycle   7 NSaved=   7.
 NSaved= 7 IEnMin= 7 EnMin= -874.583535588220     IErMin= 7 ErrMin= 3.02D-07
 ErrMax= 3.02D-07  0.00D+00 EMaxC= 1.00D-01 BMatC= 3.24D-11 BMatP= 3.19D-10
 IDIUse=1 WtCom= 1.00D+00 WtEn= 0.00D+00
 Coeff-Com:  0.467D-03-0.753D-02-0.289D-02 0.413D-02 0.970D-01 0.322D+00
 Coeff-Com:  0.587D+00
 Coeff:      0.467D-03-0.753D-02-0.289D-02 0.413D-02 0.970D-01 0.322D+00
 Coeff:      0.587D+00
 Gap=     0.251 Goal=   None    Shift=    0.000
 RMSDP=5.06D-08 MaxDP=1.89D-06 DE=-2.47D-10 OVMax= 2.34D-06

 Cycle   8  Pass 1  IDiag  1:
 RMSU=  3.51D-08    CP:  1.00D+00  1.11D+00  7.68D-01  8.20D-01  8.26D-01
                    CP:  7.79D-01  7.36D-01
 E= -874.583535588240     Delta-E=       -0.000000000020 Rises=F Damp=F
 DIIS: error= 1.01D-07 at cycle   8 NSaved=   8.
 NSaved= 8 IEnMin= 8 EnMin= -874.583535588240     IErMin= 8 ErrMin= 1.01D-07
 ErrMax= 1.01D-07  0.00D+00 EMaxC= 1.00D-01 BMatC= 4.66D-12 BMatP= 3.24D-11
 IDIUse=1 WtCom= 1.00D+00 WtEn= 0.00D+00
 Coeff-Com:  0.233D-03-0.352D-02-0.276D-02-0.252D-02 0.315D-01 0.136D+00
 Coeff-Com:  0.341D+00 0.500D+00
 Coeff:      0.233D-03-0.352D-02-0.276D-02-0.252D-02 0.315D-01 0.136D+00
 Coeff:      0.341D+00 0.500D+00
 Gap=     0.251 Goal=   None    Shift=    0.000
 RMSDP=1.77D-08 MaxDP=5.60D-07 DE=-1.98D-11 OVMax= 7.45D-07

 Cycle   9  Pass 1  IDiag  1:
 RMSU=  1.22D-08    CP:  1.00D+00  1.11D+00  7.68D-01  8.21D-01  8.26D-01
                    CP:  7.92D-01  8.12D-01  7.36D-01
 E= -874.583535588252     Delta-E=       -0.000000000012 Rises=F Damp=F
 DIIS: error= 4.98D-08 at cycle   9 NSaved=   9.
 NSaved= 9 IEnMin= 9 EnMin= -874.583535588252     IErMin= 9 ErrMin= 4.98D-08
 ErrMax= 4.98D-08  0.00D+00 EMaxC= 1.00D-01 BMatC= 1.15D-12 BMatP= 4.66D-12
 IDIUse=1 WtCom= 1.00D+00 WtEn= 0.00D+00
 Coeff-Com:  0.487D-04-0.595D-03-0.125D-02-0.284D-02-0.200D-02 0.176D-01
 Coeff-Com:  0.103D+00 0.347D+00 0.539D+00
 Coeff:      0.487D-04-0.595D-03-0.125D-02-0.284D-02-0.200D-02 0.176D-01
 Coeff:      0.103D+00 0.347D+00 0.539D+00
 Gap=     0.251 Goal=   None    Shift=    0.000
 RMSDP=6.99D-09 MaxDP=1.80D-07 DE=-1.23D-11 OVMax= 3.56D-07

 SCF Done:  E(RB3LYP) =  -874.583535588     A.U. after    9 cycles
            NFock=  9  Conv=0.70D-08     -V/T= 2.0064
 KE= 8.690013278547D+02 PE=-3.312506423350D+03 EE= 9.425789647403D+02
 Leave Link  502 at Fri Mar 14 15:16:59 2025, MaxMem=  8589934592 cpu:              57.6 elap:               5.4
 (Enter /home/enzo/gaussian_versions/gdv.j21/gdv/l701.exe)
 ... and contract with generalized density number  0.
 Compute integral first derivatives.
 Leave Link  701 at Fri Mar 14 15:17:00 2025, MaxMem=  8589934592 cpu:               1.4 elap:               0.3
 (Enter /home/enzo/gaussian_versions/gdv.j21/gdv/l702.exe)
 L702 exits ... SP integral derivatives will be done elsewhere.
 Leave Link  702 at Fri Mar 14 15:17:00 2025, MaxMem=  8589934592 cpu:               0.4 elap:               0.2
 (Enter /home/enzo/gaussian_versions/gdv.j21/gdv/l703.exe)
 Integral derivatives from FoFJK, PRISM(SPDF).
 Compute integral first derivatives, UseDBF=F ICtDFT=           0.
 Calling FoFJK, ICntrl=      2127 FMM=F ISym2X=0 I1Cent= 0 IOpClX= 0 NMat=1 NMatS=1 NMatT=0.
 FoFJK:  IHMeth= 1 ICntrl=    2127 DoSepK=F KAlg= 0 I1Cent=           0 FoldK=F
 IRaf=         0 NMat=       1 IRICut=       1 DoRegI=T DoRafI=F ISym2E= 0 IDoP0=0 IntGTp=1.
 FoFCou: FMM=F IPFlag=           0 FMFlag=      100000 FMFlg1=         800
         NFxFlg=           0 DoJE=F BraDBF=F KetDBF=F FulRan=T
         wScrn=  0.000000 ICntrl=      2127 IOpCl=  0 I1Cent=           0 NGrid=           0
         NMat0=    1 NMatS0=      1 NMatT0=    0 NMatD0=    1 NMtDS0=    0 NMtDT0=    0
 Symmetry not used in FoFCou.
 Leave Link  703 at Fri Mar 14 15:17:02 2025, MaxMem=  8589934592 cpu:              15.9 elap:               2.1
 (Enter /home/enzo/gaussian_versions/gdv.j21/gdv/l716.exe)
 Dipole        =-8.32288668D-01 7.66163706D-01-7.59660933D-01
 ***** Axes restored to original set *****
 -------------------------------------------------------------------
 Center     Atomic                   Forces (Hartrees/Bohr)
 Number     Number              X              Y              Z
 -------------------------------------------------------------------
      1        6           0.000044616    0.000015902    0.000020588
      2        6          -0.000064794    0.000114314   -0.000098170
      3       16          -0.000020081   -0.000085801    0.000040762
      4        6          -0.000016385   -0.000081198    0.000046724
      5        8          -0.000021267   -0.000002882   -0.000017636
      6        7           0.000075990    0.000060931   -0.000034611
      7        6           0.000065891   -0.000045823    0.000041010
      8        6          -0.000009398   -0.000008492   -0.000007836
      9        8          -0.000041020   -0.000002988    0.000006784
     10        8           0.000026024    0.000006199   -0.000003145
     11        1          -0.000009329   -0.000000109   -0.000005530
     12        1          -0.000003880   -0.000004826    0.000009446
     13        1          -0.000001376   -0.000003218   -0.000011569
     14        1           0.000008920   -0.000022852    0.000009450
     15        1          -0.000001123    0.000011739    0.000000647
     16        1          -0.000029573    0.000039974    0.000025813
     17        1           0.000023327   -0.000003103   -0.000018441
     18        1          -0.000021233    0.000007424    0.000006634
     19        1          -0.000005311    0.000004809   -0.000010919
 -------------------------------------------------------------------
 Cartesian Forces:  Max     0.000114314 RMS     0.000036582
 Leave Link  716 at Fri Mar 14 15:17:02 2025, MaxMem=  8589934592 cpu:               0.1 elap:               0.2
 (Enter /home/enzo/gaussian_versions/gdv.j21/gdv/l103.exe)

 GradGradGradGradGradGradGradGradGradGradGradGradGradGradGradGradGradGrad
 Berny optimization.
 Using GEDIIS/GDIIS optimizer.
 FormGI is forming the generalized inverse of G from B-inverse, IUseBI=4.
 GSVD:  received Info=                   1 from GESDD.
 Internal  Forces:  Max     0.000097226 RMS     0.000022385
 Search for a local minimum.
 Step number  22 out of a maximum of   93
 All quantities printed in internal units (Hartrees-Bohrs-Radians)
 RMS Force = .22385D-04 SwitMx=.10000D-02 MixMth= 2
 Mixed Optimization -- En-DIIS/RFO-DIIS
 Swapping is turned off.
 Update second derivatives using D2CorX and points   18   19   20   21   22
 DE= -3.89D-06 DEPred=-2.76D-06 R= 1.41D+00
 TightC=F SS=  1.41D+00  RLast= 2.40D-02 DXNew= 3.0969D+00 7.2122D-02
 Trust test= 1.41D+00 RLast= 2.40D-02 DXMaxT set to 1.84D+00
 ITU=  1  1  1  1  1  1  0 -1  1  1  0  1 -1  1  1  1  1  0  0  1
 ITU=  1  0
     Eigenvalues ---    0.00077   0.00109   0.00302   0.00450   0.00640
     Eigenvalues ---    0.00827   0.01693   0.01955   0.03905   0.04357
     Eigenvalues ---    0.04848   0.05103   0.05473   0.05699   0.05752
     Eigenvalues ---    0.06156   0.07867   0.10475   0.13959   0.15360
     Eigenvalues ---    0.15895   0.16008   0.16069   0.16695   0.17368
     Eigenvalues ---    0.18047   0.20900   0.21508   0.22124   0.22398
     Eigenvalues ---    0.23759   0.24712   0.25729   0.26224   0.27432
     Eigenvalues ---    0.29869   0.32321   0.32470   0.32516   0.32612
     Eigenvalues ---    0.32672   0.32935   0.33141   0.34260   0.38599
     Eigenvalues ---    0.40892   0.44955   0.46190   0.50475   0.78507
     Eigenvalues ---    0.85101
 En-DIIS/RFO-DIIS/Sim-DIIS IScMMF=       -3 using points:    22   21   20   19   18   17
 RFO step:  Lambda=-5.38992440D-07.
 NNeg= 0 NGDIIS= 6 SimSw=  2.50D-01 Rises=F DC= -3.89D-06 SmlDif=  1.00D-05
 NRisDI= 0 DoIntr=F SqrtH=F CThrHd= 10.0 CDAdj=  3.0
 RMS Error=  0.1737753893D-02 NUsed= 6 OKEnD=F EnDIS=F
 InvSVX:  RCond= 1.32D-06 Info=           0 Equed=N FErr=  2.84D-12 BErr=  8.12D-17
 DidBck=TT Rises=F RFO-DIIS coefs:    0.70875    0.45549   -0.35175    0.15656    0.04664
                   RFO-DIIS coefs:   -0.01568
 Iteration  1 RMS(Cart)=  0.00182956 RMS(Int)=  0.00001770
 Iteration  2 RMS(Cart)=  0.00000209 RMS(Int)=  0.00001765
 Iteration  3 RMS(Cart)=  0.00000000 RMS(Int)=  0.00001765
 Variable       Old X    -DE/DX   Delta X   Delta X   Delta X     New X
                                 (Linear)    (Quad)   (Total)
    R1        2.88284   0.00003  -0.00010   0.00018   0.00008   2.88292
    R2        2.06813  -0.00001   0.00002  -0.00004  -0.00002   2.06811
    R3        2.06723  -0.00001  -0.00001   0.00002   0.00001   2.06724
    R4        2.06526  -0.00001  -0.00004  -0.00000  -0.00004   2.06522
    R5        3.52545   0.00009  -0.00009   0.00043   0.00034   3.52579
    R6        2.91471  -0.00006   0.00012  -0.00038  -0.00025   2.91446
    R7        2.07233  -0.00000   0.00005  -0.00008  -0.00003   2.07230
    R8        2.55090  -0.00000   0.00003  -0.00003   0.00000   2.55090
    R9        2.31037  -0.00000  -0.00003  -0.00000  -0.00004   2.31033
   R10        2.58865  -0.00010   0.00012  -0.00013  -0.00001   2.58863
   R11        2.72907  -0.00005  -0.00000  -0.00007  -0.00008   2.72899
   R12        1.91293  -0.00005   0.00001  -0.00007  -0.00006   1.91287
   R13        2.88197   0.00001   0.00009  -0.00003   0.00006   2.88203
   R14        2.06782  -0.00000   0.00008  -0.00009  -0.00001   2.06780
   R15        2.06918   0.00000  -0.00013   0.00013  -0.00001   2.06918
   R16        2.28543   0.00004  -0.00002   0.00003   0.00001   2.28544
   R17        2.55338  -0.00001   0.00009  -0.00003   0.00005   2.55344
   R18        1.84443  -0.00000  -0.00001   0.00001   0.00001   1.84444
    A1        1.92796  -0.00001  -0.00000  -0.00003  -0.00003   1.92793
    A2        1.91668   0.00001   0.00016  -0.00011   0.00004   1.91672
    A3        1.93379  -0.00001  -0.00004  -0.00001  -0.00005   1.93374
    A4        1.90122   0.00000  -0.00009   0.00007  -0.00003   1.90119
    A5        1.89699   0.00001   0.00003   0.00008   0.00011   1.89710
    A6        1.88637  -0.00000  -0.00006   0.00000  -0.00005   1.88632
    A7        1.96699  -0.00000   0.00018  -0.00022  -0.00004   1.96695
    A8        1.94329   0.00003  -0.00000   0.00018   0.00018   1.94347
    A9        1.92276  -0.00001   0.00004   0.00006   0.00010   1.92286
   A10        1.91329  -0.00002  -0.00049  -0.00001  -0.00049   1.91280
   A11        1.85278  -0.00000   0.00026  -0.00036  -0.00009   1.85268
   A12        1.85955   0.00001   0.00001   0.00035   0.00036   1.85991
   A13        1.67248  -0.00003  -0.00010  -0.00004  -0.00014   1.67234
   A14        2.11712   0.00005   0.00016   0.00019   0.00035   2.11747
   A15        2.01740  -0.00003  -0.00017  -0.00017  -0.00034   2.01706
   A16        2.14642  -0.00001  -0.00003  -0.00001  -0.00003   2.14639
   A17        2.11180   0.00000  -0.00038  -0.00005  -0.00034   2.11146
   A18        2.05662   0.00001  -0.00046  -0.00001  -0.00038   2.05624
   A19        2.06889  -0.00002  -0.00029  -0.00030  -0.00050   2.06839
   A20        2.02550   0.00001   0.00012  -0.00011   0.00001   2.02551
   A21        1.87281  -0.00003  -0.00050   0.00057   0.00007   1.87289
   A22        1.93973   0.00002   0.00017  -0.00027  -0.00010   1.93962
   A23        1.87218   0.00002  -0.00016   0.00022   0.00006   1.87224
   A24        1.86997  -0.00002   0.00005  -0.00001   0.00005   1.87001
   A25        1.87777  -0.00000   0.00034  -0.00042  -0.00008   1.87768
   A26        2.15178   0.00003   0.00022  -0.00006   0.00016   2.15194
   A27        1.97457  -0.00004  -0.00033   0.00016  -0.00016   1.97441
   A28        2.15683   0.00001   0.00010  -0.00010  -0.00000   2.15682
   A29        1.85238  -0.00002   0.00002  -0.00003  -0.00000   1.85238
    D1        1.04746   0.00000  -0.00025   0.00051   0.00026   1.04772
    D2       -3.07742  -0.00001  -0.00076   0.00048  -0.00029  -3.07770
    D3       -1.01825   0.00001  -0.00073   0.00106   0.00034  -1.01791
    D4       -3.13836   0.00000  -0.00027   0.00050   0.00023  -3.13813
    D5       -0.98005  -0.00001  -0.00078   0.00047  -0.00031  -0.98036
    D6        1.07912   0.00001  -0.00075   0.00106   0.00031   1.07943
    D7       -1.05574   0.00000  -0.00027   0.00043   0.00016  -1.05557
    D8        1.10257  -0.00001  -0.00078   0.00040  -0.00038   1.10219
    D9       -3.12144   0.00001  -0.00074   0.00099   0.00024  -3.12120
   D10       -1.26207   0.00001   0.00118  -0.00006   0.00112  -1.26095
   D11        2.84628  -0.00000   0.00142  -0.00013   0.00128   2.84756
   D12        0.84420   0.00000   0.00150  -0.00035   0.00115   0.84535
   D13        0.19001   0.00001  -0.00256   0.00019  -0.00237   0.18764
   D14       -3.02140  -0.00000  -0.00306   0.00037  -0.00268  -3.02408
   D15        2.37854   0.00001  -0.00268   0.00003  -0.00266   2.37588
   D16       -0.83287  -0.00000  -0.00318   0.00021  -0.00297  -0.83584
   D17       -1.90691  -0.00000  -0.00261  -0.00021  -0.00282  -1.90972
   D18        1.16487  -0.00001  -0.00311  -0.00002  -0.00313   1.16174
   D19        3.06238  -0.00000  -0.00029  -0.00127  -0.00156   3.06082
   D20        0.24623   0.00002   0.00263   0.00006   0.00269   0.24893
   D21       -0.15033  -0.00001  -0.00078  -0.00107  -0.00186  -0.15219
   D22       -2.96647   0.00001   0.00213   0.00025   0.00239  -2.96408
   D23       -1.73471   0.00000   0.00359   0.00022   0.00381  -1.73090
   D24        0.35782   0.00002   0.00309   0.00085   0.00394   0.36177
   D25        2.40637   0.00001   0.00328   0.00054   0.00383   2.41020
   D26        1.07921  -0.00001   0.00062  -0.00106  -0.00045   1.07876
   D27       -3.11145   0.00000   0.00013  -0.00043  -0.00031  -3.11176
   D28       -1.06290  -0.00001   0.00032  -0.00074  -0.00043  -1.06333
   D29       -2.97992  -0.00000  -0.00062   0.00132   0.00070  -2.97922
   D30        0.16753  -0.00001   0.00021   0.00047   0.00068   0.16821
   D31        1.21039   0.00001   0.00006   0.00050   0.00056   1.21095
   D32       -1.92534   0.00000   0.00090  -0.00036   0.00054  -1.92480
   D33       -0.80160   0.00001  -0.00027   0.00088   0.00060  -0.80099
   D34        2.34586   0.00001   0.00056   0.00002   0.00059   2.34645
   D35        3.11754   0.00000  -0.00085   0.00103   0.00018   3.11772
   D36       -0.01817   0.00000  -0.00001   0.00017   0.00016  -0.01801
         Item               Value     Threshold  Converged?
 Maximum Force            0.000097     0.000450     YES
 RMS     Force            0.000022     0.000300     YES
 Maximum Displacement     0.007636     0.001800     NO 
 RMS     Displacement     0.001830     0.001200     NO 
 Predicted change in Energy=-2.446600D-07
 Lowest energy point so far.  Saving SCF results.
 GradGradGradGradGradGradGradGradGradGradGradGradGradGradGradGradGradGrad

 Leave Link  103 at Fri Mar 14 15:17:03 2025, MaxMem=  8589934592 cpu:               1.9 elap:               0.4
 (Enter /home/enzo/gaussian_versions/gdv.j21/gdv/l202.exe)
                          Input orientation:                          
 ---------------------------------------------------------------------
 Center     Atomic      Atomic             Coordinates (Angstroms)
 Number     Number       Type             X           Y           Z
 ---------------------------------------------------------------------
      1          6           0        3.011099    1.136092    0.483953
      2          6           0        2.038044    0.221219   -0.253309
      3         16           0        1.874232   -1.453907    0.551807
      4          6           0        0.645387    0.870943   -0.383481
      5          8           0        0.465120    2.048370   -0.108055
      6          7           0       -0.335226    0.068239   -0.903618
      7          6           0       -1.703198    0.523753   -0.985123
      8          6           0       -2.636995    0.040681    0.119689
      9          8           0       -3.835064    0.203996    0.094991
     10          8           0       -1.988093   -0.580343    1.129171
     11          1           0        4.009931    0.689674    0.511305
     12          1           0        3.068391    2.103158   -0.024183
     13          1           0        2.677462    1.311259    1.509801
     14          1           0        2.393111    0.035624   -1.274117
     15          1           0        3.090556   -1.904753    0.178354
     16          1           0       -0.153139   -0.926101   -0.956284
     17          1           0       -1.685507    1.616939   -0.940643
     18          1           0       -2.157928    0.238853   -1.939582
     19          1           0       -2.671790   -0.824256    1.781633
 ---------------------------------------------------------------------
                    Distance matrix (angstroms):
                    1          2          3          4          5
     1  C    0.000000
     2  C    1.525577   0.000000
     3  S    2.829341   1.865770   0.000000
     4  C    2.533642   1.542265   2.791013   0.000000
     5  O    2.768526   2.415299   3.832357   1.222575   0.000000
     6  N    3.776713   2.465505   3.052359   1.369846   2.279121
     7  C    4.975715   3.824130   4.367070   2.449156   2.792008
     8  C    5.764857   4.693369   4.771968   3.422944   3.702135
     9  O    6.920264   5.883452   5.962666   4.555018   4.683431
    10  O    5.324883   4.331689   4.001751   3.365941   3.802514
    11  H    1.094395   2.166200   3.026184   3.486210   3.846471
    12  H    1.093938   2.157732   3.796116   2.741970   2.605198
    13  H    1.092868   2.169239   3.034645   2.812068   2.838177
    14  H    2.164197   1.096616   2.412869   2.132025   3.021257
    15  H    3.057196   2.411197   1.349879   3.741524   4.754169
    16  H    4.042193   2.571342   2.581308   2.048198   3.154238
    17  H    4.931409   4.035504   4.932468   2.509980   2.346174
    18  H    5.779049   4.522169   5.032968   3.267960   3.675490
    19  H    6.149973   5.236081   4.751341   4.308721   4.654364
                    6          7          8          9         10
     6  N    0.000000
     7  C    1.444120   0.000000
     8  C    2.519137   1.525104   0.000000
     9  O    3.642048   2.411170   1.209402   0.000000
    10  O    2.699047   2.402171   1.351221   2.257437   0.000000
    11  H    4.611787   5.908186   6.690005   7.871032   6.162060
    12  H    4.061885   5.117225   6.068438   7.160916   5.839471
    13  H    4.055364   5.102450   5.638283   6.755792   5.048806
    14  H    2.753572   4.135400   5.219644   6.379104   5.034893
    15  H    4.098700   5.498308   6.049214   7.240027   5.333928
    16  H    1.012246   2.122638   2.874357   3.992352   2.799237
    17  H    2.055018   1.094234   2.124670   2.773002   3.033765
    18  H    2.103467   1.094961   2.123528   2.636946   3.180749
    19  H    3.669693   3.226489   1.873868   2.292438   0.976034
                   11         12         13         14         15
    11  H    0.000000
    12  H    1.780781   0.000000
    13  H    1.777310   1.770038   0.000000
    14  H    2.495921   2.508593   3.075434   0.000000
    15  H    2.772573   4.013087   3.505157   2.522134   0.000000
    16  H    4.700606   4.519234   4.370315   2.740314   3.573054
    17  H    5.950292   4.865784   5.013343   4.387127   6.038646
    18  H    6.652260   5.870162   6.035669   4.603922   6.052048
    19  H    6.967862   6.691816   5.766178   5.977476   6.078043
                   16         17         18         19
    16  H    0.000000
    17  H    2.969082   0.000000
    18  H    2.518566   1.766404   0.000000
    19  H    3.721581   3.787211   3.904060   0.000000
 Stoichiometry    C5H9NO3S
 Framework group  C1[X(C5H9NO3S)]
 Deg. of freedom    51
 Full point group                 C1      NOp   1
 RotChk:  IX=2 Diff= 3.70D-04
 Largest Abelian subgroup         C1      NOp   1
 Largest concise Abelian subgroup C1      NOp   1
                         Standard orientation:                         
 ---------------------------------------------------------------------
 Center     Atomic      Atomic             Coordinates (Angstroms)
 Number     Number       Type             X           Y           Z
 ---------------------------------------------------------------------
      1          6           0       -2.983331   -0.925764    0.666008
      2          6           0       -2.003898   -0.277199   -0.307367
      3         16           0       -1.913313    1.575878   -0.109892
      4          6           0       -0.591772   -0.881712   -0.169362
      5          8           0       -0.394206   -1.890633    0.492253
      6          7           0        0.389199   -0.265442   -0.900380
      7          6           0        1.769995   -0.671723   -0.782816
      8          6           0        2.646591    0.188295    0.121558
      9          8           0        3.848295    0.069913    0.188980
     10          8           0        1.942723    1.088472    0.842702
     11          1           0       -3.992995   -0.532809    0.511521
     12          1           0       -2.996646   -2.008773    0.512336
     13          1           0       -2.687079   -0.733607    1.700257
     14          1           0       -2.322012   -0.458627   -1.341027
     15          1           0       -3.124214    1.830343   -0.649467
     16          1           0        0.185297    0.645995   -1.290698
     17          1           0        1.777068   -1.686209   -0.372797
     18          1           0        2.255704   -0.707909   -1.763488
     19          1           0        2.593497    1.562246    1.394673
 ---------------------------------------------------------------------
 Rotational constants (GHZ):           2.0049819           0.6188771           0.5265461
 Leave Link  202 at Fri Mar 14 15:17:03 2025, MaxMem=  8589934592 cpu:               0.2 elap:               0.2
 (Enter /home/enzo/gaussian_versions/gdv.j21/gdv/l301.exe)
 Standard basis: 6-31G(d) (6D, 7F)
 Ernie: Thresh=  0.10000D-02 Tol=  0.10000D-05 Strict=F.
 There are   172 symmetry adapted cartesian basis functions of A   symmetry.
 There are   172 symmetry adapted basis functions of A   symmetry.
   172 basis functions,   340 primitive gaussians,   172 cartesian basis functions
    43 alpha electrons       43 beta electrons
       nuclear repulsion energy       626.4397183619 Hartrees.
 IExCor=      4002 DFT=T Ex+Corr=B3LYP ScaHFX=  0.200000
 ScaDFX=  0.800000  0.720000  1.000000  0.810000  1.000000  0.000000
 ScaDFX=  0.000000  0.000000  0.000000  0.000000  0.000000  0.000000
 IRadAn=      5 IRanWt=     -1 IRanGd=            0 ICorTp=0 IEmpDi=  4
 NAtoms=   19 NActive=   19 NUniq=   19 SFac= 1.00D+00 NAtFMM=   60 NAOKFM=F Big=F
 Integral buffers will be    131072 words long.
 Raffenetti 2 integral format.
 Two-electron integral symmetry is turned on.
 Leave Link  301 at Fri Mar 14 15:17:03 2025, MaxMem=  8589934592 cpu:               0.5 elap:               0.2
 (Enter /home/enzo/gaussian_versions/gdv.j21/gdv/l302.exe)
 NPDir=0 NMtPBC=     1 NCelOv=     1 NCel=       1 NClECP=     1 NCelD=      1
         NCelK=      1 NCelE2=     1 NClLst=     1 CellRange=     0.0.
 One-electron integrals computed using PRISM.
 One-electron integral symmetry used in STVInt
 NBasis=   172 RedAO= T EigKep=  3.10D-03  NBF=   172
 NBsUse=   172 1.00D-06 EigRej= -1.00D+00 NBFU=   172
 Precomputing XC quadrature grid using
 IXCGrd= 4 IRadAn=           5 IRanWt=          -1 IRanGd=           0 AccXCQ= 0.00D+00.
 Generated NRdTot=       0 NPtTot=      407764 NUsed=           0 NTot=          64
 NSgBfM=   172   172   172   172   172 MxSgAt=    19 MxSgA2=    19 SizInc=   0.000
 NMBTot=     3455 MaxBatPerAtom=       85 MaxMicBPerAtom=      207 NBfPt=            51300881.
 Leave Link  302 at Fri Mar 14 15:17:04 2025, MaxMem=  8589934592 cpu:               2.9 elap:               0.5
 (Enter /home/enzo/gaussian_versions/gdv.j21/gdv/l303.exe)
 DipDrv:  MaxL=1.
 Leave Link  303 at Fri Mar 14 15:17:04 2025, MaxMem=  8589934592 cpu:               1.0 elap:               0.3
 (Enter /home/enzo/gaussian_versions/gdv.j21/gdv/l401.exe)
 Initial guess from the checkpoint file:  "/local/home/enzo/scratch/Gau-2337652.chk"
 B after Tr=    -0.000000   -0.000000   -0.000000
         Rot=    1.000000    0.000156    0.000083   -0.000049 Ang=   0.02 deg.
 AO Guess basis will be translated and rotated to current coordinates.
 JPrj=2 DoOrth=T DoCkMO=T.
 Leave Link  401 at Fri Mar 14 15:17:05 2025, MaxMem=  8589934592 cpu:               1.7 elap:               0.4
 (Enter /home/enzo/gaussian_versions/gdv.j21/gdv/l502.exe)
 Integral symmetry usage will be decided dynamically.
 Closed shell SCF:
 Using DIIS extrapolation, IDIIS=  1040.
 NGot=  8589934592 LenX=  8589843591 LenY=  8589813566
 Requested convergence on RMS density matrix=1.00D-08 within 128 cycles.
 Requested convergence on MAX density matrix=1.00D-06.
 Requested convergence on             energy=1.00D-06.
 No special actions if energy rises.
 Fock matrices will be formed incrementally for  20 cycles.

 Cycle   1  Pass 1  IDiag  1:
 FoFJK:  IHMeth= 1 ICntrl=       0 DoSepK=F KAlg= 0 I1Cent=           0 FoldK=F
 IRaf= 910000000 NMat=       1 IRICut=       1 DoRegI=T DoRafI=F ISym2E= 0 IDoP0=0 IntGTp=1.
 FoFCou: FMM=F IPFlag=           0 FMFlag=      100000 FMFlg1=           0
         NFxFlg=           0 DoJE=F BraDBF=F KetDBF=F FulRan=T
         wScrn=  0.000000 ICntrl=         0 IOpCl=  0 I1Cent=           0 NGrid=           0
         NMat0=    1 NMatS0=      1 NMatT0=    0 NMatD0=    1 NMtDS0=    0 NMtDT0=    0
 Symmetry not used in FoFCou.
 E= -874.583527465159    
 DIIS: error= 8.08D-05 at cycle   1 NSaved=   1.
 NSaved= 1 IEnMin= 1 EnMin= -874.583527465159     IErMin= 1 ErrMin= 8.08D-05
 ErrMax= 8.08D-05  0.00D+00 EMaxC= 1.00D-01 BMatC= 4.57D-06 BMatP= 4.57D-06
 IDIUse=1 WtCom= 1.00D+00 WtEn= 0.00D+00
 Coeff-Com:  0.100D+01
 Coeff:      0.100D+01
 Gap=     1.612 Goal=   None    Shift=    0.000
 RMSDP=2.17D-05 MaxDP=5.46D-04              OVMax= 6.27D-04

 Cycle   2  Pass 1  IDiag  1:
 RMSU=  2.17D-05    CP:  1.00D+00
 E= -874.583535709652     Delta-E=       -0.000008244493 Rises=F Damp=F
 DIIS: error= 1.23D-05 at cycle   2 NSaved=   2.
 NSaved= 2 IEnMin= 2 EnMin= -874.583535709652     IErMin= 2 ErrMin= 1.23D-05
 ErrMax= 1.23D-05  0.00D+00 EMaxC= 1.00D-01 BMatC= 7.07D-08 BMatP= 4.57D-06
 IDIUse=1 WtCom= 1.00D+00 WtEn= 0.00D+00
 Coeff-Com: -0.722D-01 0.107D+01
 Coeff:     -0.722D-01 0.107D+01
 Gap=     0.251 Goal=   None    Shift=    0.000
 RMSDP=2.99D-06 MaxDP=6.26D-05 DE=-8.24D-06 OVMax= 9.98D-05

 Cycle   3  Pass 1  IDiag  1:
 RMSU=  2.48D-06    CP:  1.00D+00  1.08D+00
 E= -874.583535777221     Delta-E=       -0.000000067569 Rises=F Damp=F
 DIIS: error= 1.04D-05 at cycle   3 NSaved=   3.
 NSaved= 3 IEnMin= 3 EnMin= -874.583535777221     IErMin= 3 ErrMin= 1.04D-05
 ErrMax= 1.04D-05  0.00D+00 EMaxC= 1.00D-01 BMatC= 4.79D-08 BMatP= 7.07D-08
 IDIUse=1 WtCom= 1.00D+00 WtEn= 0.00D+00
 Coeff-Com: -0.400D-01 0.532D+00 0.508D+00
 Coeff:     -0.400D-01 0.532D+00 0.508D+00
 Gap=     0.251 Goal=   None    Shift=    0.000
 RMSDP=1.76D-06 MaxDP=4.86D-05 DE=-6.76D-08 OVMax= 9.41D-05

 Cycle   4  Pass 1  IDiag  1:
 RMSU=  1.21D-06    CP:  1.00D+00  1.09D+00  4.91D-01
 E= -874.583535800845     Delta-E=       -0.000000023624 Rises=F Damp=F
 DIIS: error= 7.40D-06 at cycle   4 NSaved=   4.
 NSaved= 4 IEnMin= 4 EnMin= -874.583535800845     IErMin= 4 ErrMin= 7.40D-06
 ErrMax= 7.40D-06  0.00D+00 EMaxC= 1.00D-01 BMatC= 1.92D-08 BMatP= 4.79D-08
 IDIUse=1 WtCom= 1.00D+00 WtEn= 0.00D+00
 Coeff-Com: -0.132D-01 0.167D+00 0.374D+00 0.472D+00
 Coeff:     -0.132D-01 0.167D+00 0.374D+00 0.472D+00
 Gap=     0.251 Goal=   None    Shift=    0.000
 RMSDP=7.17D-07 MaxDP=2.01D-05 DE=-2.36D-08 OVMax= 3.91D-05

 Cycle   5  Pass 1  IDiag  1:
 RMSU=  3.63D-07    CP:  1.00D+00  1.09D+00  6.35D-01  5.89D-01
 E= -874.583535815276     Delta-E=       -0.000000014431 Rises=F Damp=F
 DIIS: error= 7.31D-07 at cycle   5 NSaved=   5.
 NSaved= 5 IEnMin= 5 EnMin= -874.583535815276     IErMin= 5 ErrMin= 7.31D-07
 ErrMax= 7.31D-07  0.00D+00 EMaxC= 1.00D-01 BMatC= 3.94D-10 BMatP= 1.92D-08
 IDIUse=1 WtCom= 1.00D+00 WtEn= 0.00D+00
 Coeff-Com: -0.283D-02 0.322D-01 0.131D+00 0.209D+00 0.631D+00
 Coeff:     -0.283D-02 0.322D-01 0.131D+00 0.209D+00 0.631D+00
 Gap=     0.251 Goal=   None    Shift=    0.000
 RMSDP=1.59D-07 MaxDP=4.57D-06 DE=-1.44D-08 OVMax= 5.21D-06

 Cycle   6  Pass 1  IDiag  1:
 RMSU=  1.01D-07    CP:  1.00D+00  1.09D+00  6.57D-01  6.37D-01  7.44D-01
 E= -874.583535815622     Delta-E=       -0.000000000346 Rises=F Damp=F
 DIIS: error= 2.73D-07 at cycle   6 NSaved=   6.
 NSaved= 6 IEnMin= 6 EnMin= -874.583535815622     IErMin= 6 ErrMin= 2.73D-07
 ErrMax= 2.73D-07  0.00D+00 EMaxC= 1.00D-01 BMatC= 4.69D-11 BMatP= 3.94D-10
 IDIUse=1 WtCom= 1.00D+00 WtEn= 0.00D+00
 Coeff-Com:  0.559D-03-0.109D-01 0.769D-02 0.281D-01 0.287D+00 0.687D+00
 Coeff:      0.559D-03-0.109D-01 0.769D-02 0.281D-01 0.287D+00 0.687D+00
 Gap=     0.251 Goal=   None    Shift=    0.000
 RMSDP=5.04D-08 MaxDP=1.47D-06 DE=-3.46D-10 OVMax= 2.00D-06

 Cycle   7  Pass 1  IDiag  1:
 RMSU=  3.22D-08    CP:  1.00D+00  1.09D+00  6.63D-01  6.43D-01  8.02D-01
                    CP:  7.32D-01
 E= -874.583535815665     Delta-E=       -0.000000000043 Rises=F Damp=F
 DIIS: error= 1.43D-07 at cycle   7 NSaved=   7.
 NSaved= 7 IEnMin= 7 EnMin= -874.583535815665     IErMin= 7 ErrMin= 1.43D-07
 ErrMax= 1.43D-07  0.00D+00 EMaxC= 1.00D-01 BMatC= 7.97D-12 BMatP= 4.69D-11
 IDIUse=1 WtCom= 1.00D+00 WtEn= 0.00D+00
 Coeff-Com:  0.515D-03-0.844D-02-0.352D-02 0.324D-02 0.126D+00 0.400D+00
 Coeff-Com:  0.482D+00
 Coeff:      0.515D-03-0.844D-02-0.352D-02 0.324D-02 0.126D+00 0.400D+00
 Coeff:      0.482D+00
 Gap=     0.251 Goal=   None    Shift=    0.000
 RMSDP=2.01D-08 MaxDP=5.25D-07 DE=-4.27D-11 OVMax= 1.09D-06

 Cycle   8  Pass 1  IDiag  1:
 RMSU=  1.35D-08    CP:  1.00D+00  1.09D+00  6.61D-01  6.46D-01  8.20D-01
                    CP:  7.62D-01  6.47D-01
 E= -874.583535815666     Delta-E=       -0.000000000001 Rises=F Damp=F
 DIIS: error= 5.25D-08 at cycle   8 NSaved=   8.
 NSaved= 8 IEnMin= 8 EnMin= -874.583535815666     IErMin= 8 ErrMin= 5.25D-08
 ErrMax= 5.25D-08  0.00D+00 EMaxC= 1.00D-01 BMatC= 9.82D-13 BMatP= 7.97D-12
 IDIUse=1 WtCom= 1.00D+00 WtEn= 0.00D+00
 Coeff-Com:  0.209D-03-0.316D-02-0.327D-02-0.265D-02 0.298D-01 0.130D+00
 Coeff-Com:  0.284D+00 0.565D+00
 Coeff:      0.209D-03-0.316D-02-0.327D-02-0.265D-02 0.298D-01 0.130D+00
 Coeff:      0.284D+00 0.565D+00
 Gap=     0.251 Goal=   None    Shift=    0.000
 RMSDP=7.12D-09 MaxDP=2.45D-07 DE=-1.14D-12 OVMax= 3.25D-07

 SCF Done:  E(RB3LYP) =  -874.583535816     A.U. after    8 cycles
            NFock=  8  Conv=0.71D-08     -V/T= 2.0064
 KE= 8.690016712257D+02 PE=-3.312700883079D+03 EE= 9.426759576758D+02
 Leave Link  502 at Fri Mar 14 15:17:10 2025, MaxMem=  8589934592 cpu:              53.9 elap:               5.3
 (Enter /home/enzo/gaussian_versions/gdv.j21/gdv/l701.exe)
 ... and contract with generalized density number  0.
 Compute integral first derivatives.
 Leave Link  701 at Fri Mar 14 15:17:10 2025, MaxMem=  8589934592 cpu:               1.3 elap:               0.3
 (Enter /home/enzo/gaussian_versions/gdv.j21/gdv/l702.exe)
 L702 exits ... SP integral derivatives will be done elsewhere.
 Leave Link  702 at Fri Mar 14 15:17:10 2025, MaxMem=  8589934592 cpu:               0.2 elap:               0.2
 (Enter /home/enzo/gaussian_versions/gdv.j21/gdv/l703.exe)
 Integral derivatives from FoFJK, PRISM(SPDF).
 Compute integral first derivatives, UseDBF=F ICtDFT=           0.
 Calling FoFJK, ICntrl=      2127 FMM=F ISym2X=0 I1Cent= 0 IOpClX= 0 NMat=1 NMatS=1 NMatT=0.
 FoFJK:  IHMeth= 1 ICntrl=    2127 DoSepK=F KAlg= 0 I1Cent=           0 FoldK=F
 IRaf=         0 NMat=       1 IRICut=       1 DoRegI=T DoRafI=F ISym2E= 0 IDoP0=0 IntGTp=1.
 FoFCou: FMM=F IPFlag=           0 FMFlag=      100000 FMFlg1=         800
         NFxFlg=           0 DoJE=F BraDBF=F KetDBF=F FulRan=T
         wScrn=  0.000000 ICntrl=      2127 IOpCl=  0 I1Cent=           0 NGrid=           0
         NMat0=    1 NMatS0=      1 NMatT0=    0 NMatD0=    1 NMtDS0=    0 NMtDT0=    0
 Symmetry not used in FoFCou.
 Leave Link  703 at Fri Mar 14 15:17:12 2025, MaxMem=  8589934592 cpu:              14.9 elap:               1.7
 (Enter /home/enzo/gaussian_versions/gdv.j21/gdv/l716.exe)
 Dipole        =-8.33161432D-01 7.64732987D-01-7.60526560D-01
 ***** Axes restored to original set *****
 -------------------------------------------------------------------
 Center     Atomic                   Forces (Hartrees/Bohr)
 Number     Number              X              Y              Z
 -------------------------------------------------------------------
      1        6           0.000006626   -0.000002603   -0.000001306
      2        6          -0.000002216    0.000086181   -0.000027756
      3       16           0.000002128   -0.000051890    0.000025590
      4        6           0.000011396   -0.000033552    0.000011257
      5        8           0.000004578    0.000004555   -0.000005238
      6        7           0.000010979    0.000036504   -0.000008654
      7        6           0.000005670   -0.000022311    0.000005012
      8        6          -0.000005595   -0.000009351   -0.000003159
      9        8          -0.000017207   -0.000001640    0.000003641
     10        8           0.000000146    0.000002070   -0.000008675
     11        1          -0.000001871   -0.000000445   -0.000000202
     12        1          -0.000004579   -0.000004133    0.000001867
     13        1           0.000000553   -0.000003149   -0.000001214
     14        1          -0.000001022   -0.000013406    0.000004278
     15        1          -0.000001670    0.000005655    0.000001910
     16        1          -0.000008680   -0.000000391    0.000000178
     17        1           0.000015990   -0.000001620   -0.000004046
     18        1          -0.000017218    0.000000384    0.000013633
     19        1           0.000001993    0.000009143   -0.000007113
 -------------------------------------------------------------------
 Cartesian Forces:  Max     0.000086181 RMS     0.000017233
 Leave Link  716 at Fri Mar 14 15:17:13 2025, MaxMem=  8589934592 cpu:               0.3 elap:               0.3
 (Enter /home/enzo/gaussian_versions/gdv.j21/gdv/l103.exe)

 GradGradGradGradGradGradGradGradGradGradGradGradGradGradGradGradGradGrad
 Berny optimization.
 Using GEDIIS/GDIIS optimizer.
 FormGI is forming the generalized inverse of G from B-inverse, IUseBI=4.
 GSVD:  received Info=                   1 from GESDD.
 Internal  Forces:  Max     0.000052762 RMS     0.000010211
 Search for a local minimum.
 Step number  23 out of a maximum of   93
 All quantities printed in internal units (Hartrees-Bohrs-Radians)
 RMS Force = .10211D-04 SwitMx=.10000D-02 MixMth= 2
 Mixed Optimization -- En-DIIS/RFO-DIIS
 Swapping is turned off.
 Update second derivatives using D2CorX and points   18   19   20   21   22
                                                     23
 DE= -2.27D-07 DEPred=-2.45D-07 R= 9.30D-01
 Trust test= 9.30D-01 RLast= 1.09D-02 DXMaxT set to 1.84D+00
 ITU=  0  1  1  1  1  1  1  0 -1  1  1  0  1 -1  1  1  1  1  0  0
 ITU=  1  1  0
     Eigenvalues ---    0.00071   0.00115   0.00309   0.00430   0.00633
     Eigenvalues ---    0.00840   0.01728   0.01978   0.03914   0.04373
     Eigenvalues ---    0.04769   0.05110   0.05352   0.05676   0.05745
     Eigenvalues ---    0.06091   0.07880   0.10453   0.13921   0.15146
     Eigenvalues ---    0.15868   0.15999   0.16076   0.16584   0.17367
     Eigenvalues ---    0.18224   0.20778   0.21425   0.22062   0.22499
     Eigenvalues ---    0.22770   0.24696   0.25594   0.26933   0.27466
     Eigenvalues ---    0.30358   0.32310   0.32466   0.32565   0.32609
     Eigenvalues ---    0.32673   0.32935   0.33132   0.34911   0.38598
     Eigenvalues ---    0.40951   0.45836   0.46596   0.50288   0.78445
     Eigenvalues ---    0.84729
 En-DIIS/RFO-DIIS/Sim-DIIS IScMMF=       -3 using points:    23   22   21   20   19   18   17
 RFO step:  Lambda=-7.33593093D-08.
 NNeg= 0 NGDIIS= 7 SimSw=  2.50D-01 Rises=F DC= -2.27D-07 SmlDif=  1.00D-05
 NRisDI= 0 DoIntr=F SqrtH=F CThrHd= 10.0 CDAdj=  3.0
 RMS Error=  0.4950380590D-03 NUsed= 7 OKEnD=F EnDIS=F
 InvSVX:  RCond= 6.79D-07 Info=           0 Equed=N FErr=  8.37D-13 BErr=  8.23D-17
 DidBck=FF Rises=F RFO-DIIS coefs:    1.28709   -0.17292   -0.11469   -0.03286    0.06227
                   RFO-DIIS coefs:   -0.01748   -0.01140
 Iteration  1 RMS(Cart)=  0.00087644 RMS(Int)=  0.00001649
 Iteration  2 RMS(Cart)=  0.00000048 RMS(Int)=  0.00001649
 Variable       Old X    -DE/DX   Delta X   Delta X   Delta X     New X
                                 (Linear)    (Quad)   (Total)
    R1        2.88292  -0.00001   0.00005  -0.00007  -0.00002   2.88291
    R2        2.06811  -0.00000  -0.00001   0.00001  -0.00000   2.06810
    R3        2.06724  -0.00001   0.00001  -0.00002  -0.00001   2.06723
    R4        2.06522  -0.00000  -0.00002   0.00001  -0.00002   2.06521
    R5        3.52579   0.00005   0.00018   0.00013   0.00031   3.52610
    R6        2.91446  -0.00001  -0.00016   0.00005  -0.00011   2.91435
    R7        2.07230  -0.00000  -0.00003   0.00001  -0.00001   2.07229
    R8        2.55090  -0.00000  -0.00001  -0.00000  -0.00001   2.55089
    R9        2.31033   0.00000  -0.00003   0.00003  -0.00001   2.31033
   R10        2.58863   0.00001   0.00000   0.00005   0.00005   2.58869
   R11        2.72899   0.00001  -0.00006   0.00006   0.00000   2.72899
   R12        1.91287  -0.00000  -0.00002   0.00001  -0.00001   1.91286
   R13        2.88203   0.00000   0.00001   0.00002   0.00003   2.88206
   R14        2.06780  -0.00000  -0.00001   0.00002   0.00001   2.06781
   R15        2.06918  -0.00001  -0.00001  -0.00002  -0.00003   2.06915
   R16        2.28544   0.00002   0.00002   0.00000   0.00002   2.28546
   R17        2.55344  -0.00002   0.00000  -0.00002  -0.00002   2.55342
   R18        1.84444  -0.00001   0.00000  -0.00002  -0.00002   1.84442
    A1        1.92793  -0.00000  -0.00002   0.00001  -0.00000   1.92793
    A2        1.91672  -0.00000   0.00000  -0.00001  -0.00000   1.91672
    A3        1.93374  -0.00000  -0.00003  -0.00001  -0.00004   1.93371
    A4        1.90119   0.00000  -0.00001   0.00002   0.00001   1.90120
    A5        1.89710   0.00000   0.00007  -0.00003   0.00004   1.89714
    A6        1.88632   0.00000  -0.00002   0.00001  -0.00000   1.88631
    A7        1.96695  -0.00001  -0.00004  -0.00004  -0.00008   1.96687
    A8        1.94347   0.00000   0.00006   0.00004   0.00010   1.94357
    A9        1.92286   0.00000   0.00006   0.00002   0.00008   1.92294
   A10        1.91280   0.00001  -0.00024   0.00007  -0.00017   1.91263
   A11        1.85268  -0.00000  -0.00003  -0.00005  -0.00008   1.85260
   A12        1.85991  -0.00000   0.00020  -0.00004   0.00016   1.86007
   A13        1.67234  -0.00001  -0.00005  -0.00007  -0.00012   1.67222
   A14        2.11747  -0.00002   0.00020  -0.00015   0.00005   2.11753
   A15        2.01706   0.00003  -0.00019   0.00017  -0.00002   2.01705
   A16        2.14639  -0.00001  -0.00001  -0.00004  -0.00005   2.14634
   A17        2.11146   0.00001   0.00001   0.00003  -0.00004   2.11142
   A18        2.05624   0.00000  -0.00000   0.00000  -0.00008   2.05615
   A19        2.06839  -0.00002  -0.00011  -0.00004  -0.00024   2.06815
   A20        2.02551   0.00002  -0.00004   0.00016   0.00012   2.02562
   A21        1.87289  -0.00002  -0.00001  -0.00013  -0.00013   1.87275
   A22        1.93962   0.00001  -0.00003   0.00012   0.00009   1.93971
   A23        1.87224   0.00001   0.00009  -0.00003   0.00006   1.87230
   A24        1.87001  -0.00003   0.00001  -0.00015  -0.00014   1.86987
   A25        1.87768   0.00000  -0.00002   0.00002  -0.00000   1.87768
   A26        2.15194   0.00001   0.00014  -0.00005   0.00009   2.15203
   A27        1.97441  -0.00002  -0.00014   0.00005  -0.00009   1.97432
   A28        2.15682   0.00000  -0.00000   0.00000  -0.00000   2.15682
   A29        1.85238  -0.00001   0.00001  -0.00006  -0.00005   1.85233
    D1        1.04772  -0.00000   0.00020   0.00013   0.00033   1.04804
    D2       -3.07770   0.00000  -0.00010   0.00022   0.00012  -3.07759
    D3       -1.01791   0.00000   0.00023   0.00020   0.00043  -1.01748
    D4       -3.13813  -0.00000   0.00017   0.00016   0.00033  -3.13780
    D5       -0.98036   0.00000  -0.00013   0.00025   0.00012  -0.98024
    D6        1.07943   0.00001   0.00020   0.00023   0.00044   1.07987
    D7       -1.05557  -0.00000   0.00014   0.00017   0.00030  -1.05527
    D8        1.10219   0.00000  -0.00016   0.00026   0.00009   1.10228
    D9       -3.12120   0.00001   0.00017   0.00024   0.00041  -3.12079
   D10       -1.26095   0.00000   0.00090   0.00025   0.00115  -1.25980
   D11        2.84756   0.00000   0.00103   0.00018   0.00121   2.84877
   D12        0.84535   0.00000   0.00093   0.00022   0.00115   0.84649
   D13        0.18764   0.00001  -0.00140   0.00006  -0.00134   0.18630
   D14       -3.02408   0.00000  -0.00137  -0.00014  -0.00150  -3.02558
   D15        2.37588  -0.00000  -0.00159   0.00009  -0.00150   2.37439
   D16       -0.83584  -0.00001  -0.00155  -0.00011  -0.00167  -0.83750
   D17       -1.90972  -0.00000  -0.00164   0.00005  -0.00159  -1.91132
   D18        1.16174  -0.00001  -0.00161  -0.00015  -0.00176   1.15998
   D19        3.06082   0.00000  -0.00065   0.00003  -0.00061   3.06021
   D20        0.24893   0.00000   0.00063   0.00006   0.00068   0.24961
   D21       -0.15219  -0.00001  -0.00061  -0.00018  -0.00078  -0.15296
   D22       -2.96408  -0.00000   0.00067  -0.00015   0.00051  -2.96357
   D23       -1.73090  -0.00001   0.00160  -0.00010   0.00149  -1.72940
   D24        0.36177   0.00000   0.00168  -0.00013   0.00155   0.36332
   D25        2.41020   0.00000   0.00164  -0.00012   0.00152   2.41172
   D26        1.07876  -0.00001   0.00035  -0.00012   0.00023   1.07899
   D27       -3.11176   0.00000   0.00043  -0.00015   0.00029  -3.11147
   D28       -1.06333   0.00000   0.00039  -0.00014   0.00025  -1.06307
   D29       -2.97922  -0.00001   0.00090  -0.00021   0.00069  -2.97854
   D30        0.16821  -0.00001   0.00086  -0.00003   0.00083   0.16904
   D31        1.21095   0.00000   0.00087  -0.00014   0.00073   1.21168
   D32       -1.92480   0.00000   0.00083   0.00005   0.00087  -1.92392
   D33       -0.80099   0.00001   0.00084  -0.00007   0.00077  -0.80022
   D34        2.34645   0.00001   0.00080   0.00012   0.00091   2.34736
   D35        3.11772  -0.00000  -0.00003  -0.00024  -0.00027   3.11745
   D36       -0.01801  -0.00000  -0.00007  -0.00005  -0.00013  -0.01814
         Item               Value     Threshold  Converged?
 Maximum Force            0.000053     0.000450     YES
 RMS     Force            0.000010     0.000300     YES
 Maximum Displacement     0.003312     0.001800     NO 
 RMS     Displacement     0.000876     0.001200     YES
 Predicted change in Energy=-3.378294D-08
 Lowest energy point so far.  Saving SCF results.
 GradGradGradGradGradGradGradGradGradGradGradGradGradGradGradGradGradGrad

 Leave Link  103 at Fri Mar 14 15:17:13 2025, MaxMem=  8589934592 cpu:               1.1 elap:               0.3
 (Enter /home/enzo/gaussian_versions/gdv.j21/gdv/l202.exe)
                          Input orientation:                          
 ---------------------------------------------------------------------
 Center     Atomic      Atomic             Coordinates (Angstroms)
 Number     Number       Type             X           Y           Z
 ---------------------------------------------------------------------
      1          6           0        3.011103    1.135910    0.483733
      2          6           0        2.037735    0.221129   -0.253214
      3         16           0        1.873737   -1.453911    0.552425
      4          6           0        0.645129    0.870875   -0.383118
      5          8           0        0.464623    2.047969   -0.106444
      6          7           0       -0.335208    0.068720   -0.904690
      7          6           0       -1.703311    0.523973   -0.985466
      8          6           0       -2.636675    0.040459    0.119540
      9          8           0       -3.834872    0.202953    0.095056
     10          8           0       -1.987136   -0.579824    1.129055
     11          1           0        4.009907    0.689417    0.510736
     12          1           0        3.068287    2.102979   -0.024400
     13          1           0        2.677786    1.311076    1.509676
     14          1           0        2.392595    0.035123   -1.274010
     15          1           0        3.090549   -1.904367    0.180106
     16          1           0       -0.153159   -0.925591   -0.957956
     17          1           0       -1.685680    1.617152   -0.940716
     18          1           0       -2.158480    0.239286   -1.939764
     19          1           0       -2.670537   -0.823886    1.781760
 ---------------------------------------------------------------------
                    Distance matrix (angstroms):
                    1          2          3          4          5
     1  C    0.000000
     2  C    1.525569   0.000000
     3  S    2.829399   1.865934   0.000000
     4  C    2.533674   1.542205   2.790941   0.000000
     5  O    2.768523   2.415278   3.831824   1.222571   0.000000
     6  N    3.776826   2.465464   3.053036   1.369873   2.279112
     7  C    4.975813   3.824047   4.367196   2.449150   2.791986
     8  C    5.764551   4.692728   4.771199   3.422352   3.701245
     9  O    6.920177   5.882953   5.961761   4.554688   4.682984
    10  O    5.323775   4.330333   4.000359   3.364523   3.800379
    11  H    1.094393   2.166189   3.026354   3.486206   3.846507
    12  H    1.093933   2.157719   3.796201   2.741979   2.605537
    13  H    1.092860   2.169200   3.034465   2.812141   2.837771
    14  H    2.164242   1.096608   2.412945   2.132090   3.021893
    15  H    3.056434   2.411206   1.349875   3.741560   4.753794
    16  H    4.042376   2.571312   2.582378   2.048169   3.154170
    17  H    4.931574   4.035513   4.932580   2.510083   2.346363
    18  H    5.779434   4.522500   5.033557   3.268375   3.676012
    19  H    6.148715   5.234596   4.749591   4.307267   4.652106
                    6          7          8          9         10
     6  N    0.000000
     7  C    1.444120   0.000000
     8  C    2.519244   1.525120   0.000000
     9  O    3.642136   2.411251   1.209413   0.000000
    10  O    2.699183   2.402108   1.351211   2.257437   0.000000
    11  H    4.611803   5.908202   6.689636   7.870832   6.160992
    12  H    4.061638   5.117134   6.068056   7.160864   5.838253
    13  H    4.055951   5.102869   5.638301   6.756019   5.047957
    14  H    2.752897   4.135055   5.218771   6.378390   5.033381
    15  H    4.099472   5.498771   6.048728   7.239439   5.332710
    16  H    1.012242   2.122490   2.874387   3.992175   2.799758
    17  H    2.054924   1.094237   2.124734   2.773410   3.033403
    18  H    2.103519   1.094947   2.123425   2.636683   3.180872
    19  H    3.669811   3.226420   1.873823   2.292388   0.976026
                   11         12         13         14         15
    11  H    0.000000
    12  H    1.780780   0.000000
    13  H    1.777326   1.770025   0.000000
    14  H    2.495820   2.508807   3.075434   0.000000
    15  H    2.771687   4.012622   3.503884   2.522541   0.000000
    16  H    4.700683   4.519013   4.371056   2.739293   3.574189
    17  H    5.950388   4.865785   5.013774   4.387053   6.039015
    18  H    6.652561   5.870355   6.036293   4.604042   6.053214
    19  H    6.966629   6.690504   5.765123   5.975862   6.076416
                   16         17         18         19
    16  H    0.000000
    17  H    2.968916   0.000000
    18  H    2.518372   1.766395   0.000000
    19  H    3.722040   3.786883   3.904135   0.000000
 Stoichiometry    C5H9NO3S
 Framework group  C1[X(C5H9NO3S)]
 Deg. of freedom    51
 Full point group                 C1      NOp   1
 RotChk:  IX=2 Diff= 2.53D-04
 Largest Abelian subgroup         C1      NOp   1
 Largest concise Abelian subgroup C1      NOp   1
                         Standard orientation:                         
 ---------------------------------------------------------------------
 Center     Atomic      Atomic             Coordinates (Angstroms)
 Number     Number       Type             X           Y           Z
 ---------------------------------------------------------------------
      1          6           0       -2.983436   -0.925786    0.665338
      2          6           0       -2.003592   -0.277275   -0.307647
      3         16           0       -1.912921    1.575928   -0.109852
      4          6           0       -0.591528   -0.881663   -0.169127
      5          8           0       -0.393839   -1.889759    0.493702
      6          7           0        0.389317   -0.266460   -0.901261
      7          6           0        1.770205   -0.672190   -0.782866
      8          6           0        2.646205    0.188425    0.121543
      9          8           0        3.848002    0.070936    0.189066
     10          8           0        1.941596    1.087957    0.842750
     11          1           0       -3.993052   -0.532925    0.510318
     12          1           0       -2.996591   -2.008811    0.511798
     13          1           0       -2.687649   -0.733478    1.699683
     14          1           0       -2.321369   -0.458436   -1.341449
     15          1           0       -3.124282    1.830291   -0.648432
     16          1           0        0.185502    0.644697   -1.292267
     17          1           0        1.777303   -1.686528   -0.372474
     18          1           0        2.256481   -0.708608   -1.763233
     19          1           0        2.591974    1.562027    1.394921
 ---------------------------------------------------------------------
 Rotational constants (GHZ):           2.0050665           0.6189901           0.5266749
 Leave Link  202 at Fri Mar 14 15:17:13 2025, MaxMem=  8589934592 cpu:               0.1 elap:               0.2
 (Enter /home/enzo/gaussian_versions/gdv.j21/gdv/l301.exe)
 Standard basis: 6-31G(d) (6D, 7F)
 Ernie: Thresh=  0.10000D-02 Tol=  0.10000D-05 Strict=F.
 There are   172 symmetry adapted cartesian basis functions of A   symmetry.
 There are   172 symmetry adapted basis functions of A   symmetry.
   172 basis functions,   340 primitive gaussians,   172 cartesian basis functions
    43 alpha electrons       43 beta electrons
       nuclear repulsion energy       626.4603157309 Hartrees.
 IExCor=      4002 DFT=T Ex+Corr=B3LYP ScaHFX=  0.200000
 ScaDFX=  0.800000  0.720000  1.000000  0.810000  1.000000  0.000000
 ScaDFX=  0.000000  0.000000  0.000000  0.000000  0.000000  0.000000
 IRadAn=      5 IRanWt=     -1 IRanGd=            0 ICorTp=0 IEmpDi=  4
 NAtoms=   19 NActive=   19 NUniq=   19 SFac= 1.00D+00 NAtFMM=   60 NAOKFM=F Big=F
 Integral buffers will be    131072 words long.
 Raffenetti 2 integral format.
 Two-electron integral symmetry is turned on.
 Leave Link  301 at Fri Mar 14 15:17:13 2025, MaxMem=  8589934592 cpu:               0.3 elap:               0.2
 (Enter /home/enzo/gaussian_versions/gdv.j21/gdv/l302.exe)
 NPDir=0 NMtPBC=     1 NCelOv=     1 NCel=       1 NClECP=     1 NCelD=      1
         NCelK=      1 NCelE2=     1 NClLst=     1 CellRange=     0.0.
 One-electron integrals computed using PRISM.
 One-electron integral symmetry used in STVInt
 NBasis=   172 RedAO= T EigKep=  3.10D-03  NBF=   172
 NBsUse=   172 1.00D-06 EigRej= -1.00D+00 NBFU=   172
 Precomputing XC quadrature grid using
 IXCGrd= 4 IRadAn=           5 IRanWt=          -1 IRanGd=           0 AccXCQ= 0.00D+00.
 Generated NRdTot=       0 NPtTot=      407709 NUsed=           0 NTot=          64
 NSgBfM=   172   172   172   172   172 MxSgAt=    19 MxSgA2=    19 SizInc=   0.000
 NMBTot=     3451 MaxBatPerAtom=       85 MaxMicBPerAtom=      200 NBfPt=            51311366.
 Leave Link  302 at Fri Mar 14 15:17:14 2025, MaxMem=  8589934592 cpu:               3.5 elap:               0.6
 (Enter /home/enzo/gaussian_versions/gdv.j21/gdv/l303.exe)
 DipDrv:  MaxL=1.
 Leave Link  303 at Fri Mar 14 15:17:14 2025, MaxMem=  8589934592 cpu:               0.3 elap:               0.2
 (Enter /home/enzo/gaussian_versions/gdv.j21/gdv/l401.exe)
 Initial guess from the checkpoint file:  "/local/home/enzo/scratch/Gau-2337652.chk"
 B after Tr=    -0.000000   -0.000000    0.000000
         Rot=    1.000000    0.000092    0.000036   -0.000022 Ang=   0.01 deg.
 AO Guess basis will be translated and rotated to current coordinates.
 JPrj=2 DoOrth=T DoCkMO=T.
 Leave Link  401 at Fri Mar 14 15:17:14 2025, MaxMem=  8589934592 cpu:               0.7 elap:               0.2
 (Enter /home/enzo/gaussian_versions/gdv.j21/gdv/l502.exe)
 Integral symmetry usage will be decided dynamically.
 Closed shell SCF:
 Using DIIS extrapolation, IDIIS=  1040.
 NGot=  8589934592 LenX=  8589843591 LenY=  8589813566
 Requested convergence on RMS density matrix=1.00D-08 within 128 cycles.
 Requested convergence on MAX density matrix=1.00D-06.
 Requested convergence on             energy=1.00D-06.
 No special actions if energy rises.
 Fock matrices will be formed incrementally for  20 cycles.

 Cycle   1  Pass 1  IDiag  1:
 FoFJK:  IHMeth= 1 ICntrl=       0 DoSepK=F KAlg= 0 I1Cent=           0 FoldK=F
 IRaf= 910000000 NMat=       1 IRICut=       1 DoRegI=T DoRafI=F ISym2E= 0 IDoP0=0 IntGTp=1.
 FoFCou: FMM=F IPFlag=           0 FMFlag=      100000 FMFlg1=           0
         NFxFlg=           0 DoJE=F BraDBF=F KetDBF=F FulRan=T
         wScrn=  0.000000 ICntrl=         0 IOpCl=  0 I1Cent=           0 NGrid=           0
         NMat0=    1 NMatS0=      1 NMatT0=    0 NMatD0=    1 NMtDS0=    0 NMtDT0=    0
 Symmetry not used in FoFCou.
 E= -874.583533610973    
 DIIS: error= 4.49D-05 at cycle   1 NSaved=   1.
 NSaved= 1 IEnMin= 1 EnMin= -874.583533610973     IErMin= 1 ErrMin= 4.49D-05
 ErrMax= 4.49D-05  0.00D+00 EMaxC= 1.00D-01 BMatC= 1.16D-06 BMatP= 1.16D-06
 IDIUse=1 WtCom= 1.00D+00 WtEn= 0.00D+00
 Coeff-Com:  0.100D+01
 Coeff:      0.100D+01
 Gap=     1.611 Goal=   None    Shift=    0.000
 RMSDP=1.12D-05 MaxDP=2.93D-04              OVMax= 3.32D-04

 Cycle   2  Pass 1  IDiag  1:
 RMSU=  1.12D-05    CP:  1.00D+00
 E= -874.583535811793     Delta-E=       -0.000002200821 Rises=F Damp=F
 DIIS: error= 7.24D-06 at cycle   2 NSaved=   2.
 NSaved= 2 IEnMin= 2 EnMin= -874.583535811793     IErMin= 2 ErrMin= 7.24D-06
 ErrMax= 7.24D-06  0.00D+00 EMaxC= 1.00D-01 BMatC= 2.00D-08 BMatP= 1.16D-06
 IDIUse=1 WtCom= 1.00D+00 WtEn= 0.00D+00
 Coeff-Com: -0.709D-01 0.107D+01
 Coeff:     -0.709D-01 0.107D+01
 Gap=     0.251 Goal=   None    Shift=    0.000
 RMSDP=1.69D-06 MaxDP=3.79D-05 DE=-2.20D-06 OVMax= 5.48D-05

 Cycle   3  Pass 1  IDiag  1:
 RMSU=  1.42D-06    CP:  1.00D+00  1.08D+00
 E= -874.583535835506     Delta-E=       -0.000000023713 Rises=F Damp=F
 DIIS: error= 5.07D-06 at cycle   3 NSaved=   3.
 NSaved= 3 IEnMin= 3 EnMin= -874.583535835506     IErMin= 3 ErrMin= 5.07D-06
 ErrMax= 5.07D-06  0.00D+00 EMaxC= 1.00D-01 BMatC= 9.62D-09 BMatP= 2.00D-08
 IDIUse=1 WtCom= 1.00D+00 WtEn= 0.00D+00
 Coeff-Com: -0.364D-01 0.468D+00 0.568D+00
 Coeff:     -0.364D-01 0.468D+00 0.568D+00
 Gap=     0.251 Goal=   None    Shift=    0.000
 RMSDP=9.01D-07 MaxDP=2.61D-05 DE=-2.37D-08 OVMax= 3.72D-05

 Cycle   4  Pass 1  IDiag  1:
 RMSU=  6.54D-07    CP:  1.00D+00  1.09D+00  5.75D-01
 E= -874.583535839902     Delta-E=       -0.000000004396 Rises=F Damp=F
 DIIS: error= 3.64D-06 at cycle   4 NSaved=   4.
 NSaved= 4 IEnMin= 4 EnMin= -874.583535839902     IErMin= 4 ErrMin= 3.64D-06
 ErrMax= 3.64D-06  0.00D+00 EMaxC= 1.00D-01 BMatC= 4.85D-09 BMatP= 9.62D-09
 IDIUse=1 WtCom= 1.00D+00 WtEn= 0.00D+00
 Coeff-Com: -0.147D-01 0.175D+00 0.405D+00 0.434D+00
 Coeff:     -0.147D-01 0.175D+00 0.405D+00 0.434D+00
 Gap=     0.251 Goal=   None    Shift=    0.000
 RMSDP=3.99D-07 MaxDP=1.33D-05 DE=-4.40D-09 OVMax= 1.68D-05

 Cycle   5  Pass 1  IDiag  1:
 RMSU=  2.31D-07    CP:  1.00D+00  1.09D+00  6.90D-01  5.75D-01
 E= -874.583535843491     Delta-E=       -0.000000003589 Rises=F Damp=F
 DIIS: error= 5.59D-07 at cycle   5 NSaved=   5.
 NSaved= 5 IEnMin= 5 EnMin= -874.583535843491     IErMin= 5 ErrMin= 5.59D-07
 ErrMax= 5.59D-07  0.00D+00 EMaxC= 1.00D-01 BMatC= 1.83D-10 BMatP= 4.85D-09
 IDIUse=1 WtCom= 1.00D+00 WtEn= 0.00D+00
 Coeff-Com: -0.333D-02 0.351D-01 0.144D+00 0.223D+00 0.601D+00
 Coeff:     -0.333D-02 0.351D-01 0.144D+00 0.223D+00 0.601D+00
 Gap=     0.251 Goal=   None    Shift=    0.000
 RMSDP=1.11D-07 MaxDP=2.89D-06 DE=-3.59D-09 OVMax= 3.33D-06

 Cycle   6  Pass 1  IDiag  1:
 RMSU=  6.12D-08    CP:  1.00D+00  1.10D+00  7.21D-01  6.25D-01  6.79D-01
 E= -874.583535843663     Delta-E=       -0.000000000172 Rises=F Damp=F
 DIIS: error= 1.50D-07 at cycle   6 NSaved=   6.
 NSaved= 6 IEnMin= 6 EnMin= -874.583535843663     IErMin= 6 ErrMin= 1.50D-07
 ErrMax= 1.50D-07  0.00D+00 EMaxC= 1.00D-01 BMatC= 1.24D-11 BMatP= 1.83D-10
 IDIUse=1 WtCom= 1.00D+00 WtEn= 0.00D+00
 Coeff-Com:  0.704D-03-0.126D-01 0.168D-02 0.277D-01 0.245D+00 0.738D+00
 Coeff:      0.704D-03-0.126D-01 0.168D-02 0.277D-01 0.245D+00 0.738D+00
 Gap=     0.251 Goal=   None    Shift=    0.000
 RMSDP=2.79D-08 MaxDP=6.39D-07 DE=-1.72D-10 OVMax= 8.75D-07

 Cycle   7  Pass 1  IDiag  1:
 RMSU=  1.38D-08    CP:  1.00D+00  1.10D+00  7.24D-01  6.39D-01  7.53D-01
                    CP:  7.76D-01
 E= -874.583535843674     Delta-E=       -0.000000000011 Rises=F Damp=F
 DIIS: error= 4.36D-08 at cycle   7 NSaved=   7.
 NSaved= 7 IEnMin= 7 EnMin= -874.583535843674     IErMin= 7 ErrMin= 4.36D-08
 ErrMax= 4.36D-08  0.00D+00 EMaxC= 1.00D-01 BMatC= 1.08D-12 BMatP= 1.24D-11
 IDIUse=1 WtCom= 1.00D+00 WtEn= 0.00D+00
 Coeff-Com:  0.497D-03-0.786D-02-0.558D-02 0.345D-02 0.961D-01 0.368D+00
 Coeff-Com:  0.546D+00
 Coeff:      0.497D-03-0.786D-02-0.558D-02 0.345D-02 0.961D-01 0.368D+00
 Coeff:      0.546D+00
 Gap=     0.251 Goal=   None    Shift=    0.000
 RMSDP=7.27D-09 MaxDP=1.86D-07 DE=-1.07D-11 OVMax= 2.43D-07

 SCF Done:  E(RB3LYP) =  -874.583535844     A.U. after    7 cycles
            NFock=  7  Conv=0.73D-08     -V/T= 2.0064
 KE= 8.690015601802D+02 PE=-3.312741906817D+03 EE= 9.426964950621D+02
 Leave Link  502 at Fri Mar 14 15:17:19 2025, MaxMem=  8589934592 cpu:              44.9 elap:               4.6
 (Enter /home/enzo/gaussian_versions/gdv.j21/gdv/l701.exe)
 ... and contract with generalized density number  0.
 Compute integral first derivatives.
 Leave Link  701 at Fri Mar 14 15:17:20 2025, MaxMem=  8589934592 cpu:               3.1 elap:               0.6
 (Enter /home/enzo/gaussian_versions/gdv.j21/gdv/l702.exe)
 L702 exits ... SP integral derivatives will be done elsewhere.
 Leave Link  702 at Fri Mar 14 15:17:20 2025, MaxMem=  8589934592 cpu:               0.1 elap:               0.2
 (Enter /home/enzo/gaussian_versions/gdv.j21/gdv/l703.exe)
 Integral derivatives from FoFJK, PRISM(SPDF).
 Compute integral first derivatives, UseDBF=F ICtDFT=           0.
 Calling FoFJK, ICntrl=      2127 FMM=F ISym2X=0 I1Cent= 0 IOpClX= 0 NMat=1 NMatS=1 NMatT=0.
 FoFJK:  IHMeth= 1 ICntrl=    2127 DoSepK=F KAlg= 0 I1Cent=           0 FoldK=F
 IRaf=         0 NMat=       1 IRICut=       1 DoRegI=T DoRafI=F ISym2E= 0 IDoP0=0 IntGTp=1.
 FoFCou: FMM=F IPFlag=           0 FMFlag=      100000 FMFlg1=         800
         NFxFlg=           0 DoJE=F BraDBF=F KetDBF=F FulRan=T
         wScrn=  0.000000 ICntrl=      2127 IOpCl=  0 I1Cent=           0 NGrid=           0
         NMat0=    1 NMatS0=      1 NMatT0=    0 NMatD0=    1 NMtDS0=    0 NMtDT0=    0
 Symmetry not used in FoFCou.
 Leave Link  703 at Fri Mar 14 15:17:21 2025, MaxMem=  8589934592 cpu:              14.3 elap:               1.4
 (Enter /home/enzo/gaussian_versions/gdv.j21/gdv/l716.exe)
 Dipole        =-8.33446904D-01 7.63484337D-01-7.61005078D-01
 ***** Axes restored to original set *****
 -------------------------------------------------------------------
 Center     Atomic                   Forces (Hartrees/Bohr)
 Number     Number              X              Y              Z
 -------------------------------------------------------------------
      1        6          -0.000008624   -0.000006621   -0.000004795
      2        6           0.000010549    0.000031328   -0.000000126
      3       16          -0.000003241   -0.000012260    0.000004335
      4        6           0.000008574    0.000002372   -0.000005138
      5        8           0.000002951   -0.000000572    0.000000915
      6        7          -0.000005511   -0.000006303    0.000005965
      7        6          -0.000012770    0.000005098   -0.000008657
      8        6           0.000004619    0.000005195    0.000008485
      9        8           0.000005284   -0.000002152   -0.000004101
     10        8          -0.000005126    0.000001080   -0.000005121
     11        1          -0.000000250   -0.000000435    0.000000699
     12        1          -0.000000706    0.000000958   -0.000001499
     13        1           0.000001531   -0.000000085    0.000001640
     14        1          -0.000002569   -0.000008026    0.000001106
     15        1           0.000000126    0.000000994    0.000000067
     16        1           0.000004923   -0.000008048    0.000000839
     17        1          -0.000001933   -0.000000909    0.000003138
     18        1           0.000001315   -0.000001293   -0.000000022
     19        1           0.000000856   -0.000000320    0.000002270
 -------------------------------------------------------------------
 Cartesian Forces:  Max     0.000031328 RMS     0.000006377
 Leave Link  716 at Fri Mar 14 15:17:21 2025, MaxMem=  8589934592 cpu:               0.2 elap:               0.2
 (Enter /home/enzo/gaussian_versions/gdv.j21/gdv/l103.exe)

 GradGradGradGradGradGradGradGradGradGradGradGradGradGradGradGradGradGrad
 Berny optimization.
 Using GEDIIS/GDIIS optimizer.
 FormGI is forming the generalized inverse of G from B-inverse, IUseBI=4.
 GSVD:  received Info=                   1 from GESDD.
 Internal  Forces:  Max     0.000011717 RMS     0.000003297
 Search for a local minimum.
 Step number  24 out of a maximum of   93
 All quantities printed in internal units (Hartrees-Bohrs-Radians)
 RMS Force = .32967D-05 SwitMx=.10000D-02 MixMth= 2
 Mixed Optimization -- En-DIIS/RFO-DIIS
 Swapping is turned off.
 Update second derivatives using D2CorX and points   18   19   20   21   22
                                                     23   24
 DE= -2.80D-08 DEPred=-3.38D-08 R= 8.29D-01
 Trust test= 8.29D-01 RLast= 5.74D-03 DXMaxT set to 1.84D+00
 ITU=  0  0  1  1  1  1  1  1  0 -1  1  1  0  1 -1  1  1  1  1  0
 ITU=  0  1  1  0
     Eigenvalues ---    0.00076   0.00126   0.00290   0.00411   0.00614
     Eigenvalues ---    0.00841   0.01719   0.01968   0.03952   0.04353
     Eigenvalues ---    0.04696   0.05096   0.05269   0.05640   0.05745
     Eigenvalues ---    0.06190   0.07924   0.10449   0.13865   0.15230
     Eigenvalues ---    0.15831   0.16002   0.16104   0.16412   0.17453
     Eigenvalues ---    0.18343   0.20242   0.21215   0.21809   0.22307
     Eigenvalues ---    0.22789   0.24696   0.25696   0.27081   0.27576
     Eigenvalues ---    0.30387   0.32333   0.32469   0.32555   0.32609
     Eigenvalues ---    0.32667   0.33047   0.33119   0.35245   0.38435
     Eigenvalues ---    0.41089   0.46037   0.47631   0.49965   0.78560
     Eigenvalues ---    0.85100
 En-DIIS/RFO-DIIS/Sim-DIIS IScMMF=       -3 using points:    24   23   22   21   20   19   18   17
 RFO step:  Lambda=-1.44466542D-08.
 NNeg= 0 NGDIIS= 8 SimSw=  2.50D-01 Rises=F DC= -2.80D-08 SmlDif=  1.00D-05
 NRisDI= 0 DoIntr=F SqrtH=F CThrHd= 10.0 CDAdj=  3.0
 RMS Error=  0.3327798742D-03 NUsed= 8 OKEnD=F EnDIS=F
 InvSVX:  RCond= 3.82D-08 Info=           0 Equed=N FErr=  1.43D-12 BErr=  9.97D-17
 DIIS inversion failure, remove point   8.
 InvSVX:  RCond= 5.27D-08 Info=           0 Equed=N FErr=  3.43D-13 BErr=  1.00D-16
 DIIS inversion failure, remove point   7.
 InvSVX:  RCond= 8.00D-08 Info=           0 Equed=N FErr=  3.32D-13 BErr=  9.74D-17
 DIIS inversion failure, remove point   6.
 InvSVX:  RCond= 2.90D-07 Info=           0 Equed=N FErr=  2.77D-14 BErr=  5.73D-17
 RFO-DIIS uses    5 points instead of    8
 DidBck=TT Rises=F RFO-DIIS coefs:    0.72184    0.42401   -0.11636   -0.04286    0.01336
                   RFO-DIIS coefs:    0.00000    0.00000    0.00000
 Iteration  1 RMS(Cart)=  0.00046376 RMS(Int)=  0.00000088
 Iteration  2 RMS(Cart)=  0.00000014 RMS(Int)=  0.00000087
 Variable       Old X    -DE/DX   Delta X   Delta X   Delta X     New X
                                 (Linear)    (Quad)   (Total)
    R1        2.88291  -0.00001   0.00005  -0.00006  -0.00001   2.88290
    R2        2.06810   0.00000  -0.00001   0.00000  -0.00000   2.06810
    R3        2.06723   0.00000   0.00000  -0.00000  -0.00000   2.06723
    R4        2.06521   0.00000   0.00000   0.00001   0.00001   2.06521
    R5        3.52610   0.00001  -0.00001   0.00006   0.00006   3.52616
    R6        2.91435  -0.00000  -0.00002   0.00002   0.00000   2.91435
    R7        2.07229  -0.00000  -0.00000   0.00000  -0.00000   2.07229
    R8        2.55089   0.00000  -0.00000  -0.00000  -0.00001   2.55089
    R9        2.31033  -0.00000   0.00001   0.00000   0.00001   2.31033
   R10        2.58869   0.00001  -0.00006   0.00004  -0.00002   2.58867
   R11        2.72899   0.00001  -0.00003   0.00004   0.00001   2.72901
   R12        1.91286   0.00001  -0.00002   0.00003   0.00001   1.91287
   R13        2.88206  -0.00000  -0.00002  -0.00001  -0.00002   2.88204
   R14        2.06781  -0.00000   0.00000   0.00000   0.00000   2.06781
   R15        2.06915  -0.00000   0.00001  -0.00001   0.00000   2.06915
   R16        2.28546  -0.00001   0.00001  -0.00001  -0.00000   2.28546
   R17        2.55342  -0.00000   0.00001  -0.00001  -0.00001   2.55341
   R18        1.84442   0.00000   0.00001  -0.00001   0.00000   1.84442
    A1        1.92793  -0.00000  -0.00001   0.00000  -0.00001   1.92792
    A2        1.91672  -0.00000  -0.00001   0.00000  -0.00001   1.91671
    A3        1.93371   0.00000  -0.00000   0.00000   0.00000   1.93371
    A4        1.90120   0.00000   0.00001   0.00001   0.00002   1.90122
    A5        1.89714  -0.00000   0.00000  -0.00003  -0.00003   1.89712
    A6        1.88631   0.00000   0.00000   0.00001   0.00001   1.88633
    A7        1.96687   0.00000  -0.00002  -0.00000  -0.00002   1.96685
    A8        1.94357   0.00000  -0.00001   0.00002   0.00001   1.94358
    A9        1.92294   0.00000  -0.00003   0.00005   0.00002   1.92296
   A10        1.91263  -0.00000   0.00007   0.00002   0.00009   1.91272
   A11        1.85260  -0.00000   0.00000  -0.00006  -0.00006   1.85254
   A12        1.86007  -0.00000  -0.00001  -0.00003  -0.00004   1.86003
   A13        1.67222  -0.00000   0.00003  -0.00003  -0.00000   1.67222
   A14        2.11753  -0.00000   0.00001  -0.00007  -0.00006   2.11747
   A15        2.01705  -0.00000  -0.00001   0.00006   0.00005   2.01710
   A16        2.14634   0.00000   0.00001   0.00000   0.00001   2.14635
   A17        2.11142   0.00000   0.00005   0.00001   0.00007   2.11148
   A18        2.05615  -0.00000   0.00008  -0.00003   0.00005   2.05621
   A19        2.06815   0.00000   0.00007   0.00001   0.00008   2.06823
   A20        2.02562  -0.00000  -0.00006   0.00001  -0.00005   2.02558
   A21        1.87275   0.00000   0.00002  -0.00005  -0.00003   1.87273
   A22        1.93971  -0.00000   0.00002   0.00003   0.00005   1.93976
   A23        1.87230  -0.00000   0.00005  -0.00001   0.00003   1.87234
   A24        1.86987   0.00000   0.00002  -0.00003  -0.00002   1.86985
   A25        1.87768   0.00000  -0.00005   0.00005   0.00000   1.87768
   A26        2.15203  -0.00000  -0.00000  -0.00001  -0.00001   2.15202
   A27        1.97432   0.00000   0.00001  -0.00001   0.00000   1.97432
   A28        2.15682   0.00000  -0.00001   0.00001   0.00001   2.15683
   A29        1.85233   0.00000  -0.00000   0.00000   0.00000   1.85233
    D1        1.04804  -0.00000   0.00004   0.00003   0.00007   1.04812
    D2       -3.07759  -0.00000   0.00012   0.00007   0.00019  -3.07740
    D3       -1.01748   0.00000   0.00007   0.00008   0.00015  -1.01733
    D4       -3.13780  -0.00000   0.00005   0.00005   0.00010  -3.13770
    D5       -0.98024  -0.00000   0.00012   0.00009   0.00021  -0.98003
    D6        1.07987   0.00000   0.00008   0.00010   0.00017   1.08004
    D7       -1.05527   0.00000   0.00005   0.00006   0.00011  -1.05516
    D8        1.10228  -0.00000   0.00012   0.00010   0.00022   1.10251
    D9       -3.12079   0.00000   0.00008   0.00011   0.00019  -3.12060
   D10       -1.25980  -0.00000  -0.00059   0.00006  -0.00053  -1.26033
   D11        2.84877  -0.00000  -0.00062   0.00003  -0.00059   2.84818
   D12        0.84649   0.00000  -0.00064   0.00008  -0.00056   0.84593
   D13        0.18630   0.00000   0.00075  -0.00001   0.00074   0.18705
   D14       -3.02558   0.00000   0.00083  -0.00005   0.00078  -3.02480
   D15        2.37439   0.00000   0.00077   0.00002   0.00079   2.37518
   D16       -0.83750   0.00000   0.00086  -0.00003   0.00083  -0.83667
   D17       -1.91132  -0.00000   0.00080  -0.00006   0.00075  -1.91057
   D18        1.15998  -0.00000   0.00088  -0.00010   0.00078   1.16076
   D19        3.06021   0.00000   0.00027   0.00003   0.00030   3.06052
   D20        0.24961  -0.00000  -0.00045   0.00006  -0.00039   0.24922
   D21       -0.15296   0.00000   0.00035  -0.00001   0.00034  -0.15262
   D22       -2.96357  -0.00000  -0.00037   0.00002  -0.00035  -2.96392
   D23       -1.72940  -0.00000  -0.00096  -0.00009  -0.00105  -1.73046
   D24        0.36332  -0.00000  -0.00092  -0.00014  -0.00106   0.36226
   D25        2.41172  -0.00000  -0.00095  -0.00009  -0.00104   2.41068
   D26        1.07899  -0.00000  -0.00023  -0.00013  -0.00036   1.07863
   D27       -3.11147  -0.00000  -0.00019  -0.00018  -0.00037  -3.11184
   D28       -1.06307   0.00000  -0.00023  -0.00012  -0.00035  -1.06342
   D29       -2.97854   0.00000   0.00039  -0.00007   0.00032  -2.97821
   D30        0.16904  -0.00000   0.00037  -0.00009   0.00029   0.16933
   D31        1.21168   0.00000   0.00037  -0.00001   0.00036   1.21204
   D32       -1.92392  -0.00000   0.00035  -0.00002   0.00032  -1.92360
   D33       -0.80022   0.00000   0.00039  -0.00005   0.00035  -0.79987
   D34        2.34736  -0.00000   0.00037  -0.00006   0.00031   2.34767
   D35        3.11745   0.00000   0.00007  -0.00003   0.00005   3.11750
   D36       -0.01814  -0.00000   0.00006  -0.00005   0.00001  -0.01813
         Item               Value     Threshold  Converged?
 Maximum Force            0.000012     0.000450     YES
 RMS     Force            0.000003     0.000300     YES
 Maximum Displacement     0.001715     0.001800     YES
 RMS     Displacement     0.000464     0.001200     YES
 Predicted change in Energy=-7.194619D-09
 Optimization completed.
    -- Stationary point found.
                           ----------------------------
                           !   Optimized Parameters   !
                           ! (Angstroms and Degrees)  !
 --------------------------                            --------------------------
 ! Name  Definition              Value          Derivative Info.                !
 --------------------------------------------------------------------------------
 ! R1    R(1,2)                  1.5256         -DE/DX =    0.0                 !
 ! R2    R(1,11)                 1.0944         -DE/DX =    0.0                 !
 ! R3    R(1,12)                 1.0939         -DE/DX =    0.0                 !
 ! R4    R(1,13)                 1.0929         -DE/DX =    0.0                 !
 ! R5    R(2,3)                  1.8659         -DE/DX =    0.0                 !
 ! R6    R(2,4)                  1.5422         -DE/DX =    0.0                 !
 ! R7    R(2,14)                 1.0966         -DE/DX =    0.0                 !
 ! R8    R(3,15)                 1.3499         -DE/DX =    0.0                 !
 ! R9    R(4,5)                  1.2226         -DE/DX =    0.0                 !
 ! R10   R(4,6)                  1.3699         -DE/DX =    0.0                 !
 ! R11   R(6,7)                  1.4441         -DE/DX =    0.0                 !
 ! R12   R(6,16)                 1.0122         -DE/DX =    0.0                 !
 ! R13   R(7,8)                  1.5251         -DE/DX =    0.0                 !
 ! R14   R(7,17)                 1.0942         -DE/DX =    0.0                 !
 ! R15   R(7,18)                 1.0949         -DE/DX =    0.0                 !
 ! R16   R(8,9)                  1.2094         -DE/DX =    0.0                 !
 ! R17   R(8,10)                 1.3512         -DE/DX =    0.0                 !
 ! R18   R(10,19)                0.976          -DE/DX =    0.0                 !
 ! A1    A(2,1,11)             110.462          -DE/DX =    0.0                 !
 ! A2    A(2,1,12)             109.8197         -DE/DX =    0.0                 !
 ! A3    A(2,1,13)             110.7933         -DE/DX =    0.0                 !
 ! A4    A(11,1,12)            108.9305         -DE/DX =    0.0                 !
 ! A5    A(11,1,13)            108.6983         -DE/DX =    0.0                 !
 ! A6    A(12,1,13)            108.0778         -DE/DX =    0.0                 !
 ! A7    A(1,2,3)              112.6932         -DE/DX =    0.0                 !
 ! A8    A(1,2,4)              111.3585         -DE/DX =    0.0                 !
 ! A9    A(1,2,14)             110.1763         -DE/DX =    0.0                 !
 ! A10   A(3,2,4)              109.5854         -DE/DX =    0.0                 !
 ! A11   A(3,2,14)             106.1461         -DE/DX =    0.0                 !
 ! A12   A(4,2,14)             106.5744         -DE/DX =    0.0                 !
 ! A13   A(2,3,15)              95.8111         -DE/DX =    0.0                 !
 ! A14   A(2,4,5)              121.3254         -DE/DX =    0.0                 !
 ! A15   A(2,4,6)              115.5683         -DE/DX =    0.0                 !
 ! A16   A(5,4,6)              122.9762         -DE/DX =    0.0                 !
 ! A17   A(4,6,7)              120.9753         -DE/DX =    0.0                 !
 ! A18   A(4,6,16)             117.809          -DE/DX =    0.0                 !
 ! A19   A(7,6,16)             118.4961         -DE/DX =    0.0                 !
 ! A20   A(6,7,8)              116.0598         -DE/DX =    0.0                 !
 ! A21   A(6,7,17)             107.3009         -DE/DX =    0.0                 !
 ! A22   A(6,7,18)             111.1373         -DE/DX =    0.0                 !
 ! A23   A(8,7,17)             107.2749         -DE/DX =    0.0                 !
 ! A24   A(8,7,18)             107.1355         -DE/DX =    0.0                 !
 ! A25   A(17,7,18)            107.5832         -DE/DX =    0.0                 !
 ! A26   A(7,8,9)              123.3021         -DE/DX =    0.0                 !
 ! A27   A(7,8,10)             113.1202         -DE/DX =    0.0                 !
 ! A28   A(9,8,10)             123.5767         -DE/DX =    0.0                 !
 ! A29   A(8,10,19)            106.1308         -DE/DX =    0.0                 !
 ! D1    D(11,1,2,3)            60.0485         -DE/DX =    0.0                 !
 ! D2    D(11,1,2,4)          -176.3328         -DE/DX =    0.0                 !
 ! D3    D(11,1,2,14)          -58.2972         -DE/DX =    0.0                 !
 ! D4    D(12,1,2,3)          -179.7825         -DE/DX =    0.0                 !
 ! D5    D(12,1,2,4)           -56.1637         -DE/DX =    0.0                 !
 ! D6    D(12,1,2,14)           61.8719         -DE/DX =    0.0                 !
 ! D7    D(13,1,2,3)           -60.4625         -DE/DX =    0.0                 !
 ! D8    D(13,1,2,4)            63.1563         -DE/DX =    0.0                 !
 ! D9    D(13,1,2,14)         -178.8081         -DE/DX =    0.0                 !
 ! D10   D(1,2,3,15)           -72.1812         -DE/DX =    0.0                 !
 ! D11   D(4,2,3,15)           163.2226         -DE/DX =    0.0                 !
 ! D12   D(14,2,3,15)           48.5005         -DE/DX =    0.0                 !
 ! D13   D(1,2,4,5)             10.6743         -DE/DX =    0.0                 !
 ! D14   D(1,2,4,6)           -173.3532         -DE/DX =    0.0                 !
 ! D15   D(3,2,4,5)            136.0423         -DE/DX =    0.0                 !
 ! D16   D(3,2,4,6)            -47.9853         -DE/DX =    0.0                 !
 ! D17   D(14,2,4,5)          -109.5105         -DE/DX =    0.0                 !
 ! D18   D(14,2,4,6)            66.462          -DE/DX =    0.0                 !
 ! D19   D(2,4,6,7)            175.3372         -DE/DX =    0.0                 !
 ! D20   D(2,4,6,16)            14.3014         -DE/DX =    0.0                 !
 ! D21   D(5,4,6,7)             -8.764          -DE/DX =    0.0                 !
 ! D22   D(5,4,6,16)          -169.7999         -DE/DX =    0.0                 !
 ! D23   D(4,6,7,8)            -99.0875         -DE/DX =    0.0                 !
 ! D24   D(4,6,7,17)            20.8166         -DE/DX =    0.0                 !
 ! D25   D(4,6,7,18)           138.1813         -DE/DX =    0.0                 !
 ! D26   D(16,6,7,8)            61.8216         -DE/DX =    0.0                 !
 ! D27   D(16,6,7,17)         -178.2743         -DE/DX =    0.0                 !
 ! D28   D(16,6,7,18)          -60.9096         -DE/DX =    0.0                 !
 ! D29   D(6,7,8,9)           -170.6576         -DE/DX =    0.0                 !
 ! D30   D(6,7,8,10)             9.6854         -DE/DX =    0.0                 !
 ! D31   D(17,7,8,9)            69.4243         -DE/DX =    0.0                 !
 ! D32   D(17,7,8,10)         -110.2327         -DE/DX =    0.0                 !
 ! D33   D(18,7,8,9)           -45.8491         -DE/DX =    0.0                 !
 ! D34   D(18,7,8,10)          134.4938         -DE/DX =    0.0                 !
 ! D35   D(7,8,10,19)          178.6167         -DE/DX =    0.0                 !
 ! D36   D(9,8,10,19)           -1.0392         -DE/DX =    0.0                 !
 --------------------------------------------------------------------------------
 Lowest energy point so far.  Saving SCF results.
 Largest change from initial coordinates is atom    9       0.899 Angstoms.
 GradGradGradGradGradGradGradGradGradGradGradGradGradGradGradGradGradGrad

 Leave Link  103 at Fri Mar 14 15:17:22 2025, MaxMem=  8589934592 cpu:               1.0 elap:               0.3
 (Enter /home/enzo/gaussian_versions/gdv.j21/gdv/l202.exe)
                          Input orientation:                          
 ---------------------------------------------------------------------
 Center     Atomic      Atomic             Coordinates (Angstroms)
 Number     Number       Type             X           Y           Z
 ---------------------------------------------------------------------
      1          6           0        3.011103    1.135910    0.483733
      2          6           0        2.037735    0.221129   -0.253214
      3         16           0        1.873737   -1.453911    0.552425
      4          6           0        0.645129    0.870875   -0.383118
      5          8           0        0.464623    2.047969   -0.106444
      6          7           0       -0.335208    0.068720   -0.904690
      7          6           0       -1.703311    0.523973   -0.985466
      8          6           0       -2.636675    0.040459    0.119540
      9          8           0       -3.834872    0.202953    0.095056
     10          8           0       -1.987136   -0.579824    1.129055
     11          1           0        4.009907    0.689417    0.510736
     12          1           0        3.068287    2.102979   -0.024400
     13          1           0        2.677786    1.311076    1.509676
     14          1           0        2.392595    0.035123   -1.274010
     15          1           0        3.090549   -1.904367    0.180106
     16          1           0       -0.153159   -0.925591   -0.957956
     17          1           0       -1.685680    1.617152   -0.940716
     18          1           0       -2.158480    0.239286   -1.939764
     19          1           0       -2.670537   -0.823886    1.781760
 ---------------------------------------------------------------------
                    Distance matrix (angstroms):
                    1          2          3          4          5
     1  C    0.000000
     2  C    1.525569   0.000000
     3  S    2.829399   1.865934   0.000000
     4  C    2.533674   1.542205   2.790941   0.000000
     5  O    2.768523   2.415278   3.831824   1.222571   0.000000
     6  N    3.776826   2.465464   3.053036   1.369873   2.279112
     7  C    4.975813   3.824047   4.367196   2.449150   2.791986
     8  C    5.764551   4.692728   4.771199   3.422352   3.701245
     9  O    6.920177   5.882953   5.961761   4.554688   4.682984
    10  O    5.323775   4.330333   4.000359   3.364523   3.800379
    11  H    1.094393   2.166189   3.026354   3.486206   3.846507
    12  H    1.093933   2.157719   3.796201   2.741979   2.605537
    13  H    1.092860   2.169200   3.034465   2.812141   2.837771
    14  H    2.164242   1.096608   2.412945   2.132090   3.021893
    15  H    3.056434   2.411206   1.349875   3.741560   4.753794
    16  H    4.042376   2.571312   2.582378   2.048169   3.154170
    17  H    4.931574   4.035513   4.932580   2.510083   2.346363
    18  H    5.779434   4.522500   5.033557   3.268375   3.676012
    19  H    6.148715   5.234596   4.749591   4.307267   4.652106
                    6          7          8          9         10
     6  N    0.000000
     7  C    1.444120   0.000000
     8  C    2.519244   1.525120   0.000000
     9  O    3.642136   2.411251   1.209413   0.000000
    10  O    2.699183   2.402108   1.351211   2.257437   0.000000
    11  H    4.611803   5.908202   6.689636   7.870832   6.160992
    12  H    4.061638   5.117134   6.068056   7.160864   5.838253
    13  H    4.055951   5.102869   5.638301   6.756019   5.047957
    14  H    2.752897   4.135055   5.218771   6.378390   5.033381
    15  H    4.099472   5.498771   6.048728   7.239439   5.332710
    16  H    1.012242   2.122490   2.874387   3.992175   2.799758
    17  H    2.054924   1.094237   2.124734   2.773410   3.033403
    18  H    2.103519   1.094947   2.123425   2.636683   3.180872
    19  H    3.669811   3.226420   1.873823   2.292388   0.976026
                   11         12         13         14         15
    11  H    0.000000
    12  H    1.780780   0.000000
    13  H    1.777326   1.770025   0.000000
    14  H    2.495820   2.508807   3.075434   0.000000
    15  H    2.771687   4.012622   3.503884   2.522541   0.000000
    16  H    4.700683   4.519013   4.371056   2.739293   3.574189
    17  H    5.950388   4.865785   5.013774   4.387053   6.039015
    18  H    6.652561   5.870355   6.036293   4.604042   6.053214
    19  H    6.966629   6.690504   5.765123   5.975862   6.076416
                   16         17         18         19
    16  H    0.000000
    17  H    2.968916   0.000000
    18  H    2.518372   1.766395   0.000000
    19  H    3.722040   3.786883   3.904135   0.000000
 Stoichiometry    C5H9NO3S
 Framework group  C1[X(C5H9NO3S)]
 Deg. of freedom    51
 Full point group                 C1      NOp   1
 RotChk:  IX=2 Diff= 2.24D-15
 Largest Abelian subgroup         C1      NOp   1
 Largest concise Abelian subgroup C1      NOp   1
                         Standard orientation:                         
 ---------------------------------------------------------------------
 Center     Atomic      Atomic             Coordinates (Angstroms)
 Number     Number       Type             X           Y           Z
 ---------------------------------------------------------------------
      1          6           0       -2.983436   -0.925786    0.665338
      2          6           0       -2.003592   -0.277275   -0.307647
      3         16           0       -1.912921    1.575928   -0.109852
      4          6           0       -0.591528   -0.881663   -0.169127
      5          8           0       -0.393839   -1.889759    0.493702
      6          7           0        0.389317   -0.266460   -0.901261
      7          6           0        1.770205   -0.672190   -0.782866
      8          6           0        2.646205    0.188425    0.121543
      9          8           0        3.848002    0.070936    0.189066
     10          8           0        1.941596    1.087957    0.842750
     11          1           0       -3.993052   -0.532925    0.510318
     12          1           0       -2.996591   -2.008811    0.511798
     13          1           0       -2.687649   -0.733478    1.699683
     14          1           0       -2.321369   -0.458436   -1.341449
     15          1           0       -3.124282    1.830291   -0.648432
     16          1           0        0.185502    0.644697   -1.292267
     17          1           0        1.777303   -1.686528   -0.372474
     18          1           0        2.256481   -0.708608   -1.763233
     19          1           0        2.591974    1.562027    1.394921
 ---------------------------------------------------------------------
 Rotational constants (GHZ):           2.0050665           0.6189901           0.5266749
 Leave Link  202 at Fri Mar 14 15:17:22 2025, MaxMem=  8589934592 cpu:               0.7 elap:               0.3
 (Enter /home/enzo/gaussian_versions/gdv.j21/gdv/l601.exe)
 Copying SCF densities to generalized density rwf, IOpCl= 0 IROHF=0.

 **********************************************************************

            Population analysis using the SCF Density.

 **********************************************************************

 Orbital symmetries:
       Occupied  (A) (A) (A) (A) (A) (A) (A) (A) (A) (A) (A) (A)
                 (A) (A) (A) (A) (A) (A) (A) (A) (A) (A) (A) (A)
                 (A) (A) (A) (A) (A) (A) (A) (A) (A) (A) (A) (A)
                 (A) (A) (A) (A) (A) (A) (A)
       Virtual   (A) (A) (A) (A) (A) (A) (A) (A) (A) (A) (A) (A)
                 (A) (A) (A) (A) (A) (A) (A) (A) (A) (A) (A) (A)
                 (A) (A) (A) (A) (A) (A) (A) (A) (A) (A) (A) (A)
                 (A) (A) (A) (A) (A) (A) (A) (A) (A) (A) (A) (A)
                 (A) (A) (A) (A) (A) (A) (A) (A) (A) (A) (A) (A)
                 (A) (A) (A) (A) (A) (A) (A) (A) (A) (A) (A) (A)
                 (A) (A) (A) (A) (A) (A) (A) (A) (A) (A) (A) (A)
                 (A) (A) (A) (A) (A) (A) (A) (A) (A) (A) (A) (A)
                 (A) (A) (A) (A) (A) (A) (A) (A) (A) (A) (A) (A)
                 (A) (A) (A) (A) (A) (A) (A) (A) (A) (A) (A) (A)
                 (A) (A) (A) (A) (A) (A) (A) (A) (A)
 The electronic state is 1-A.
 Alpha  occ. eigenvalues --      -88.88898     -19.20786     -19.14606     -19.12660     -14.37213
 Alpha  occ. eigenvalues --      -10.33032     -10.30131     -10.24439     -10.24428     -10.18625
 Alpha  occ. eigenvalues --       -7.95223      -5.91718      -5.91363      -5.90656      -1.11517
 Alpha  occ. eigenvalues --       -1.04636      -1.02408      -0.93609      -0.82097      -0.75226
 Alpha  occ. eigenvalues --       -0.71533      -0.65093      -0.62243      -0.58858      -0.53495
 Alpha  occ. eigenvalues --       -0.49801      -0.49162      -0.47684      -0.46488      -0.45944
 Alpha  occ. eigenvalues --       -0.42646      -0.41020      -0.40688      -0.39864      -0.39071
 Alpha  occ. eigenvalues --       -0.38245      -0.37438      -0.33266      -0.32514      -0.29903
 Alpha  occ. eigenvalues --       -0.26549      -0.25992      -0.25306
 Alpha virt. eigenvalues --       -0.00189       0.00351       0.00953       0.06571       0.07452
 Alpha virt. eigenvalues --        0.09762       0.12179       0.12918       0.14156       0.14800
 Alpha virt. eigenvalues --        0.16970       0.17725       0.18561       0.20393       0.22553
 Alpha virt. eigenvalues --        0.24915       0.28981       0.30653       0.33491       0.35050
 Alpha virt. eigenvalues --        0.37341       0.38128       0.38263       0.42137       0.49557
 Alpha virt. eigenvalues --        0.51663       0.53268       0.53769       0.53997       0.57927
 Alpha virt. eigenvalues --        0.58677       0.61181       0.61566       0.64744       0.66635
 Alpha virt. eigenvalues --        0.68236       0.68939       0.71517       0.73141       0.75251
 Alpha virt. eigenvalues --        0.75558       0.76702       0.78710       0.81752       0.83719
 Alpha virt. eigenvalues --        0.84270       0.84901       0.86171       0.87234       0.88731
 Alpha virt. eigenvalues --        0.90216       0.90445       0.92240       0.93737       0.95233
 Alpha virt. eigenvalues --        0.95759       0.97571       0.99615       1.02095       1.03835
 Alpha virt. eigenvalues --        1.06897       1.07739       1.08561       1.10627       1.13409
 Alpha virt. eigenvalues --        1.19075       1.23346       1.32472       1.37042       1.37924
 Alpha virt. eigenvalues --        1.39732       1.41365       1.44848       1.48528       1.52679
 Alpha virt. eigenvalues --        1.57137       1.61791       1.66279       1.72443       1.73279
 Alpha virt. eigenvalues --        1.75513       1.75983       1.78499       1.80509       1.81088
 Alpha virt. eigenvalues --        1.82431       1.85779       1.86162       1.91060       1.91799
 Alpha virt. eigenvalues --        1.93649       1.96564       1.99668       2.01982       2.04761
 Alpha virt. eigenvalues --        2.09025       2.11042       2.18862       2.23182       2.28008
 Alpha virt. eigenvalues --        2.30726       2.32218       2.32446       2.37155       2.39815
 Alpha virt. eigenvalues --        2.44495       2.47216       2.52677       2.61243       2.63202
 Alpha virt. eigenvalues --        2.64633       2.70313       2.72238       2.82663       2.90595
 Alpha virt. eigenvalues --        2.96610       2.99487       3.09257       3.12550       3.76892
 Alpha virt. eigenvalues --        3.89474       4.01832       4.05812       4.13274       4.14867
 Alpha virt. eigenvalues --        4.19902       4.39039       4.50758       4.54058
          Condensed to atoms (all electrons):
               1          2          3          4          5          6
     1  C    5.096888   0.332526  -0.059838  -0.031216   0.004098   0.004807
     2  C    0.332526   5.444391   0.238828   0.296951  -0.089761  -0.131078
     3  S   -0.059838   0.238828  15.719323  -0.047994   0.001547   0.003521
     4  C   -0.031216   0.296951  -0.047994   4.357268   0.599718   0.272630
     5  O    0.004098  -0.089761   0.001547   0.599718   8.051929  -0.097364
     6  N    0.004807  -0.131078   0.003521   0.272630  -0.097364   7.134561
     7  C   -0.000089   0.006923  -0.000016  -0.024055  -0.004169   0.210876
     8  C    0.000004  -0.000058   0.000063  -0.001867   0.000004  -0.037296
     9  O   -0.000000   0.000000   0.000004   0.000016  -0.000002   0.002493
    10  O    0.000003  -0.000148   0.001931   0.003862  -0.000236   0.000530
    11  H    0.365326  -0.032942  -0.002794   0.004877   0.000604  -0.000049
    12  H    0.363165  -0.026295   0.005887  -0.003824   0.005892   0.000162
    13  H    0.385241  -0.036062   0.000732  -0.003892   0.001684   0.000118
    14  H   -0.040559   0.357515  -0.042783  -0.027062  -0.000056   0.000394
    15  H   -0.002215  -0.011004   0.243263   0.002299  -0.000028   0.000029
    16  H    0.000222  -0.001055   0.016563  -0.020078   0.003178   0.299007
    17  H   -0.000028   0.001276  -0.000108  -0.000491   0.022741  -0.040146
    18  H    0.000000  -0.000131   0.000004   0.003154   0.000459  -0.036526
    19  H    0.000000   0.000001  -0.000043  -0.000131   0.000007  -0.000604
               7          8          9         10         11         12
     1  C   -0.000089   0.000004  -0.000000   0.000003   0.365326   0.363165
     2  C    0.006923  -0.000058   0.000000  -0.000148  -0.032942  -0.026295
     3  S   -0.000016   0.000063   0.000004   0.001931  -0.002794   0.005887
     4  C   -0.024055  -0.001867   0.000016   0.003862   0.004877  -0.003824
     5  O   -0.004169   0.000004  -0.000002  -0.000236   0.000604   0.005892
     6  N    0.210876  -0.037296   0.002493   0.000530  -0.000049   0.000162
     7  C    5.178076   0.326486  -0.071050  -0.100624   0.000001  -0.000006
     8  C    0.326486   4.344995   0.563645   0.300308   0.000000  -0.000000
     9  O   -0.071050   0.563645   8.027645  -0.081385   0.000000   0.000000
    10  O   -0.100624   0.300308  -0.081385   8.203482   0.000000   0.000000
    11  H    0.000001   0.000000   0.000000   0.000000   0.584083  -0.029057
    12  H   -0.000006  -0.000000   0.000000   0.000000  -0.029057   0.536035
    13  H   -0.000005  -0.000000   0.000000  -0.000001  -0.029265  -0.025073
    14  H   -0.000271  -0.000005   0.000000  -0.000001  -0.002924  -0.001815
    15  H    0.000000  -0.000000   0.000000   0.000003   0.001667  -0.000021
    16  H   -0.029757  -0.000129  -0.000019   0.001745  -0.000010  -0.000039
    17  H    0.358505  -0.024937   0.000563   0.000833  -0.000000  -0.000002
    18  H    0.370270  -0.039660   0.002404   0.002141  -0.000000   0.000000
    19  H    0.011522  -0.008096   0.009605   0.220039  -0.000000  -0.000000
              13         14         15         16         17         18
     1  C    0.385241  -0.040559  -0.002215   0.000222  -0.000028   0.000000
     2  C   -0.036062   0.357515  -0.011004  -0.001055   0.001276  -0.000131
     3  S    0.000732  -0.042783   0.243263   0.016563  -0.000108   0.000004
     4  C   -0.003892  -0.027062   0.002299  -0.020078  -0.000491   0.003154
     5  O    0.001684  -0.000056  -0.000028   0.003178   0.022741   0.000459
     6  N    0.000118   0.000394   0.000029   0.299007  -0.040146  -0.036526
     7  C   -0.000005  -0.000271   0.000000  -0.029757   0.358505   0.370270
     8  C   -0.000000  -0.000005  -0.000000  -0.000129  -0.024937  -0.039660
     9  O    0.000000   0.000000   0.000000  -0.000019   0.000563   0.002404
    10  O   -0.000001  -0.000001   0.000003   0.001745   0.000833   0.002141
    11  H   -0.029265  -0.002924   0.001667  -0.000010  -0.000000  -0.000000
    12  H   -0.025073  -0.001815  -0.000021  -0.000039  -0.000002   0.000000
    13  H    0.524963   0.004726  -0.000328  -0.000002  -0.000002   0.000000
    14  H    0.004726   0.563073  -0.005930  -0.000021  -0.000034   0.000014
    15  H   -0.000328  -0.005930   0.673597  -0.000228   0.000000   0.000000
    16  H   -0.000002  -0.000021  -0.000228   0.377597   0.003877  -0.001512
    17  H   -0.000002  -0.000034   0.000000   0.003877   0.465690  -0.018373
    18  H    0.000000   0.000014   0.000000  -0.001512  -0.018373   0.526962
    19  H    0.000000  -0.000000  -0.000000  -0.000053  -0.000224  -0.000262
              19
     1  C    0.000000
     2  C    0.000001
     3  S   -0.000043
     4  C   -0.000131
     5  O    0.000007
     6  N   -0.000604
     7  C    0.011522
     8  C   -0.008096
     9  O    0.009605
    10  O    0.220039
    11  H   -0.000000
    12  H   -0.000000
    13  H    0.000000
    14  H   -0.000000
    15  H   -0.000000
    16  H   -0.000053
    17  H   -0.000224
    18  H   -0.000262
    19  H    0.352885
 Mulliken charges:
               1
     1  C   -0.418333
     2  C   -0.349878
     3  S   -0.078092
     4  C    0.619832
     5  O   -0.500246
     6  N   -0.586067
     7  C   -0.232617
     8  C    0.576544
     9  O   -0.453919
    10  O   -0.552483
    11  H    0.140482
    12  H    0.174991
    13  H    0.177167
    14  H    0.195739
    15  H    0.098895
    16  H    0.350715
    17  H    0.230859
    18  H    0.191056
    19  H    0.415353
 Sum of Mulliken charges =  -0.00000
 Mulliken charges with hydrogens summed into heavy atoms:
               1
     1  C    0.074307
     2  C   -0.154139
     3  S    0.020804
     4  C    0.619832
     5  O   -0.500246
     6  N   -0.235352
     7  C    0.189299
     8  C    0.576544
     9  O   -0.453919
    10  O   -0.137130
 Electronic spatial extent (au):  <R**2>=           2117.9932
 Charge=              0.0000 electrons
 Dipole moment (field-independent basis, Debye):
    X=             -2.1184    Y=              1.9406    Z=             -1.9343  Tot=              3.4634
 Quadrupole moment (field-independent basis, Debye-Ang):
   XX=            -67.7701   YY=            -68.4622   ZZ=            -62.3714
   XY=              2.2458   XZ=              3.5418   YZ=              2.7441
 Traceless Quadrupole moment (field-independent basis, Debye-Ang):
   XX=             -1.5688   YY=             -2.2610   ZZ=              3.8298
   XY=              2.2458   XZ=              3.5418   YZ=              2.7441
 Octapole moment (field-independent basis, Debye-Ang**2):
  XXX=            -63.8725  YYY=             13.4625  ZZZ=              5.8211  XYY=             15.7247
  XXY=             11.7839  XXZ=             -2.5078  XZZ=             16.4794  YZZ=              4.0922
  YYZ=             -0.7764  XYZ=              9.6634
 Hexadecapole moment (field-independent basis, Debye-Ang**3):
 XXXX=          -2147.7029 YYYY=           -542.6725 ZZZZ=           -196.5902 XXXY=             17.7172
 XXXZ=             40.7471 YYYX=             11.8028 YYYZ=             16.3545 ZZZX=             18.1416
 ZZZY=              8.0240 XXYY=           -363.8515 XXZZ=           -326.8207 YYZZ=           -121.7005
 XXYZ=             10.4324 YYXZ=             24.1761 ZZXY=             18.8677
 N-N= 6.264603157309D+02 E-N=-3.312741901563D+03  KE= 8.690015601802D+02
 No NMR shielding tensors so no spin-rotation constants.
 Leave Link  601 at Fri Mar 14 15:17:23 2025, MaxMem=  8589934592 cpu:               3.1 elap:               0.5
 (Enter /home/enzo/gaussian_versions/gdv.j21/gdv/l9999.exe)
 Unable to Open any file for archive entry.
 1\1\GINC-ORACLE\FOpt\RB3LYP\6-31G(d)\C5H9N1O3S1\ENZO\14-Mar-2025\0\\#p
  B3LYP/6-31G* OPT OUTPUT=PICKETT\\individuo_2543\\0,1\C,3.0111029232,1
 .1359101813,0.4837329067\C,2.037735341,0.2211287805,-0.253213645\S,1.8
 737366694,-1.4539113691,0.5524248052\C,0.6451294126,0.8708752951,-0.38
 31179256\O,0.4646233141,2.0479691412,-0.1064440779\N,-0.3352084875,0.0
 687200569,-0.9046895816\C,-1.7033108826,0.5239726498,-0.985466128\C,-2
 .6366747939,0.0404588257,0.1195399575\O,-3.834871571,0.2029533926,0.09
 50561493\O,-1.9871361368,-0.5798244702,1.1290545888\H,4.0099071579,0.6
 894166207,0.5107359277\H,3.0682872507,2.1029785415,-0.0243999277\H,2.6
 777855023,1.3110759692,1.5096756827\H,2.3925953315,0.0351230546,-1.274
 0099033\H,3.0905485864,-1.9043672614,0.1801062066\H,-0.1531586949,-0.9
 255912149,-0.9579563198\H,-1.685680066,1.6171519704,-0.9407159106\H,-2
 .1584803312,0.2392859074,-1.9397635053\H,-2.6705365252,-0.8238860713,1
 .7817597003\\Version=ES64L-GDVRevJ.21\State=1-A\HF=-874.5835358\RMSD=7
 .270e-09\RMSF=6.377e-06\Dipole=0.8273998,-0.9954433,-0.4256441\Quadrup
 ole=-0.8806244,-2.4938304,3.3744547,0.6529122,-3.2268088,-0.0367196\PG
 =C01 [X(C5H9N1O3S1)]\\@
 The archive entry for this job was punched.
 DoSRE=F DoSRN=F DoDH=F DoFC=F DoNQ=T DoQCD=F DoSCD=F
 Inertia tensor (amu-bohr**2): 
                 1             2             3 
      1   0.905687D+03  0.655666D+02 -0.877126D+02
      2   0.655666D+02  0.297113D+04  0.164599D+03
      3  -0.877126D+02  0.164599D+03  0.336556D+04
 Principal inertia moments (amu-bohr**2):
 Iaa = 0.900090D+03 Ibb= 0.291562D+04 Icc= 0.342667D+04
 Rotation matrix to Principal Axis frame: 
                 1             2             3 
      1   0.998684D+00  0.453326D-01 -0.239950D-01
      2  -0.346245D-01  0.940986D+00  0.336670D+00
      3   0.378411D-01 -0.335396D+00  0.941317D+00
                Principal axis orientation:                
 ---------------------------------------------------------------------
 Center     Atomic                     Coordinates (Angstroms)
 Number     Number                        X           Y           Z
 ---------------------------------------------------------------------
      1          6                    3.021791    0.965651    0.674675
      2          6                    2.053492    0.307898   -0.303649
      3         16                    1.978193   -1.545933   -0.105290
      4          6                    0.635306    0.899739   -0.173764
      5          8                    0.424751    1.906390    0.487297
      6          7                   -0.335704    0.275415   -0.911267
      7          6                   -1.720825    0.668873   -0.801206
      8          6                   -2.594405   -0.199033    0.098566
      9          8                   -3.797577   -0.092234    0.158977
     10          8                   -1.886043   -1.091853    0.824422
     11          1                    4.035762    0.581728    0.525806
     12          1                    3.026187    2.048666    0.520572
     13          1                    2.721670    0.771271    1.707383
     14          1                    2.375697    0.491328   -1.335680
     15          1                    3.194911   -1.789770   -0.636612
     16          1                   -0.121482   -0.634100   -1.300532
     17          1                   -1.739375    1.683330   -0.391464
     18          1                   -2.201650    0.700421   -1.784426
     19          1                   -2.535394   -1.571407    1.373055
 ---------------------------------------------------------------------
 Rotational constants (MHZ):
   2005.0665205    618.9900903    526.6749122
 Nuclear quadrupole coupling constants [Chi] (MHz):
  6  N(14) 
   aa=     2.4066   ba=    -0.6085   ca=     0.9526
   ab=    -0.6085   bb=     0.1245   cb=     2.7640
   ac=     0.9526   bc=     2.7640   cc=    -2.5311
 Dipole moment (Debye):
      2.1469386     -1.9226537     -1.9206852  Tot=      3.4633762

 Atoms with significant hyperfine tensors:  N6-14

--------------------------------------------------------------------------------
 individuo_2543                                          
   99  1000  50  0.1760E-11  0.1000E+07  0.1000E+01 1.0000000000
a 3  1  0  0  0  1  1   1  0  1  0
     10000   0.20050665E+04    0.0000E+00   /  A  /
     20000   0.61899009E+03    0.0000E+00   /  B  /
     30000   0.52667491E+03    0.0000E+00   /  C  /
 110010000   0.36099687E+01    0.0000E+00   /  (6 N-14) 3/2*Chi_aa             /
 110040000   0.66389244E+00    0.0000E+00   /  (6 N-14) 1/4*(Chi_bb-Chi_cc)    /
 110610000  -0.60853166E+00    0.0000E+00   /  (6 N-14) Chi_ab                 /
 110410000   0.95262334E+00    0.0000E+00   /  (6 N-14) Chi_ac                 /
 110210000   0.27639926E+01    0.0000E+00   /  (6 N-14) Chi_bc                 /
--------------------------------------------------------------------------------



 IF GOD HAD MEANT MAN TO SEE THE SUN RISE, HE
 WOULD HAVE SCHEDULED IT FOR A LATER HOUR.
 Job cpu time:       0 days  0 hours 42 minutes 12.8 seconds.
 Elapsed time:       0 days  0 hours  6 minutes  1.1 seconds.
 File lengths (MBytes):  RWF=     26 Int=      0 D2E=      0 Chk=      4 Scr=      1
 Normal termination of Gaussian DV at Fri Mar 14 15:17:23 2025.
