%Nprocshared=12
%Mem=64GB
#p B3LYP/6-31G* OPT OUTPUT=PICKETT

individuo_9930

0 1
6 -2.924962 1.390351 0.359813
6 -1.941360 0.239401 0.533608
16 -2.658258 -1.294708 -0.129456
6 -0.644258 0.545016 -0.158135
8 -0.466863 1.678265 -0.677956
7 0.392016 -0.440734 -0.216428
6 1.666354 -0.164045 -0.871143
6 2.775096 -0.129840 0.128067
8 2.524556 0.091988 1.340081
8 4.086586 -0.316958 -0.287860
1 -3.866677 1.167250 0.902368
1 -2.495135 2.325172 0.776031
1 -3.159787 1.547299 -0.713723
1 -1.765568 0.090437 1.619521
1 -3.180684 -1.679910 1.117921
1 0.224808 -1.374336 0.221648
1 1.873386 -0.949580 -1.628107
1 1.611923 0.816708 -1.387879
1 4.856845 -0.206407 0.359089

