%Nprocshared=12
%Mem=64GB
#p B3LYP/6-31G* OPT OUTPUT=PICKETT

individuo_7955

0 1
6 2.909673 1.407642 -0.226046
6 1.912958 0.297294 -0.535962
16 2.637095 -1.319134 -0.123805
6 0.638496 0.503387 0.230624
8 0.484494 1.549706 0.914319
7 -0.402996 -0.477044 0.175752
6 -1.655980 -0.294266 0.900853
6 -2.792579 -0.111766 -0.049797
8 -3.848626 -0.778643 0.095091
8 -2.671144 0.776440 -1.110155
1 3.833788 1.262665 -0.822671
1 2.475084 2.394369 -0.489444
1 3.176289 1.406284 0.851530
1 1.705055 0.308160 -1.626355
1 1.482268 -1.749440 0.553298
1 -0.255351 -1.337670 -0.397838
1 -1.847107 -1.180724 1.541622
1 -1.579481 0.600877 1.552561
1 -3.322195 0.752120 -1.884496

