 Entering Gaussian System, Link 0=gdv
 Input=icluster_centers_population_40_gaussian/individuo_3673.gjf
 Output=icluster_centers_population_40_gaussian/individuo_3673.log
 Initial command:
 /home/enzo/gaussian_versions/gdv.j21/gdv/l1.exe "/local/home/enzo/scratch/Gau-2337710.inp" -scrdir="/local/home/enzo/scratch/"
 Entering Link 1 = /home/enzo/gaussian_versions/gdv.j21/gdv/l1.exe PID=   2337715.
  
 Copyright (c) 1988-2022, Gaussian, Inc.  All Rights Reserved.
  
 This is the private, development version of
 the Gaussian(R) DV system of programs. It is based on
 the Gaussian(R) 16 system (copyright 2016, Gaussian, Inc.),
 the Gaussian(R) 09 system (copyright 2009, Gaussian, Inc.),
 the Gaussian(R) 03 system (copyright 2003, Gaussian, Inc.),
 the Gaussian(R) 98 system (copyright 1998, Gaussian, Inc.),
 the Gaussian(R) 94 system (copyright 1995, Gaussian, Inc.),
 the Gaussian 92(TM) system (copyright 1992, Gaussian, Inc.),
 the Gaussian 90(TM) system (copyright 1990, Gaussian, Inc.),
 the Gaussian 88(TM) system (copyright 1988, Gaussian, Inc.),
 the Gaussian 86(TM) system (copyright 1986, Carnegie Mellon
 University), and the Gaussian 82(TM) system (copyright 1983,
 Carnegie Mellon University). Gaussian is a federally registered
 trademark of Gaussian, Inc.
  
 This software contains proprietary and confidential information,
 including trade secrets, belonging to Gaussian, Inc.
  
 This software is provided under written license and may be
 used, copied, transmitted, or stored only in accord with that
 written license.
  
 The following legend is applicable only to US Government
 contracts under FAR:
  
                    RESTRICTED RIGHTS LEGEND
  
 Use, reproduction and disclosure by the US Government is
 subject to restrictions as set forth in subparagraphs (a)
 and (c) of the Commercial Computer Software - Restricted
 Rights clause in FAR 52.227-19.
  
 Gaussian, Inc.
 340 Quinnipiac St., Bldg. 40, Wallingford CT 06492
  
  
 ---------------------------------------------------------------
 Warning -- This program may not be used in any manner that
 competes with the business of Gaussian, Inc. or will provide
 assistance to any competitor of Gaussian, Inc.  The licensee
 of this program is prohibited from giving any competitor of
 Gaussian, Inc. access to this program.  By using this program,
 the user acknowledges that Gaussian, Inc. is engaged in the
 business of creating and licensing software in the field of
 computational chemistry and represents and warrants to the
 licensee that it is not a competitor of Gaussian, Inc. and that
 it will not use this program in any manner prohibited above.
 ---------------------------------------------------------------
  

 Cite this work as:
 Gaussian Development Version, Revision J.21,
 M. J. Frisch, G. W. Trucks, H. B. Schlegel, G. E. Scuseria, 
 M. A. Robb, J. R. Cheeseman, G. Scalmani, V. Barone, 
 G. A. Petersson, H. Nakatsuji, X. Li, A. V. Marenich, M. Caricato, 
 J. Bloino, B. G. Janesko, J. Zheng, R. Gomperts, B. Mennucci, 
 H. P. Hratchian, J. V. Ortiz, A. F. Izmaylov, J. L. Sonnenberg, 
 D. Williams-Young, F. Ding, F. Lipparini, F. Egidi, J. Goings, 
 B. Peng, A. Petrone, T. Henderson, D. Ranasinghe, V. G. Zakrzewski, 
 J. Gao, N. Rega, G. Zheng, W. Liang, M. Hada, M. Ehara, K. Toyota, 
 R. Fukuda, J. Hasegawa, M. Ishida, T. Nakajima, Y. Honda, O. Kitao, 
 H. Nakai, T. Vreven, K. Throssell, J. A. Montgomery, Jr., 
 J. E. Peralta, F. Ogliaro, M. J. Bearpark, J. J. Heyd, 
 E. N. Brothers, K. N. Kudin, V. N. Staroverov, T. A. Keith, 
 R. Kobayashi, J. Normand, K. Raghavachari, A. P. Rendell, 
 J. C. Burant, S. S. Iyengar, J. Tomasi, M. Cossi, J. M. Millam, 
 M. Klene, C. Adamo, R. Cammi, J. W. Ochterski, R. L. Martin, 
 K. Morokuma, O. Farkas, J. B. Foresman, and D. J. Fox, 
 Gaussian, Inc., Wallingford CT, 2020.
 
 ******************************************
 Gaussian DV:  ES64L-GDVRevJ.21 25-Jul-2022
                14-Mar-2025 
 ******************************************
 %Nprocshared=12
 Will use up to   12 processors via shared memory.
 %Mem=64GB
 ----------------------------------
 #p B3LYP/6-31G* OPT OUTPUT=PICKETT
 ----------------------------------
 1/18=20,19=15,26=3,37=210000000,38=1/1,3;
 2/9=110,12=2/2;
 3/5=1,6=6,7=1,11=2,25=1,30=1,71=1,74=-5/1,2,3;
 4//1;
 5/5=2,38=5/2;
 6/7=2,8=2,9=2,10=2,28=1/1;
 7//1,2,3,16;
 1/18=20,19=15,26=3/3(2);
 2/9=110/2;
 99/10=1024/99;
 2/9=110/2;
 3/5=1,6=6,7=1,11=2,25=1,30=1,71=1,74=-5/1,2,3;
 4/5=5,16=3,69=1/1;
 5/5=2,38=5/2;
 7//1,2,3,16;
 1/18=20,19=15,26=3/3(-5);
 2/9=110/2;
 6/7=2,8=2,9=2,10=2,19=2,28=1/1;
 99/9=1,10=1024/99;
 Leave Link    1 at Fri Mar 14 15:11:16 2025, MaxMem=  8589934592 cpu:               0.2 elap:               0.0
 (Enter /home/enzo/gaussian_versions/gdv.j21/gdv/l101.exe)
 --------------
 individuo_3673
 --------------
 Symbolic Z-matrix:
 Charge =     0 Multiplicity =     1
 6                     2.46977   1.33783  -1.20606 
 6                     1.86552   0.04114  -0.68084 
 16                    3.12717  -0.91194   0.21747 
 6                     0.69804   0.32939   0.2182 
 8                     0.9013    0.71988   1.39809 
 7                    -0.64033   0.17437  -0.26523 
 6                    -1.79172   0.46062   0.58419 
 6                    -3.03705  -0.1136   -0.006 
 8                    -4.0755    0.58992  -0.09347 
 8                    -3.05408  -1.43452  -0.43367 
 1                     3.30987   1.11114  -1.8944 
 1                     1.70514   1.9151   -1.7664 
 1                     2.8512    1.96016  -0.36971 
 1                     1.53435  -0.56706  -1.54844 
 1                     3.23252   0.04676   1.24072 
 1                    -0.78706  -0.15005  -1.24742 
 1                    -1.62575   0.02785   1.59319 
 1                    -1.91131   1.55916   0.68798 
 1                    -2.20622  -1.88928  -0.74735 
 
 ITRead=  0  0  0  0  0  0  0  0  0  0  0  0  0  0  0  0  0  0  0
 MicOpt= -1 -1 -1 -1 -1 -1 -1 -1 -1 -1 -1 -1 -1 -1 -1 -1 -1 -1 -1
 NAtoms=     19 NQM=       19 NQMF=       0 NMMI=      0 NMMIF=      0
                NMic=       0 NMicF=      0.
                    Isotopes and Nuclear Properties:
 (Nuclear quadrupole moments (NQMom) in fm**2, nuclear magnetic moments (NMagM)
  in nuclear magnetons)

  Atom         1           2           3           4           5           6           7           8           9          10
 IAtWgt=          12          12          32          12          16          14          12          12          16          16
 AtmWgt=  12.0000000  12.0000000  31.9720718  12.0000000  15.9949146  14.0030740  12.0000000  12.0000000  15.9949146  15.9949146
 NucSpn=           0           0           0           0           0           2           0           0           0           0
 AtZEff=  -0.0000000  -0.0000000  -0.0000000  -0.0000000  -0.0000000  -0.0000000  -0.0000000  -0.0000000  -0.0000000  -0.0000000
 NQMom=    0.0000000   0.0000000   0.0000000   0.0000000   0.0000000   2.0440000   0.0000000   0.0000000   0.0000000   0.0000000
 NMagM=    0.0000000   0.0000000   0.0000000   0.0000000   0.0000000   0.4037610   0.0000000   0.0000000   0.0000000   0.0000000
 AtZNuc=   6.0000000   6.0000000  16.0000000   6.0000000   8.0000000   7.0000000   6.0000000   6.0000000   8.0000000   8.0000000

  Atom        11          12          13          14          15          16          17          18          19
 IAtWgt=           1           1           1           1           1           1           1           1           1
 AtmWgt=   1.0078250   1.0078250   1.0078250   1.0078250   1.0078250   1.0078250   1.0078250   1.0078250   1.0078250
 NucSpn=           1           1           1           1           1           1           1           1           1
 AtZEff=  -0.0000000  -0.0000000  -0.0000000  -0.0000000  -0.0000000  -0.0000000  -0.0000000  -0.0000000  -0.0000000
 NQMom=    0.0000000   0.0000000   0.0000000   0.0000000   0.0000000   0.0000000   0.0000000   0.0000000   0.0000000
 NMagM=    2.7928460   2.7928460   2.7928460   2.7928460   2.7928460   2.7928460   2.7928460   2.7928460   2.7928460
 AtZNuc=   1.0000000   1.0000000   1.0000000   1.0000000   1.0000000   1.0000000   1.0000000   1.0000000   1.0000000
 Leave Link  101 at Fri Mar 14 15:11:16 2025, MaxMem=  8589934592 cpu:               1.6 elap:               0.3
 (Enter /home/enzo/gaussian_versions/gdv.j21/gdv/l103.exe)

 GradGradGradGradGradGradGradGradGradGradGradGradGradGradGradGradGradGrad
 Berny optimization.
 Initialization pass.
                           ----------------------------
                           !    Initial Parameters    !
                           ! (Angstroms and Degrees)  !
 --------------------------                            --------------------------
 ! Name  Definition              Value          Derivative Info.                !
 --------------------------------------------------------------------------------
 ! R1    R(1,2)                  1.5239         estimate D2E/DX2                !
 ! R2    R(1,11)                 1.1095         estimate D2E/DX2                !
 ! R3    R(1,12)                 1.1099         estimate D2E/DX2                !
 ! R4    R(1,13)                 1.1101         estimate D2E/DX2                !
 ! R5    R(2,3)                  1.8185         estimate D2E/DX2                !
 ! R6    R(2,4)                  1.5015         estimate D2E/DX2                !
 ! R7    R(2,14)                 1.1101         estimate D2E/DX2                !
 ! R8    R(3,15)                 1.4061         estimate D2E/DX2                !
 ! R9    R(4,5)                  1.2593         estimate D2E/DX2                !
 ! R10   R(4,6)                  1.4314         estimate D2E/DX2                !
 ! R11   R(6,7)                  1.4592         estimate D2E/DX2                !
 ! R12   R(6,16)                 1.0447         estimate D2E/DX2                !
 ! R13   R(7,8)                  1.493          estimate D2E/DX2                !
 ! R14   R(7,17)                 1.1104         estimate D2E/DX2                !
 ! R15   R(7,18)                 1.1099         estimate D2E/DX2                !
 ! R16   R(8,9)                  1.2574         estimate D2E/DX2                !
 ! R17   R(8,10)                 1.3885         estimate D2E/DX2                !
 ! R18   R(10,19)                1.012          estimate D2E/DX2                !
 ! A1    A(2,1,11)             109.8889         estimate D2E/DX2                !
 ! A2    A(2,1,12)             110.0837         estimate D2E/DX2                !
 ! A3    A(2,1,13)             110.7082         estimate D2E/DX2                !
 ! A4    A(11,1,12)            108.342          estimate D2E/DX2                !
 ! A5    A(11,1,13)            108.7716         estimate D2E/DX2                !
 ! A6    A(12,1,13)            108.996          estimate D2E/DX2                !
 ! A7    A(1,2,3)              109.944          estimate D2E/DX2                !
 ! A8    A(1,2,4)              110.5681         estimate D2E/DX2                !
 ! A9    A(1,2,14)             108.3679         estimate D2E/DX2                !
 ! A10   A(3,2,4)              110.1383         estimate D2E/DX2                !
 ! A11   A(3,2,14)             107.8121         estimate D2E/DX2                !
 ! A12   A(4,2,14)             109.9493         estimate D2E/DX2                !
 ! A13   A(2,3,15)              93.102          estimate D2E/DX2                !
 ! A14   A(2,4,5)              119.6715         estimate D2E/DX2                !
 ! A15   A(2,4,6)              120.2653         estimate D2E/DX2                !
 ! A16   A(5,4,6)              120.0604         estimate D2E/DX2                !
 ! A17   A(4,6,7)              121.3282         estimate D2E/DX2                !
 ! A18   A(4,6,16)             118.8456         estimate D2E/DX2                !
 ! A19   A(7,6,16)             119.8262         estimate D2E/DX2                !
 ! A20   A(6,7,8)              110.648          estimate D2E/DX2                !
 ! A21   A(6,7,17)             109.5465         estimate D2E/DX2                !
 ! A22   A(6,7,18)             109.4892         estimate D2E/DX2                !
 ! A23   A(8,7,17)             109.5121         estimate D2E/DX2                !
 ! A24   A(8,7,18)             109.134          estimate D2E/DX2                !
 ! A25   A(17,7,18)            108.4751         estimate D2E/DX2                !
 ! A26   A(7,8,9)              120.0801         estimate D2E/DX2                !
 ! A27   A(7,8,10)             119.8597         estimate D2E/DX2                !
 ! A28   A(9,8,10)             120.0477         estimate D2E/DX2                !
 ! A29   A(8,10,19)            120.844          estimate D2E/DX2                !
 ! D1    D(11,1,2,3)            60.0            estimate D2E/DX2                !
 ! D2    D(11,1,2,4)          -178.1734         estimate D2E/DX2                !
 ! D3    D(11,1,2,14)          -57.6045         estimate D2E/DX2                !
 ! D4    D(12,1,2,3)           179.2479         estimate D2E/DX2                !
 ! D5    D(12,1,2,4)           -58.9254         estimate D2E/DX2                !
 ! D6    D(12,1,2,14)           61.6434         estimate D2E/DX2                !
 ! D7    D(13,1,2,3)           -60.1727         estimate D2E/DX2                !
 ! D8    D(13,1,2,4)            61.654          estimate D2E/DX2                !
 ! D9    D(13,1,2,14)         -177.7772         estimate D2E/DX2                !
 ! D10   D(1,2,3,15)            66.2862         estimate D2E/DX2                !
 ! D11   D(4,2,3,15)           -55.796          estimate D2E/DX2                !
 ! D12   D(14,2,3,15)         -175.7646         estimate D2E/DX2                !
 ! D13   D(1,2,4,5)            -77.2996         estimate D2E/DX2                !
 ! D14   D(1,2,4,6)            102.0937         estimate D2E/DX2                !
 ! D15   D(3,2,4,5)             44.4126         estimate D2E/DX2                !
 ! D16   D(3,2,4,6)           -136.1941         estimate D2E/DX2                !
 ! D17   D(14,2,4,5)           163.0796         estimate D2E/DX2                !
 ! D18   D(14,2,4,6)           -17.5271         estimate D2E/DX2                !
 ! D19   D(2,4,6,7)           -179.3909         estimate D2E/DX2                !
 ! D20   D(2,4,6,16)             0.5656         estimate D2E/DX2                !
 ! D21   D(5,4,6,7)              0.0            estimate D2E/DX2                !
 ! D22   D(5,4,6,16)           179.9566         estimate D2E/DX2                !
 ! D23   D(4,6,7,8)           -164.9004         estimate D2E/DX2                !
 ! D24   D(4,6,7,17)           -44.0666         estimate D2E/DX2                !
 ! D25   D(4,6,7,18)            74.7728         estimate D2E/DX2                !
 ! D26   D(16,6,7,8)            15.1435         estimate D2E/DX2                !
 ! D27   D(16,6,7,17)          135.9773         estimate D2E/DX2                !
 ! D28   D(16,6,7,18)         -105.1833         estimate D2E/DX2                !
 ! D29   D(6,7,8,9)           -132.2288         estimate D2E/DX2                !
 ! D30   D(6,7,8,10)            49.0568         estimate D2E/DX2                !
 ! D31   D(17,7,8,9)           106.9171         estimate D2E/DX2                !
 ! D32   D(17,7,8,10)          -71.7973         estimate D2E/DX2                !
 ! D33   D(18,7,8,9)           -11.6901         estimate D2E/DX2                !
 ! D34   D(18,7,8,10)          169.5955         estimate D2E/DX2                !
 ! D35   D(7,8,10,19)          -27.7825         estimate D2E/DX2                !
 ! D36   D(9,8,10,19)          153.5027         estimate D2E/DX2                !
 --------------------------------------------------------------------------------
 Trust Radius=3.00D-01 FncErr=1.00D-07 GrdErr=1.00D-06 EigMax=2.50D+02 EigMin=1.00D-04
 Number of steps in this run=     93 maximum allowed number of steps=    114.
 GradGradGradGradGradGradGradGradGradGradGradGradGradGradGradGradGradGrad

 Leave Link  103 at Fri Mar 14 15:11:16 2025, MaxMem=  8589934592 cpu:               0.2 elap:               0.1
 (Enter /home/enzo/gaussian_versions/gdv.j21/gdv/l202.exe)
                          Input orientation:                          
 ---------------------------------------------------------------------
 Center     Atomic      Atomic             Coordinates (Angstroms)
 Number     Number       Type             X           Y           Z
 ---------------------------------------------------------------------
      1          6           0        2.469767    1.337830   -1.206055
      2          6           0        1.865521    0.041142   -0.680843
      3         16           0        3.127173   -0.911941    0.217465
      4          6           0        0.698038    0.329393    0.218200
      5          8           0        0.901304    0.719882    1.398089
      6          7           0       -0.640331    0.174368   -0.265225
      7          6           0       -1.791723    0.460621    0.584189
      8          6           0       -3.037054   -0.113600   -0.005998
      9          8           0       -4.075498    0.589917   -0.093472
     10          8           0       -3.054078   -1.434518   -0.433667
     11          1           0        3.309865    1.111137   -1.894395
     12          1           0        1.705143    1.915099   -1.766401
     13          1           0        2.851197    1.960161   -0.369711
     14          1           0        1.534347   -0.567057   -1.548436
     15          1           0        3.232515    0.046764    1.240717
     16          1           0       -0.787060   -0.150051   -1.247418
     17          1           0       -1.625746    0.027853    1.593191
     18          1           0       -1.911311    1.559157    0.687981
     19          1           0       -2.206222   -1.889276   -0.747351
 ---------------------------------------------------------------------
                    Distance matrix (angstroms):
                    1          2          3          4          5
     1  C    0.000000
     2  C    1.523929   0.000000
     3  S    2.742273   1.818541   0.000000
     4  C    2.486860   1.501460   2.727931   0.000000
     5  O    3.102177   2.390055   3.001868   1.259340   0.000000
     6  N    3.451306   2.543577   3.950588   1.431420   2.332560
     7  C    4.704760   3.892519   5.119956   2.519936   2.825251
     8  C    5.819954   4.951222   6.219725   3.767946   4.263428
     9  O    6.681146   5.995153   7.364152   4.790789   5.197134
    10  O    6.228592   5.142093   6.237381   4.196985   4.862285
    11  H    1.109489   2.168808   2.930217   3.449032   4.098133
    12  H    1.109900   2.171606   3.734976   2.732648   3.476880
    13  H    1.110070   2.179678   2.944471   2.764261   2.909552
    14  H    2.149612   1.110090   2.403008   2.150358   3.277036
    15  H    2.869726   2.358198   1.406150   2.747543   2.431542
    16  H    3.580841   2.719145   4.248244   2.140892   3.256695
    17  H    5.130794   4.166576   5.036474   2.716891   2.627347
    18  H    4.778096   4.294474   5.631521   2.922621   3.019841
    19  H    5.699956   4.506665   5.507373   3.780146   4.589917
                    6          7          8          9         10
     6  N    0.000000
     7  C    1.459160   0.000000
     8  C    2.427840   1.492950   0.000000
     9  O    3.464470   2.385701   1.257360   0.000000
    10  O    2.905695   2.494218   1.388530   2.292895   0.000000
    11  H    4.374446   5.709006   6.734197   7.619618   7.008128
    12  H    3.284041   4.457449   5.450052   6.162030   5.970452
    13  H    3.923104   4.971444   6.253341   7.066327   6.811770
    14  H    2.631647   4.082518   4.845869   5.909811   4.800921
    15  H    4.157292   5.083825   6.394334   7.448633   6.672257
    16  H    1.044739   2.176477   2.570005   3.562719   2.729728
    17  H    2.108606   1.110370   2.137570   3.026885   2.878683
    18  H    2.107518   1.109890   2.132374   2.496758   3.395011
    19  H    2.634974   2.732549   2.095927   3.173035   1.011960
                   11         12         13         14         15
    11  H    0.000000
    12  H    1.799408   0.000000
    13  H    1.804406   1.807267   0.000000
    14  H    2.467486   2.497554   3.083880   0.000000
    15  H    3.311767   3.855684   2.529816   3.322638   0.000000
    16  H    4.335201   3.277997   4.296543   2.377696   4.731441
    17  H    6.139790   5.093464   5.256407   4.495545   4.871067
    18  H    5.842094   4.385137   4.894997   4.625463   5.389972
    19  H    6.383213   5.550721   6.366967   4.047451   6.105778
                   16         17         18         19
    16  H    0.000000
    17  H    2.967171   0.000000
    18  H    2.816221   1.801623   0.000000
    19  H    2.299781   3.080661   3.746844   0.000000
 Stoichiometry    C5H9NO3S
 Framework group  C1[X(C5H9NO3S)]
 Deg. of freedom    51
 Full point group                 C1      NOp   1
 Largest Abelian subgroup         C1      NOp   1
 Largest concise Abelian subgroup C1      NOp   1
                         Standard orientation:                         
 ---------------------------------------------------------------------
 Center     Atomic      Atomic             Coordinates (Angstroms)
 Number     Number       Type             X           Y           Z
 ---------------------------------------------------------------------
      1          6           0       -2.462437   -1.360656   -1.066847
      2          6           0       -1.836306   -0.038898   -0.638739
      3         16           0       -3.076719    0.991660    0.201747
      4          6           0       -0.664085   -0.279721    0.268061
      5          8           0       -0.861064   -0.584191    1.474060
      6          7           0        0.671479   -0.177098   -0.236620
      7          6           0        1.827159   -0.419167    0.620674
      8          6           0        3.074137    0.095422   -0.018970
      9          8           0        4.102428   -0.626622   -0.066121
     10          8           0        3.104271    1.382957   -0.537970
     11          1           0       -3.306092   -1.171027   -1.762012
     12          1           0       -1.710834   -1.985990   -1.592134
     13          1           0       -2.843886   -1.917894   -0.185803
     14          1           0       -1.505591    0.502753   -1.549531
     15          1           0       -3.184704    0.108150    1.290327
     16          1           0        0.812969    0.076024   -1.240308
     17          1           0        1.676557    0.085116    1.598395
     18          1           0        1.933403   -1.509329    0.799884
     19          1           0        2.259439    1.826299   -0.875267
 ---------------------------------------------------------------------
 Rotational constants (GHZ):           2.5900539           0.4418260           0.4291199
 Leave Link  202 at Fri Mar 14 15:11:16 2025, MaxMem=  8589934592 cpu:               0.1 elap:               0.0
 (Enter /home/enzo/gaussian_versions/gdv.j21/gdv/l301.exe)
 Standard basis: 6-31G(d) (6D, 7F)
 Ernie: Thresh=  0.10000D-02 Tol=  0.10000D-05 Strict=F.
 There are   172 symmetry adapted cartesian basis functions of A   symmetry.
 There are   172 symmetry adapted basis functions of A   symmetry.
   172 basis functions,   340 primitive gaussians,   172 cartesian basis functions
    43 alpha electrons       43 beta electrons
       nuclear repulsion energy       604.1503722087 Hartrees.
 IExCor=      4002 DFT=T Ex+Corr=B3LYP ScaHFX=  0.200000
 ScaDFX=  0.800000  0.720000  1.000000  0.810000  1.000000  0.000000
 ScaDFX=  0.000000  0.000000  0.000000  0.000000  0.000000  0.000000
 IRadAn=      5 IRanWt=     -1 IRanGd=            0 ICorTp=0 IEmpDi=  4
 NAtoms=   19 NActive=   19 NUniq=   19 SFac= 1.00D+00 NAtFMM=   60 NAOKFM=F Big=F
 Integral buffers will be    131072 words long.
 Raffenetti 2 integral format.
 Two-electron integral symmetry is turned on.
 Leave Link  301 at Fri Mar 14 15:11:16 2025, MaxMem=  8589934592 cpu:               0.4 elap:               0.1
 (Enter /home/enzo/gaussian_versions/gdv.j21/gdv/l302.exe)
 NPDir=0 NMtPBC=     1 NCelOv=     1 NCel=       1 NClECP=     1 NCelD=      1
         NCelK=      1 NCelE2=     1 NClLst=     1 CellRange=     0.0.
 One-electron integrals computed using PRISM.
 One-electron integral symmetry used in STVInt
 NBasis=   172 RedAO= T EigKep=  2.85D-03  NBF=   172
 NBsUse=   172 1.00D-06 EigRej= -1.00D+00 NBFU=   172
 Precomputing XC quadrature grid using
 IXCGrd= 4 IRadAn=           5 IRanWt=          -1 IRanGd=           0 AccXCQ= 0.00D+00.
 Generated NRdTot=       0 NPtTot=      407986 NUsed=           0 NTot=          64
 NSgBfM=   171   171   171   171   171 MxSgAt=    19 MxSgA2=    19 SizInc=   0.000
 NMBTot=     3485 MaxBatPerAtom=       85 MaxMicBPerAtom=      209 NBfPt=            50300608.
 Leave Link  302 at Fri Mar 14 15:11:17 2025, MaxMem=  8589934592 cpu:               1.7 elap:               0.3
 (Enter /home/enzo/gaussian_versions/gdv.j21/gdv/l303.exe)
 DipDrv:  MaxL=1.
 Leave Link  303 at Fri Mar 14 15:11:17 2025, MaxMem=  8589934592 cpu:               0.4 elap:               0.2
 (Enter /home/enzo/gaussian_versions/gdv.j21/gdv/l401.exe)
 ExpMin= 1.17D-01 ExpMax= 2.19D+04 ExpMxC= 3.30D+03 IAcc=3 IRadAn=         5 AccDes= 0.00D+00
 Harris functional with IExCor= 4002 and IRadAn=       5 diagonalized for initial guess.
 HarFok:  IExCor=    4002 AccDes= 0.00D+00 IRadAn=         5 IDoV= 1 UseB2=F ITyADJ=14 ICtDFT=  3500011
 FoFCou: FMM=F IPFlag=           0 FMFlag=      100000 FMFlg1=           0
         NFxFlg=           0 DoJE=T BraDBF=F KetDBF=T FulRan=T
         wScrn=  0.000000 ICntrl=       500 IOpCl=  0 I1Cent=   200000004 NGrid=           0
         NMat0=    1 NMatS0=      1 NMatT0=    0 NMatD0=    1 NMtDS0=    0 NMtDT0=    0
 Petite list used in FoFCou.
 Harris En= -874.515912972426    
 JPrj=0 DoOrth=F DoCkMO=F.
 Leave Link  401 at Fri Mar 14 15:11:18 2025, MaxMem=  8589934592 cpu:               6.8 elap:               1.0
 (Enter /home/enzo/gaussian_versions/gdv.j21/gdv/l502.exe)
 Integral symmetry usage will be decided dynamically.
 Closed shell SCF:
 Using DIIS extrapolation, IDIIS=  1040.
 NGot=  8589934592 LenX=  8589843591 LenY=  8589813566
 Requested convergence on RMS density matrix=1.00D-08 within 128 cycles.
 Requested convergence on MAX density matrix=1.00D-06.
 Requested convergence on             energy=1.00D-06.
 No special actions if energy rises.
 Fock matrices will be formed incrementally for  20 cycles.
 Integral accuracy reduced to 1.0D-05 until final iterations.

 Cycle   1  Pass 0  IDiag  1:
 FoFJK:  IHMeth= 1 ICntrl=       0 DoSepK=F KAlg= 0 I1Cent=           0 FoldK=F
 IRaf= 890000000 NMat=       1 IRICut=       1 DoRegI=T DoRafI=F ISym2E= 0 IDoP0=0 IntGTp=1.
 FoFCou: FMM=F IPFlag=           0 FMFlag=      100000 FMFlg1=           0
         NFxFlg=           0 DoJE=F BraDBF=F KetDBF=F FulRan=T
         wScrn=  0.000000 ICntrl=         0 IOpCl=  0 I1Cent=           0 NGrid=           0
         NMat0=    1 NMatS0=      1 NMatT0=    0 NMatD0=    1 NMtDS0=    0 NMtDT0=    0
 Symmetry not used in FoFCou.
 E= -874.245542315413    
 DIIS: error= 2.64D-02 at cycle   1 NSaved=   1.
 NSaved= 1 IEnMin= 1 EnMin= -874.245542315413     IErMin= 1 ErrMin= 2.64D-02
 ErrMax= 2.64D-02  0.00D+00 EMaxC= 1.00D-01 BMatC= 3.56D-01 BMatP= 3.56D-01
 IDIUse=3 WtCom= 7.36D-01 WtEn= 2.64D-01
 Coeff-Com:  0.100D+01
 Coeff-En:   0.100D+01
 Coeff:      0.100D+01
 Gap=     0.231 Goal=   None    Shift=    0.000
 GapD=    0.231 DampG=1.000 DampE=0.500 DampFc=0.5000 IDamp=-1.
 Damping current iteration by 5.00D-01
 RMSDP=9.93D-03 MaxDP=2.73D-01              OVMax= 4.08D-01

 Cycle   2  Pass 0  IDiag  1:
 RMSU=  4.96D-03    CP:  9.95D-01
 E= -874.236306548018     Delta-E=        0.009235767395 Rises=F Damp=T
 DIIS: error= 1.36D-02 at cycle   2 NSaved=   2.
 NSaved= 2 IEnMin= 1 EnMin= -874.245542315413     IErMin= 2 ErrMin= 1.36D-02
 ErrMax= 1.36D-02  0.00D+00 EMaxC= 1.00D-01 BMatC= 1.18D-01 BMatP= 3.56D-01
 IDIUse=3 WtCom= 8.64D-01 WtEn= 1.36D-01
 Coeff-Com:  0.336D+00 0.664D+00
 Coeff-En:   0.511D+00 0.489D+00
 Coeff:      0.360D+00 0.640D+00
 Gap=     0.280 Goal=   None    Shift=    0.000
 RMSDP=3.54D-03 MaxDP=1.33D-01 DE= 9.24D-03 OVMax= 2.22D-01

 Cycle   3  Pass 0  IDiag  1:
 RMSU=  2.34D-03    CP:  9.88D-01  4.68D-01
 E= -874.483602363435     Delta-E=       -0.247295815417 Rises=F Damp=F
 DIIS: error= 9.30D-03 at cycle   3 NSaved=   3.
 NSaved= 3 IEnMin= 3 EnMin= -874.483602363435     IErMin= 3 ErrMin= 9.30D-03
 ErrMax= 9.30D-03  0.00D+00 EMaxC= 1.00D-01 BMatC= 6.98D-02 BMatP= 1.18D-01
 IDIUse=3 WtCom= 9.07D-01 WtEn= 9.30D-02
 Coeff-Com:  0.153D+00 0.425D+00 0.421D+00
 Coeff-En:   0.000D+00 0.000D+00 0.100D+01
 Coeff:      0.139D+00 0.386D+00 0.475D+00
 Gap=     0.209 Goal=   None    Shift=    0.000
 RMSDP=1.76D-03 MaxDP=4.44D-02 DE=-2.47D-01 OVMax= 8.67D-02

 Cycle   4  Pass 0  IDiag  1:
 RMSU=  1.03D-03    CP:  9.94D-01  5.87D-01  4.50D-01
 E= -874.538590225375     Delta-E=       -0.054987861940 Rises=F Damp=F
 DIIS: error= 3.30D-03 at cycle   4 NSaved=   4.
 NSaved= 4 IEnMin= 4 EnMin= -874.538590225375     IErMin= 4 ErrMin= 3.30D-03
 ErrMax= 3.30D-03  0.00D+00 EMaxC= 1.00D-01 BMatC= 8.14D-03 BMatP= 6.98D-02
 IDIUse=3 WtCom= 9.67D-01 WtEn= 3.30D-02
 Coeff-Com:  0.201D-01 0.804D-01 0.267D+00 0.632D+00
 Coeff-En:   0.000D+00 0.000D+00 0.103D+00 0.897D+00
 Coeff:      0.194D-01 0.777D-01 0.262D+00 0.641D+00
 Gap=     0.213 Goal=   None    Shift=    0.000
 RMSDP=5.27D-04 MaxDP=1.50D-02 DE=-5.50D-02 OVMax= 2.32D-02

 Cycle   5  Pass 0  IDiag  1:
 RMSU=  2.77D-04    CP:  9.93D-01  5.53D-01  5.65D-01  6.95D-01
 E= -874.544676638850     Delta-E=       -0.006086413474 Rises=F Damp=F
 DIIS: error= 1.27D-03 at cycle   5 NSaved=   5.
 NSaved= 5 IEnMin= 5 EnMin= -874.544676638850     IErMin= 5 ErrMin= 1.27D-03
 ErrMax= 1.27D-03  0.00D+00 EMaxC= 1.00D-01 BMatC= 5.62D-04 BMatP= 8.14D-03
 IDIUse=3 WtCom= 9.87D-01 WtEn= 1.27D-02
 Coeff-Com:  0.212D-03 0.956D-02 0.104D+00 0.343D+00 0.543D+00
 Coeff-En:   0.000D+00 0.000D+00 0.000D+00 0.000D+00 0.100D+01
 Coeff:      0.209D-03 0.944D-02 0.103D+00 0.339D+00 0.549D+00
 Gap=     0.215 Goal=   None    Shift=    0.000
 RMSDP=1.37D-04 MaxDP=4.33D-03 DE=-6.09D-03 OVMax= 6.27D-03

 Cycle   6  Pass 0  IDiag  1:
 RMSU=  8.25D-05    CP:  9.93D-01  5.59D-01  5.71D-01  7.38D-01  6.60D-01
 E= -874.545133218629     Delta-E=       -0.000456579779 Rises=F Damp=F
 DIIS: error= 3.48D-04 at cycle   6 NSaved=   6.
 NSaved= 6 IEnMin= 6 EnMin= -874.545133218629     IErMin= 6 ErrMin= 3.48D-04
 ErrMax= 3.48D-04  0.00D+00 EMaxC= 1.00D-01 BMatC= 4.04D-05 BMatP= 5.62D-04
 IDIUse=3 WtCom= 9.97D-01 WtEn= 3.48D-03
 Coeff-Com: -0.597D-03-0.875D-03 0.349D-01 0.121D+00 0.281D+00 0.565D+00
 Coeff-En:   0.000D+00 0.000D+00 0.000D+00 0.000D+00 0.000D+00 0.100D+01
 Coeff:     -0.595D-03-0.872D-03 0.348D-01 0.121D+00 0.280D+00 0.566D+00
 Gap=     0.214 Goal=   None    Shift=    0.000
 RMSDP=4.44D-05 MaxDP=1.13D-03 DE=-4.57D-04 OVMax= 1.81D-03

 Cycle   7  Pass 0  IDiag  1:
 RMSU=  2.85D-05    CP:  9.93D-01  5.57D-01  5.70D-01  7.45D-01  6.61D-01
                    CP:  6.09D-01
 E= -874.545162183694     Delta-E=       -0.000028965065 Rises=F Damp=F
 DIIS: error= 1.19D-04 at cycle   7 NSaved=   7.
 NSaved= 7 IEnMin= 7 EnMin= -874.545162183694     IErMin= 7 ErrMin= 1.19D-04
 ErrMax= 1.19D-04  0.00D+00 EMaxC= 1.00D-01 BMatC= 6.69D-06 BMatP= 4.04D-05
 IDIUse=3 WtCom= 9.99D-01 WtEn= 1.19D-03
 Coeff-Com: -0.219D-03-0.183D-02 0.124D-01 0.418D-01 0.125D+00 0.344D+00
 Coeff-Com:  0.479D+00
 Coeff-En:   0.000D+00 0.000D+00 0.000D+00 0.000D+00 0.000D+00 0.463D-01
 Coeff-En:   0.954D+00
 Coeff:     -0.219D-03-0.182D-02 0.124D-01 0.418D-01 0.125D+00 0.344D+00
 Coeff:      0.479D+00
 Gap=     0.215 Goal=   None    Shift=    0.000
 RMSDP=1.67D-05 MaxDP=4.57D-04 DE=-2.90D-05 OVMax= 7.25D-04

 Cycle   8  Pass 0  IDiag  1:
 RMSU=  1.04D-05    CP:  9.93D-01  5.56D-01  5.71D-01  7.42D-01  6.69D-01
                    CP:  6.75D-01  6.54D-01
 E= -874.545166933752     Delta-E=       -0.000004750058 Rises=F Damp=F
 DIIS: error= 5.19D-05 at cycle   8 NSaved=   8.
 NSaved= 8 IEnMin= 8 EnMin= -874.545166933752     IErMin= 8 ErrMin= 5.19D-05
 ErrMax= 5.19D-05  0.00D+00 EMaxC= 1.00D-01 BMatC= 1.13D-06 BMatP= 6.69D-06
 IDIUse=1 WtCom= 1.00D+00 WtEn= 0.00D+00
 Coeff-Com:  0.279D-04-0.126D-02 0.354D-02 0.994D-02 0.436D-01 0.145D+00
 Coeff-Com:  0.315D+00 0.484D+00
 Coeff:      0.279D-04-0.126D-02 0.354D-02 0.994D-02 0.436D-01 0.145D+00
 Coeff:      0.315D+00 0.484D+00
 Gap=     0.214 Goal=   None    Shift=    0.000
 RMSDP=6.29D-06 MaxDP=2.14D-04 DE=-4.75D-06 OVMax= 3.21D-04

 Initial convergence to 1.0D-05 achieved.  Increase integral accuracy.
 Cycle   9  Pass 1  IDiag  1:
 E= -874.545177227279     Delta-E=       -0.000010293527 Rises=F Damp=F
 DIIS: error= 1.86D-05 at cycle   1 NSaved=   1.
 NSaved= 1 IEnMin= 1 EnMin= -874.545177227279     IErMin= 1 ErrMin= 1.86D-05
 ErrMax= 1.86D-05  0.00D+00 EMaxC= 1.00D-01 BMatC= 1.23D-07 BMatP= 1.23D-07
 IDIUse=1 WtCom= 1.00D+00 WtEn= 0.00D+00
 Coeff-Com:  0.100D+01
 Coeff:      0.100D+01
 Gap=     0.214 Goal=   None    Shift=    0.000
 RMSDP=6.29D-06 MaxDP=2.14D-04 DE=-1.03D-05 OVMax= 1.92D-04

 Cycle  10  Pass 1  IDiag  1:
 RMSU=  8.37D-06    CP:  1.00D+00
 E= -874.545177026533     Delta-E=        0.000000200746 Rises=F Damp=F
 DIIS: error= 3.22D-05 at cycle   2 NSaved=   2.
 NSaved= 2 IEnMin= 1 EnMin= -874.545177227279     IErMin= 1 ErrMin= 1.86D-05
 ErrMax= 3.22D-05  0.00D+00 EMaxC= 1.00D-01 BMatC= 3.90D-07 BMatP= 1.23D-07
 IDIUse=1 WtCom= 1.00D+00 WtEn= 0.00D+00
 Coeff-Com:  0.651D+00 0.349D+00
 Coeff:      0.651D+00 0.349D+00
 Gap=     0.214 Goal=   None    Shift=    0.000
 RMSDP=3.57D-06 MaxDP=1.56D-04 DE= 2.01D-07 OVMax= 1.79D-04

 Cycle  11  Pass 1  IDiag  1:
 RMSU=  2.94D-06    CP:  1.00D+00  7.60D-01
 E= -874.545177322446     Delta-E=       -0.000000295913 Rises=F Damp=F
 DIIS: error= 6.10D-06 at cycle   3 NSaved=   3.
 NSaved= 3 IEnMin= 3 EnMin= -874.545177322446     IErMin= 3 ErrMin= 6.10D-06
 ErrMax= 6.10D-06  0.00D+00 EMaxC= 1.00D-01 BMatC= 1.37D-08 BMatP= 1.23D-07
 IDIUse=1 WtCom= 1.00D+00 WtEn= 0.00D+00
 Coeff-Com:  0.216D+00 0.185D+00 0.599D+00
 Coeff:      0.216D+00 0.185D+00 0.599D+00
 Gap=     0.214 Goal=   None    Shift=    0.000
 RMSDP=8.90D-07 MaxDP=2.76D-05 DE=-2.96D-07 OVMax= 3.96D-05

 Cycle  12  Pass 1  IDiag  1:
 RMSU=  7.19D-07    CP:  1.00D+00  7.91D-01  8.46D-01
 E= -874.545177330444     Delta-E=       -0.000000007999 Rises=F Damp=F
 DIIS: error= 2.76D-06 at cycle   4 NSaved=   4.
 NSaved= 4 IEnMin= 4 EnMin= -874.545177330444     IErMin= 4 ErrMin= 2.76D-06
 ErrMax= 2.76D-06  0.00D+00 EMaxC= 1.00D-01 BMatC= 3.50D-09 BMatP= 1.37D-08
 IDIUse=1 WtCom= 1.00D+00 WtEn= 0.00D+00
 Coeff-Com:  0.885D-02 0.502D-01 0.384D+00 0.557D+00
 Coeff:      0.885D-02 0.502D-01 0.384D+00 0.557D+00
 Gap=     0.214 Goal=   None    Shift=    0.000
 RMSDP=3.53D-07 MaxDP=7.62D-06 DE=-8.00D-09 OVMax= 1.25D-05

 Cycle  13  Pass 1  IDiag  1:
 RMSU=  1.41D-07    CP:  1.00D+00  7.94D-01  8.77D-01  5.72D-01
 E= -874.545177333339     Delta-E=       -0.000000002895 Rises=F Damp=F
 DIIS: error= 7.55D-07 at cycle   5 NSaved=   5.
 NSaved= 5 IEnMin= 5 EnMin= -874.545177333339     IErMin= 5 ErrMin= 7.55D-07
 ErrMax= 7.55D-07  0.00D+00 EMaxC= 1.00D-01 BMatC= 1.74D-10 BMatP= 3.50D-09
 IDIUse=1 WtCom= 1.00D+00 WtEn= 0.00D+00
 Coeff-Com: -0.268D-02 0.228D-01 0.197D+00 0.328D+00 0.455D+00
 Coeff:     -0.268D-02 0.228D-01 0.197D+00 0.328D+00 0.455D+00
 Gap=     0.214 Goal=   None    Shift=    0.000
 RMSDP=7.62D-08 MaxDP=2.41D-06 DE=-2.89D-09 OVMax= 3.40D-06

 Cycle  14  Pass 1  IDiag  1:
 RMSU=  5.33D-08    CP:  1.00D+00  7.95D-01  8.76D-01  5.81D-01  6.36D-01
 E= -874.545177333479     Delta-E=       -0.000000000140 Rises=F Damp=F
 DIIS: error= 2.34D-07 at cycle   6 NSaved=   6.
 NSaved= 6 IEnMin= 6 EnMin= -874.545177333479     IErMin= 6 ErrMin= 2.34D-07
 ErrMax= 2.34D-07  0.00D+00 EMaxC= 1.00D-01 BMatC= 2.00D-11 BMatP= 1.74D-10
 IDIUse=1 WtCom= 1.00D+00 WtEn= 0.00D+00
 Coeff-Com: -0.246D-02 0.107D-01 0.921D-01 0.164D+00 0.288D+00 0.447D+00
 Coeff:     -0.246D-02 0.107D-01 0.921D-01 0.164D+00 0.288D+00 0.447D+00
 Gap=     0.214 Goal=   None    Shift=    0.000
 RMSDP=2.72D-08 MaxDP=1.22D-06 DE=-1.40D-10 OVMax= 2.10D-06

 Cycle  15  Pass 1  IDiag  1:
 RMSU=  2.01D-08    CP:  1.00D+00  7.95D-01  8.75D-01  5.90D-01  6.35D-01
                    CP:  6.73D-01
 E= -874.545177333491     Delta-E=       -0.000000000012 Rises=F Damp=F
 DIIS: error= 8.04D-08 at cycle   7 NSaved=   7.
 NSaved= 7 IEnMin= 7 EnMin= -874.545177333491     IErMin= 7 ErrMin= 8.04D-08
 ErrMax= 8.04D-08  0.00D+00 EMaxC= 1.00D-01 BMatC= 2.25D-12 BMatP= 2.00D-11
 IDIUse=1 WtCom= 1.00D+00 WtEn= 0.00D+00
 Coeff-Com: -0.110D-02 0.293D-02 0.230D-01 0.473D-01 0.980D-01 0.281D+00
 Coeff-Com:  0.548D+00
 Coeff:     -0.110D-02 0.293D-02 0.230D-01 0.473D-01 0.980D-01 0.281D+00
 Coeff:      0.548D+00
 Gap=     0.214 Goal=   None    Shift=    0.000
 RMSDP=9.55D-09 MaxDP=2.36D-07 DE=-1.16D-11 OVMax= 4.95D-07

 SCF Done:  E(RB3LYP) =  -874.545177333     A.U. after   15 cycles
            NFock= 15  Conv=0.95D-08     -V/T= 2.0071
 KE= 8.683431078632D+02 PE=-3.267076838059D+03 EE= 9.200381806538D+02
 Leave Link  502 at Fri Mar 14 15:11:31 2025, MaxMem=  8589934592 cpu:              84.9 elap:              12.8
 (Enter /home/enzo/gaussian_versions/gdv.j21/gdv/l601.exe)
 Copying SCF densities to generalized density rwf, IOpCl= 0 IROHF=0.

 **********************************************************************

            Population analysis using the SCF Density.

 **********************************************************************

 Orbital symmetries:
       Occupied  (A) (A) (A) (A) (A) (A) (A) (A) (A) (A) (A) (A)
                 (A) (A) (A) (A) (A) (A) (A) (A) (A) (A) (A) (A)
                 (A) (A) (A) (A) (A) (A) (A) (A) (A) (A) (A) (A)
                 (A) (A) (A) (A) (A) (A) (A)
       Virtual   (A) (A) (A) (A) (A) (A) (A) (A) (A) (A) (A) (A)
                 (A) (A) (A) (A) (A) (A) (A) (A) (A) (A) (A) (A)
                 (A) (A) (A) (A) (A) (A) (A) (A) (A) (A) (A) (A)
                 (A) (A) (A) (A) (A) (A) (A) (A) (A) (A) (A) (A)
                 (A) (A) (A) (A) (A) (A) (A) (A) (A) (A) (A) (A)
                 (A) (A) (A) (A) (A) (A) (A) (A) (A) (A) (A) (A)
                 (A) (A) (A) (A) (A) (A) (A) (A) (A) (A) (A) (A)
                 (A) (A) (A) (A) (A) (A) (A) (A) (A) (A) (A) (A)
                 (A) (A) (A) (A) (A) (A) (A) (A) (A) (A) (A) (A)
                 (A) (A) (A) (A) (A) (A) (A) (A) (A) (A) (A) (A)
                 (A) (A) (A) (A) (A) (A) (A) (A) (A)
 The electronic state is 1-A.
 Alpha  occ. eigenvalues --      -88.88518     -19.21506     -19.15486     -19.14057     -14.39978
 Alpha  occ. eigenvalues --      -10.34683     -10.32018     -10.25960     -10.25421     -10.20830
 Alpha  occ. eigenvalues --       -7.94795      -5.91301      -5.90952      -5.90214      -1.09232
 Alpha  occ. eigenvalues --       -1.03969      -1.01127      -0.93703      -0.83630      -0.75866
 Alpha  occ. eigenvalues --       -0.71470      -0.65825      -0.63398      -0.59882      -0.55113
 Alpha  occ. eigenvalues --       -0.51873      -0.49138      -0.48941      -0.45349      -0.44539
 Alpha  occ. eigenvalues --       -0.43930      -0.43077      -0.41920      -0.40522      -0.38036
 Alpha  occ. eigenvalues --       -0.37613      -0.37196      -0.33621      -0.32575      -0.28640
 Alpha  occ. eigenvalues --       -0.27971      -0.27536      -0.24719
 Alpha virt. eigenvalues --       -0.03270      -0.02496       0.00910       0.02175       0.05656
 Alpha virt. eigenvalues --        0.06700       0.10265       0.11577       0.12304       0.14043
 Alpha virt. eigenvalues --        0.14875       0.15678       0.18075       0.18976       0.20126
 Alpha virt. eigenvalues --        0.21452       0.27337       0.30812       0.32829       0.34139
 Alpha virt. eigenvalues --        0.35494       0.35902       0.38532       0.41427       0.49318
 Alpha virt. eigenvalues --        0.51274       0.51381       0.52084       0.52725       0.54785
 Alpha virt. eigenvalues --        0.56609       0.57058       0.60130       0.61988       0.62442
 Alpha virt. eigenvalues --        0.66082       0.66697       0.70792       0.72388       0.74771
 Alpha virt. eigenvalues --        0.74956       0.79005       0.79918       0.80986       0.81868
 Alpha virt. eigenvalues --        0.82664       0.84601       0.85457       0.86203       0.86744
 Alpha virt. eigenvalues --        0.87373       0.90343       0.90621       0.92520       0.94149
 Alpha virt. eigenvalues --        0.95250       0.96010       1.00093       1.01325       1.02507
 Alpha virt. eigenvalues --        1.06040       1.08259       1.09548       1.11521       1.14230
 Alpha virt. eigenvalues --        1.15941       1.20913       1.25962       1.33081       1.35874
 Alpha virt. eigenvalues --        1.39471       1.41363       1.42278       1.45751       1.50860
 Alpha virt. eigenvalues --        1.55915       1.59255       1.61598       1.68015       1.71706
 Alpha virt. eigenvalues --        1.73731       1.76464       1.77898       1.80354       1.81016
 Alpha virt. eigenvalues --        1.82761       1.85244       1.87865       1.88268       1.89680
 Alpha virt. eigenvalues --        1.90174       1.92981       1.98214       2.00238       2.02418
 Alpha virt. eigenvalues --        2.04948       2.08696       2.17951       2.18779       2.20785
 Alpha virt. eigenvalues --        2.23059       2.26314       2.27138       2.32049       2.38234
 Alpha virt. eigenvalues --        2.44158       2.45729       2.52737       2.53953       2.57214
 Alpha virt. eigenvalues --        2.61402       2.62832       2.72163       2.77734       2.78812
 Alpha virt. eigenvalues --        2.91217       2.94827       3.01125       3.05669       3.78847
 Alpha virt. eigenvalues --        3.87236       3.92835       4.04744       4.09143       4.13156
 Alpha virt. eigenvalues --        4.18295       4.30107       4.48529       4.52089
          Condensed to atoms (all electrons):
               1          2          3          4          5          6
     1  C    5.142228   0.335797  -0.070224  -0.042130  -0.002343  -0.000771
     2  C    0.335797   5.376559   0.273746   0.298679  -0.084849  -0.095760
     3  S   -0.070224   0.273746  15.678071  -0.037231  -0.015975   0.003709
     4  C   -0.042130   0.298679  -0.037231   4.444406   0.543905   0.232638
     5  O   -0.002343  -0.084849  -0.015975   0.543905   8.116269  -0.093715
     6  N   -0.000771  -0.095760   0.003709   0.232638  -0.093715   7.218270
     7  C   -0.000145   0.004896  -0.000220  -0.019218   0.009961   0.189840
     8  C   -0.000003   0.000048   0.000006   0.004218   0.000728  -0.017311
     9  O   -0.000000   0.000000  -0.000000  -0.000073  -0.000000   0.000955
    10  O   -0.000000  -0.000007   0.000000  -0.000065  -0.000001  -0.000150
    11  H    0.375622  -0.032654  -0.000102   0.004728   0.000039  -0.000071
    12  H    0.350777  -0.030604   0.007316  -0.002630  -0.000119   0.001975
    13  H    0.381269  -0.038934  -0.006381  -0.004366   0.004617   0.000250
    14  H   -0.037191   0.345619  -0.038664  -0.034885   0.003227   0.002695
    15  H   -0.005795  -0.015168   0.259429  -0.009720   0.013182   0.000440
    16  H   -0.000109   0.002512  -0.000064  -0.013490   0.002752   0.292360
    17  H   -0.000021   0.000351   0.000054  -0.003882   0.007948  -0.041688
    18  H    0.000060  -0.000114  -0.000014  -0.001438   0.001578  -0.046007
    19  H    0.000002  -0.000012  -0.000003   0.000345  -0.000008   0.008603
               7          8          9         10         11         12
     1  C   -0.000145  -0.000003  -0.000000  -0.000000   0.375622   0.350777
     2  C    0.004896   0.000048   0.000000  -0.000007  -0.032654  -0.030604
     3  S   -0.000220   0.000006  -0.000000   0.000000  -0.000102   0.007316
     4  C   -0.019218   0.004218  -0.000073  -0.000065   0.004728  -0.002630
     5  O    0.009961   0.000728  -0.000000  -0.000001   0.000039  -0.000119
     6  N    0.189840  -0.017311   0.000955  -0.000150  -0.000071   0.001975
     7  C    5.176913   0.276887  -0.078528  -0.090518   0.000003  -0.000051
     8  C    0.276887   4.439967   0.545671   0.238244   0.000000  -0.000001
     9  O   -0.078528   0.545671   8.024320  -0.067427   0.000000   0.000000
    10  O   -0.090518   0.238244  -0.067427   8.286191  -0.000000   0.000000
    11  H    0.000003   0.000000   0.000000  -0.000000   0.536550  -0.028368
    12  H   -0.000051  -0.000001   0.000000   0.000000  -0.028368   0.580701
    13  H   -0.000008  -0.000000   0.000000   0.000000  -0.025046  -0.025852
    14  H   -0.000019  -0.000040   0.000000  -0.000001  -0.004056  -0.002705
    15  H   -0.000011  -0.000000   0.000000  -0.000000  -0.000420   0.000038
    16  H   -0.042962   0.000742   0.000071   0.004691  -0.000015   0.000086
    17  H    0.358575  -0.023350   0.000790   0.001332   0.000000   0.000003
    18  H    0.369618  -0.028998   0.005154   0.003000  -0.000000  -0.000014
    19  H   -0.002944  -0.005178   0.003678   0.208569  -0.000000  -0.000001
              13         14         15         16         17         18
     1  C    0.381269  -0.037191  -0.005795  -0.000109  -0.000021   0.000060
     2  C   -0.038934   0.345619  -0.015168   0.002512   0.000351  -0.000114
     3  S   -0.006381  -0.038664   0.259429  -0.000064   0.000054  -0.000014
     4  C   -0.004366  -0.034885  -0.009720  -0.013490  -0.003882  -0.001438
     5  O    0.004617   0.003227   0.013182   0.002752   0.007948   0.001578
     6  N    0.000250   0.002695   0.000440   0.292360  -0.041688  -0.046007
     7  C   -0.000008  -0.000019  -0.000011  -0.042962   0.358575   0.369618
     8  C   -0.000000  -0.000040  -0.000000   0.000742  -0.023350  -0.028998
     9  O    0.000000   0.000000   0.000000   0.000071   0.000790   0.005154
    10  O    0.000000  -0.000001  -0.000000   0.004691   0.001332   0.003000
    11  H   -0.025046  -0.004056  -0.000420  -0.000015   0.000000  -0.000000
    12  H   -0.025852  -0.002705   0.000038   0.000086   0.000003  -0.000014
    13  H    0.528741   0.005156   0.005237  -0.000010  -0.000002  -0.000001
    14  H    0.005156   0.592540   0.003545   0.002930  -0.000033   0.000005
    15  H    0.005237   0.003545   0.616872  -0.000010  -0.000010   0.000000
    16  H   -0.000010   0.002930  -0.000010   0.420058   0.003736   0.001951
    17  H   -0.000002  -0.000033  -0.000010   0.003736   0.515257  -0.029970
    18  H   -0.000001   0.000005   0.000000   0.001951  -0.029970   0.520694
    19  H    0.000000   0.000012   0.000000   0.002286  -0.000916   0.000179
              19
     1  C    0.000002
     2  C   -0.000012
     3  S   -0.000003
     4  C    0.000345
     5  O   -0.000008
     6  N    0.008603
     7  C   -0.002944
     8  C   -0.005178
     9  O    0.003678
    10  O    0.208569
    11  H   -0.000000
    12  H   -0.000001
    13  H    0.000000
    14  H    0.000012
    15  H    0.000000
    16  H    0.002286
    17  H   -0.000916
    18  H    0.000179
    19  H    0.370838
 Mulliken charges:
               1
     1  C   -0.427025
     2  C   -0.340104
     3  S   -0.053453
     4  C    0.640207
     5  O   -0.507197
     6  N   -0.656261
     7  C   -0.152068
     8  C    0.568370
     9  O   -0.434611
    10  O   -0.583859
    11  H    0.173790
    12  H    0.149447
    13  H    0.175331
    14  H    0.161863
    15  H    0.132389
    16  H    0.322485
    17  H    0.211826
    18  H    0.204319
    19  H    0.414551
 Sum of Mulliken charges =  -0.00000
 Mulliken charges with hydrogens summed into heavy atoms:
               1
     1  C    0.071543
     2  C   -0.178241
     3  S    0.078936
     4  C    0.640207
     5  O   -0.507197
     6  N   -0.333775
     7  C    0.264077
     8  C    0.568370
     9  O   -0.434611
    10  O   -0.169308
 Electronic spatial extent (au):  <R**2>=           2547.8891
 Charge=             -0.0000 electrons
 Dipole moment (field-independent basis, Debye):
    X=             -2.2078    Y=              0.5509    Z=             -2.8252  Tot=              3.6276
 Quadrupole moment (field-independent basis, Debye-Ang):
   XX=            -89.9376   YY=            -66.1892   ZZ=            -63.8535
   XY=              6.2240   XZ=              2.4917   YZ=             -0.6160
 Traceless Quadrupole moment (field-independent basis, Debye-Ang):
   XX=            -16.6108   YY=              7.1375   ZZ=              9.4733
   XY=              6.2240   XZ=              2.4917   YZ=             -0.6160
 Octapole moment (field-independent basis, Debye-Ang**2):
  XXX=            -78.0790  YYY=              2.5296  ZZZ=             -6.7770  XYY=              9.4013
  XXY=             -4.7387  XXZ=             17.5206  XZZ=              9.7600  YZZ=              5.6794
  YYZ=             -4.3622  XYZ=             -2.7659
 Hexadecapole moment (field-independent basis, Debye-Ang**3):
 XXXX=          -3140.4236 YYYY=           -344.8874 ZZZZ=           -271.8704 XXXY=             73.0984
 XXXZ=            -11.1866 YYYX=             22.6951 YYYZ=            -19.1756 ZZZX=             -8.7290
 ZZZY=             -4.6150 XXYY=           -520.3006 XXZZ=           -447.1395 YYZZ=           -101.5662
 XXYZ=              4.9730 YYXZ=             -5.6189 ZZXY=              2.7413
 N-N= 6.041503722087D+02 E-N=-3.267076838770D+03  KE= 8.683431078632D+02
 No NMR shielding tensors so no spin-rotation constants.
 Leave Link  601 at Fri Mar 14 15:11:31 2025, MaxMem=  8589934592 cpu:               2.4 elap:               0.5
 (Enter /home/enzo/gaussian_versions/gdv.j21/gdv/l701.exe)
 ... and contract with generalized density number  0.
 Compute integral first derivatives.
 Leave Link  701 at Fri Mar 14 15:11:32 2025, MaxMem=  8589934592 cpu:               3.6 elap:               0.7
 (Enter /home/enzo/gaussian_versions/gdv.j21/gdv/l702.exe)
 L702 exits ... SP integral derivatives will be done elsewhere.
 Leave Link  702 at Fri Mar 14 15:11:32 2025, MaxMem=  8589934592 cpu:               0.1 elap:               0.2
 (Enter /home/enzo/gaussian_versions/gdv.j21/gdv/l703.exe)
 Integral derivatives from FoFJK, PRISM(SPDF).
 Compute integral first derivatives, UseDBF=F ICtDFT=           0.
 Calling FoFJK, ICntrl=      2127 FMM=F ISym2X=0 I1Cent= 0 IOpClX= 0 NMat=1 NMatS=1 NMatT=0.
 FoFJK:  IHMeth= 1 ICntrl=    2127 DoSepK=F KAlg= 0 I1Cent=           0 FoldK=F
 IRaf=         0 NMat=       1 IRICut=       1 DoRegI=T DoRafI=F ISym2E= 0 IDoP0=0 IntGTp=1.
 FoFCou: FMM=F IPFlag=           0 FMFlag=      100000 FMFlg1=         800
         NFxFlg=           0 DoJE=F BraDBF=F KetDBF=F FulRan=T
         wScrn=  0.000000 ICntrl=      2127 IOpCl=  0 I1Cent=           0 NGrid=           0
         NMat0=    1 NMatS0=      1 NMatT0=    0 NMatD0=    1 NMtDS0=    0 NMtDT0=    0
 Symmetry not used in FoFCou.
 Leave Link  703 at Fri Mar 14 15:11:34 2025, MaxMem=  8589934592 cpu:              14.9 elap:               1.5
 (Enter /home/enzo/gaussian_versions/gdv.j21/gdv/l716.exe)
 Dipole        =-8.68602363D-01 2.16747949D-01-1.11150787D+00
 ***** Axes restored to original set *****
 -------------------------------------------------------------------
 Center     Atomic                   Forces (Hartrees/Bohr)
 Number     Number              X              Y              Z
 -------------------------------------------------------------------
      1        6           0.004174457    0.013855433   -0.008780179
      2        6          -0.005469505   -0.004035694   -0.020444116
      3       16           0.007659212    0.006557544    0.019720906
      4        6          -0.036149287    0.013516243    0.053565555
      5        8          -0.015924480   -0.011998846   -0.047304244
      6        7           0.045536389   -0.012741576   -0.012417478
      7        6           0.017295277    0.008641738    0.003987766
      8        6          -0.063659065    0.025792145   -0.019654258
      9        8           0.057623346   -0.051605060    0.006826941
     10        8           0.009677471    0.003634196   -0.008782729
     11        1          -0.007454450    0.002717739    0.006906664
     12        1           0.006281521   -0.001530546    0.004115122
     13        1          -0.004553744   -0.005126822   -0.008168557
     14        1           0.005011305    0.000841204    0.007352646
     15        1          -0.002305218   -0.018654688   -0.016824976
     16        1           0.004162869    0.012015837    0.024148105
     17        1           0.001073945    0.003774950   -0.007258277
     18        1          -0.003329532   -0.011611339    0.001441926
     19        1          -0.019650510    0.025957542    0.021569183
 -------------------------------------------------------------------
 Cartesian Forces:  Max     0.063659065 RMS     0.021282831
 Leave Link  716 at Fri Mar 14 15:11:34 2025, MaxMem=  8589934592 cpu:               0.2 elap:               0.3
 (Enter /home/enzo/gaussian_versions/gdv.j21/gdv/l103.exe)

 GradGradGradGradGradGradGradGradGradGradGradGradGradGradGradGradGradGrad
 Berny optimization.
 FormGI is forming the generalized inverse of G from B-inverse, IUseBI=4.
 Internal  Forces:  Max     0.076939627 RMS     0.014714545
 Search for a local minimum.
 Step number   1 out of a maximum of   93
 All quantities printed in internal units (Hartrees-Bohrs-Radians)
 RMS Force = .14715D-01 SwitMx=.10000D-02 MixMth= 1
 Mixed Optimization -- RFO/linear search
 Second derivative matrix not updated -- first step.
 ITU=  0
     Eigenvalues ---    0.00230   0.00449   0.00747   0.00859   0.00909
     Eigenvalues ---    0.00960   0.01054   0.01107   0.01276   0.01844
     Eigenvalues ---    0.05076   0.05358   0.05428   0.05664   0.05775
     Eigenvalues ---    0.06700   0.07595   0.09731   0.13112   0.16000
     Eigenvalues ---    0.16000   0.16000   0.16000   0.16000   0.16000
     Eigenvalues ---    0.17528   0.19893   0.21765   0.22000   0.22010
     Eigenvalues ---    0.24709   0.24997   0.24999   0.25000   0.25000
     Eigenvalues ---    0.29991   0.32225   0.32561   0.32590   0.32593
     Eigenvalues ---    0.32611   0.32612   0.32654   0.33128   0.37070
     Eigenvalues ---    0.40614   0.40786   0.45646   0.47575   0.79879
     Eigenvalues ---    0.80576
 RFO step:  Lambda=-4.01025474D-02 EMin= 2.30000000D-03
 Linear search not attempted -- first point.
 Maximum step size (   0.300) exceeded in Quadratic search.
    -- Step size scaled by   0.966
 Iteration  1 RMS(Cart)=  0.09808969 RMS(Int)=  0.00521995
 Iteration  2 RMS(Cart)=  0.00608670 RMS(Int)=  0.00026332
 Iteration  3 RMS(Cart)=  0.00002013 RMS(Int)=  0.00026275
 Iteration  4 RMS(Cart)=  0.00000000 RMS(Int)=  0.00026275
 Variable       Old X    -DE/DX   Delta X   Delta X   Delta X     New X
                                 (Linear)    (Quad)   (Total)
    R1        2.87981   0.00986   0.00000   0.02803   0.02803   2.90783
    R2        2.09663  -0.01048   0.00000  -0.02763  -0.02763   2.06901
    R3        2.09741  -0.00720   0.00000  -0.01900  -0.01900   2.07841
    R4        2.09773  -0.01059   0.00000  -0.02796  -0.02796   2.06977
    R5        3.43654   0.01148   0.00000   0.03863   0.03863   3.47518
    R6        2.83735   0.01329   0.00000   0.03542   0.03542   2.87277
    R7        2.09777  -0.00770   0.00000  -0.02033  -0.02033   2.07744
    R8        2.65724  -0.02513   0.00000  -0.09420  -0.09420   2.56303
    R9        2.37981  -0.05061   0.00000  -0.05828  -0.05828   2.32153
   R10        2.70499  -0.04931   0.00000  -0.10634  -0.10634   2.59865
   R11        2.75741   0.00058   0.00000   0.00135   0.00135   2.75877
   R12        1.97427  -0.02702   0.00000  -0.05849  -0.05849   1.91578
   R13        2.82127   0.01192   0.00000   0.03100   0.03100   2.85226
   R14        2.09830  -0.00791   0.00000  -0.02089  -0.02089   2.07741
   R15        2.09739  -0.01100   0.00000  -0.02901  -0.02901   2.06837
   R16        2.37607  -0.07694   0.00000  -0.08787  -0.08787   2.28819
   R17        2.62394  -0.03197   0.00000  -0.05986  -0.05986   2.56408
   R18        1.91233  -0.03481   0.00000  -0.06773  -0.06773   1.84460
    A1        1.91792   0.00050   0.00000   0.00358   0.00353   1.92146
    A2        1.92132   0.00335   0.00000   0.01670   0.01667   1.93799
    A3        1.93222  -0.00039   0.00000  -0.00362  -0.00360   1.92862
    A4        1.89092  -0.00108   0.00000  -0.00176  -0.00186   1.88907
    A5        1.89842  -0.00033   0.00000  -0.00264  -0.00264   1.89578
    A6        1.90234  -0.00213   0.00000  -0.01258  -0.01255   1.88979
    A7        1.91889   0.00833   0.00000   0.04230   0.04232   1.96120
    A8        1.92978  -0.00649   0.00000  -0.01607  -0.01639   1.91339
    A9        1.89138   0.00095   0.00000   0.00246   0.00272   1.89410
   A10        1.92228   0.00123   0.00000   0.01182   0.01168   1.93395
   A11        1.88168  -0.00637   0.00000  -0.04542  -0.04533   1.83635
   A12        1.91898   0.00239   0.00000   0.00419   0.00417   1.92314
   A13        1.62494   0.00326   0.00000   0.01576   0.01576   1.64069
   A14        2.08866   0.01752   0.00000   0.05825   0.05804   2.14670
   A15        2.09903  -0.01641   0.00000  -0.05473  -0.05492   2.04411
   A16        2.09545  -0.00113   0.00000  -0.00386  -0.00403   2.09142
   A17        2.11758  -0.00339   0.00000  -0.01258  -0.01268   2.10490
   A18        2.07425   0.00134   0.00000   0.00459   0.00449   2.07873
   A19        2.09136   0.00204   0.00000   0.00797   0.00787   2.09924
   A20        1.93117   0.00477   0.00000   0.01978   0.01966   1.95083
   A21        1.91195  -0.00368   0.00000  -0.02071  -0.02057   1.89138
   A22        1.91095   0.00320   0.00000   0.02733   0.02730   1.93825
   A23        1.91135  -0.00056   0.00000  -0.00551  -0.00547   1.90588
   A24        1.90475  -0.00346   0.00000  -0.01267  -0.01310   1.89164
   A25        1.89325  -0.00036   0.00000  -0.00872  -0.00868   1.88456
   A26        2.09579   0.01625   0.00000   0.05379   0.05324   2.14903
   A27        2.09195  -0.01133   0.00000  -0.03805  -0.03856   2.05339
   A28        2.09523  -0.00498   0.00000  -0.01690  -0.01736   2.07786
   A29        2.10913  -0.02950   0.00000  -0.14244  -0.14244   1.96669
    D1        1.04720  -0.00236   0.00000  -0.02850  -0.02849   1.01870
    D2       -3.10971   0.00045   0.00000   0.00394   0.00391  -3.10580
    D3       -1.00539   0.00005   0.00000   0.00089   0.00083  -1.00456
    D4        3.12847  -0.00131   0.00000  -0.01810  -0.01803   3.11043
    D5       -1.02844   0.00151   0.00000   0.01434   0.01438  -1.01407
    D6        1.07588   0.00111   0.00000   0.01129   0.01129   1.08717
    D7       -1.05021  -0.00202   0.00000  -0.02522  -0.02519  -1.07540
    D8        1.07607   0.00079   0.00000   0.00722   0.00722   1.08328
    D9       -3.10280   0.00039   0.00000   0.00417   0.00413  -3.09867
   D10        1.15691   0.00027   0.00000   0.04077   0.04135   1.19827
   D11       -0.97382   0.00208   0.00000   0.02518   0.02492  -0.94891
   D12       -3.06767   0.00234   0.00000   0.04085   0.04052  -3.02715
   D13       -1.34913  -0.00046   0.00000   0.02781   0.02815  -1.32098
   D14        1.78187  -0.00236   0.00000  -0.00826  -0.00846   1.77341
   D15        0.77515   0.00652   0.00000   0.07822   0.07845   0.85360
   D16       -2.37703   0.00463   0.00000   0.04215   0.04185  -2.33519
   D17        2.84628   0.00092   0.00000   0.03221   0.03245   2.87872
   D18       -0.30591  -0.00097   0.00000  -0.00386  -0.00416  -0.31007
   D19       -3.13096   0.00233   0.00000   0.04469   0.04425  -3.08671
   D20        0.00987   0.00095   0.00000   0.01840   0.01800   0.02787
   D21        0.00000   0.00054   0.00000   0.00885   0.00925   0.00925
   D22        3.14083  -0.00084   0.00000  -0.01743  -0.01699   3.12384
   D23       -2.87806   0.00111   0.00000   0.02418   0.02439  -2.85367
   D24       -0.76911   0.00106   0.00000   0.01648   0.01650  -0.75261
   D25        1.30503   0.00034   0.00000   0.00984   0.00958   1.31461
   D26        0.26430   0.00250   0.00000   0.05072   0.05095   0.31525
   D27        2.37325   0.00245   0.00000   0.04301   0.04305   2.41630
   D28       -1.83580   0.00173   0.00000   0.03637   0.03614  -1.79966
   D29       -2.30783  -0.00322   0.00000  -0.03616  -0.03641  -2.34423
   D30        0.85620   0.00000   0.00000   0.02355   0.02390   0.88010
   D31        1.86605  -0.00131   0.00000  -0.01942  -0.01966   1.84639
   D32       -1.25310   0.00191   0.00000   0.04028   0.04064  -1.21246
   D33       -0.20403   0.00151   0.00000   0.00190   0.00150  -0.20254
   D34        2.96000   0.00472   0.00000   0.06161   0.06180   3.02180
   D35       -0.48490   0.00564   0.00000   0.08800   0.08897  -0.39593
   D36        2.67913   0.00858   0.00000   0.14677   0.14580   2.82492
         Item               Value     Threshold  Converged?
 Maximum Force            0.076940     0.000450     NO 
 RMS     Force            0.014715     0.000300     NO 
 Maximum Displacement     0.438400     0.001800     NO 
 RMS     Displacement     0.097072     0.001200     NO 
 Predicted change in Energy=-2.306947D-02
 Lowest energy point so far.  Saving SCF results.
 GradGradGradGradGradGradGradGradGradGradGradGradGradGradGradGradGradGrad

 Leave Link  103 at Fri Mar 14 15:11:35 2025, MaxMem=  8589934592 cpu:               0.7 elap:               0.3
 (Enter /home/enzo/gaussian_versions/gdv.j21/gdv/l202.exe)
                          Input orientation:                          
 ---------------------------------------------------------------------
 Center     Atomic      Atomic             Coordinates (Angstroms)
 Number     Number       Type             X           Y           Z
 ---------------------------------------------------------------------
      1          6           0        2.428440    1.371066   -1.194228
      2          6           0        1.842554    0.043335   -0.682712
      3         16           0        3.103306   -1.001675    0.154139
      4          6           0        0.672439    0.325554    0.245839
      5          8           0        0.814576    0.724670    1.398970
      6          7           0       -0.591419    0.170318   -0.273384
      7          6           0       -1.768812    0.486628    0.529694
      8          6           0       -3.023481   -0.115161   -0.054944
      9          8           0       -4.059380    0.500404   -0.173999
     10          8           0       -3.001102   -1.434636   -0.370425
     11          1           0        3.248840    1.175916   -1.892513
     12          1           0        1.664404    1.964040   -1.717959
     13          1           0        2.813601    1.967097   -0.359947
     14          1           0        1.506882   -0.546496   -1.547556
     15          1           0        3.232276   -0.164498    1.213407
     16          1           0       -0.695682   -0.144852   -1.231279
     17          1           0       -1.614635    0.087945    1.542502
     18          1           0       -1.910389    1.568949    0.610614
     19          1           0       -2.096573   -1.771724   -0.515359
 ---------------------------------------------------------------------
                    Distance matrix (angstroms):
                    1          2          3          4          5
     1  C    0.000000
     2  C    1.538760   0.000000
     3  S    2.811306   1.838984   0.000000
     4  C    2.500085   1.520205   2.771112   0.000000
     5  O    3.122028   2.419578   3.125405   1.228498   0.000000
     6  N    3.377765   2.471416   3.899659   1.375147   2.254085
     7  C    4.622885   3.835154   5.108192   2.462971   2.736093
     8  C    5.764571   4.908921   6.194122   3.734237   4.189256
     9  O    6.625008   5.941424   7.325844   4.753625   5.126400
    10  O    6.166891   5.073748   6.142184   4.119825   4.727871
    11  H    1.094871   2.173476   2.991967   3.454490   4.118631
    12  H    1.099847   2.189197   3.790865   2.743197   3.460273
    13  H    1.095275   2.178984   3.026850   2.765179   2.938284
    14  H    2.156654   1.099332   2.377293   2.161719   3.282859
    15  H    2.966617   2.360041   1.356300   2.780127   2.582698
    16  H    3.472681   2.603647   4.133502   2.067587   3.155180
    17  H    5.048024   4.111657   5.037240   2.639792   2.515370
    18  H    4.703408   4.252619   5.652753   2.889652   2.959687
    19  H    5.551012   4.340411   5.299052   3.556041   4.286191
                    6          7          8          9         10
     6  N    0.000000
     7  C    1.459877   0.000000
     8  C    2.458483   1.509352   0.000000
     9  O    3.485052   2.396262   1.210860   0.000000
    10  O    2.896872   2.453570   1.356851   2.214253   0.000000
    11  H    4.287236   5.614182   6.662248   7.537883   6.942154
    12  H    3.223813   4.361383   5.391193   6.106369   5.927376
    13  H    3.850983   4.897118   6.204865   7.030194   6.736666
    14  H    2.557382   4.014036   4.789376   5.828030   4.743031
    15  H    4.116224   5.089432   6.383232   7.452197   6.555668
    16  H    1.013788   2.156711   2.608313   3.584503   2.778413
    17  H    2.085953   1.099318   2.139611   3.015506   2.810665
    18  H    2.115964   1.094536   2.125598   2.524989   3.342696
    19  H    2.468920   2.509924   1.953290   3.021871   0.976118
                   11         12         13         14         15
    11  H    0.000000
    12  H    1.778215   0.000000
    13  H    1.778809   1.779006   0.000000
    14  H    2.473887   2.521239   3.071821   0.000000
    15  H    3.382857   3.947380   2.682243   3.278082   0.000000
    16  H    4.211996   3.202231   4.187435   2.261114   4.626633
    17  H    6.052800   4.990233   5.172987   4.437887   4.864625
    18  H    5.747848   4.284564   4.839069   4.561858   5.460330
    19  H    6.257681   5.435727   6.173552   3.943539   5.828246
                   16         17         18         19
    16  H    0.000000
    17  H    2.931302   0.000000
    18  H    2.793778   1.774615   0.000000
    19  H    2.263129   2.815214   3.530237   0.000000
 Stoichiometry    C5H9NO3S
 Framework group  C1[X(C5H9NO3S)]
 Deg. of freedom    51
 Full point group                 C1      NOp   1
 RotChk:  IX=3 Diff= 6.50D-02
 Largest Abelian subgroup         C1      NOp   1
 Largest concise Abelian subgroup C1      NOp   1
                         Standard orientation:                         
 ---------------------------------------------------------------------
 Center     Atomic      Atomic             Coordinates (Angstroms)
 Number     Number       Type             X           Y           Z
 ---------------------------------------------------------------------
      1          6           0       -2.421375   -1.472131   -0.961046
      2          6           0       -1.820408   -0.099097   -0.612628
      3         16           0       -3.063700    1.045275    0.112975
      4          6           0       -0.640685   -0.281970    0.328560
      5          8           0       -0.771051   -0.544646    1.521545
      6          7           0        0.617593   -0.197589   -0.219753
      7          6           0        1.802804   -0.428817    0.600643
      8          6           0        3.054021    0.091686   -0.063944
      9          8           0        4.084271   -0.541742   -0.123391
     10          8           0        3.036410    1.366250   -0.528939
     11          1           0       -3.249120   -1.352053   -1.667560
     12          1           0       -1.667861   -2.127497   -1.421889
     13          1           0       -2.800019   -1.965144   -0.059273
     14          1           0       -1.491671    0.384638   -1.543468
     15          1           0       -3.184961    0.336558    1.263003
     16          1           0        0.711971    0.004460   -1.208709
     17          1           0        1.663908    0.084940    1.562548
     18          1           0        1.938237   -1.495742    0.803966
     19          1           0        2.132386    1.691643   -0.701179
 ---------------------------------------------------------------------
 Rotational constants (GHZ):           2.5591235           0.4518834           0.4354764
 Leave Link  202 at Fri Mar 14 15:11:35 2025, MaxMem=  8589934592 cpu:               0.3 elap:               0.2
 (Enter /home/enzo/gaussian_versions/gdv.j21/gdv/l301.exe)
 Standard basis: 6-31G(d) (6D, 7F)
 Ernie: Thresh=  0.10000D-02 Tol=  0.10000D-05 Strict=F.
 There are   172 symmetry adapted cartesian basis functions of A   symmetry.
 There are   172 symmetry adapted basis functions of A   symmetry.
   172 basis functions,   340 primitive gaussians,   172 cartesian basis functions
    43 alpha electrons       43 beta electrons
       nuclear repulsion energy       608.8642701669 Hartrees.
 IExCor=      4002 DFT=T Ex+Corr=B3LYP ScaHFX=  0.200000
 ScaDFX=  0.800000  0.720000  1.000000  0.810000  1.000000  0.000000
 ScaDFX=  0.000000  0.000000  0.000000  0.000000  0.000000  0.000000
 IRadAn=      5 IRanWt=     -1 IRanGd=            0 ICorTp=0 IEmpDi=  4
 NAtoms=   19 NActive=   19 NUniq=   19 SFac= 1.00D+00 NAtFMM=   60 NAOKFM=F Big=F
 Integral buffers will be    131072 words long.
 Raffenetti 2 integral format.
 Two-electron integral symmetry is turned on.
 Leave Link  301 at Fri Mar 14 15:11:35 2025, MaxMem=  8589934592 cpu:               0.4 elap:               0.2
 (Enter /home/enzo/gaussian_versions/gdv.j21/gdv/l302.exe)
 NPDir=0 NMtPBC=     1 NCelOv=     1 NCel=       1 NClECP=     1 NCelD=      1
         NCelK=      1 NCelE2=     1 NClLst=     1 CellRange=     0.0.
 One-electron integrals computed using PRISM.
 One-electron integral symmetry used in STVInt
 NBasis=   172 RedAO= T EigKep=  2.75D-03  NBF=   172
 NBsUse=   172 1.00D-06 EigRej= -1.00D+00 NBFU=   172
 Precomputing XC quadrature grid using
 IXCGrd= 4 IRadAn=           5 IRanWt=          -1 IRanGd=           0 AccXCQ= 0.00D+00.
 Generated NRdTot=       0 NPtTot=      407260 NUsed=           0 NTot=          64
 NSgBfM=   171   171   171   171   171 MxSgAt=    19 MxSgA2=    19 SizInc=   0.000
 NMBTot=     3451 MaxBatPerAtom=       85 MaxMicBPerAtom=      206 NBfPt=            50561634.
 Leave Link  302 at Fri Mar 14 15:11:35 2025, MaxMem=  8589934592 cpu:               1.5 elap:               0.2
 (Enter /home/enzo/gaussian_versions/gdv.j21/gdv/l303.exe)
 DipDrv:  MaxL=1.
 Leave Link  303 at Fri Mar 14 15:11:35 2025, MaxMem=  8589934592 cpu:               0.3 elap:               0.2
 (Enter /home/enzo/gaussian_versions/gdv.j21/gdv/l401.exe)
 Initial guess from the checkpoint file:  "/local/home/enzo/scratch/Gau-2337715.chk"
 B after Tr=    -0.000000    0.000000   -0.000000
         Rot=    0.999704    0.024115   -0.001959   -0.002610 Ang=   2.79 deg.
 AO Guess basis will be translated and rotated to current coordinates.
 JPrj=2 DoOrth=T DoCkMO=T.
 Generating alternative initial guess.
 ExpMin= 1.17D-01 ExpMax= 2.19D+04 ExpMxC= 3.30D+03 IAcc=3 IRadAn=         5 AccDes= 0.00D+00
 Harris functional with IExCor= 4002 and IRadAn=       5 diagonalized for initial guess.
 HarFok:  IExCor=    4002 AccDes= 0.00D+00 IRadAn=         5 IDoV= 1 UseB2=F ITyADJ=14 ICtDFT=  3500011
 FoFCou: FMM=F IPFlag=           0 FMFlag=      100000 FMFlg1=           0
         NFxFlg=           0 DoJE=T BraDBF=F KetDBF=T FulRan=T
         wScrn=  0.000000 ICntrl=       500 IOpCl=  0 I1Cent=   200000004 NGrid=           0
         NMat0=    1 NMatS0=      1 NMatT0=    0 NMatD0=    1 NMtDS0=    0 NMtDT0=    0
 Petite list used in FoFCou.
 Harris En= -874.540775758946    
 Leave Link  401 at Fri Mar 14 15:11:36 2025, MaxMem=  8589934592 cpu:               5.1 elap:               0.7
 (Enter /home/enzo/gaussian_versions/gdv.j21/gdv/l502.exe)
 Integral symmetry usage will be decided dynamically.
 Closed shell SCF:
 Using DIIS extrapolation, IDIIS=  1040.
 NGot=  8589934592 LenX=  8589843591 LenY=  8589813566
 Requested convergence on RMS density matrix=1.00D-08 within 128 cycles.
 Requested convergence on MAX density matrix=1.00D-06.
 Requested convergence on             energy=1.00D-06.
 No special actions if energy rises.
 Fock matrices will be formed incrementally for  20 cycles.
 Integral accuracy reduced to 1.0D-05 until final iterations.

 Cycle   1  Pass 0  IDiag  1:
 FoFJK:  IHMeth= 1 ICntrl=       0 DoSepK=F KAlg= 0 I1Cent=           0 FoldK=F
 IRaf= 890000000 NMat=       1 IRICut=       1 DoRegI=T DoRafI=F ISym2E= 0 IDoP0=0 IntGTp=1.
 FoFCou: FMM=F IPFlag=           0 FMFlag=      100000 FMFlg1=           0
         NFxFlg=           0 DoJE=F BraDBF=F KetDBF=F FulRan=T
         wScrn=  0.000000 ICntrl=         0 IOpCl=  0 I1Cent=           0 NGrid=           0
         NMat0=    1 NMatS0=      1 NMatT0=    0 NMatD0=    1 NMtDS0=    0 NMtDT0=    0
 Symmetry not used in FoFCou.
 E= -874.549585489899    
 DIIS: error= 6.05D-03 at cycle   1 NSaved=   1.
 NSaved= 1 IEnMin= 1 EnMin= -874.549585489899     IErMin= 1 ErrMin= 6.05D-03
 ErrMax= 6.05D-03  0.00D+00 EMaxC= 1.00D-01 BMatC= 1.18D-02 BMatP= 1.18D-02
 IDIUse=3 WtCom= 9.39D-01 WtEn= 6.05D-02
 Coeff-Com:  0.100D+01
 Coeff-En:   0.100D+01
 Coeff:      0.100D+01
 Gap=     1.594 Goal=   None    Shift=    0.000
 GapD=    1.594 DampG=2.000 DampE=1.000 DampFc=2.0000 IDamp=-1.
 RMSDP=1.15D-03 MaxDP=2.63D-02              OVMax= 3.28D-02

 Cycle   2  Pass 0  IDiag  1:
 RMSU=  1.15D-03    CP:  9.99D-01
 E= -874.567439730445     Delta-E=       -0.017854240546 Rises=F Damp=F
 DIIS: error= 1.39D-03 at cycle   2 NSaved=   2.
 NSaved= 2 IEnMin= 2 EnMin= -874.567439730445     IErMin= 2 ErrMin= 1.39D-03
 ErrMax= 1.39D-03  0.00D+00 EMaxC= 1.00D-01 BMatC= 1.13D-03 BMatP= 1.18D-02
 IDIUse=3 WtCom= 9.86D-01 WtEn= 1.39D-02
 Coeff-Com:  0.118D+00 0.882D+00
 Coeff-En:   0.000D+00 0.100D+01
 Coeff:      0.116D+00 0.884D+00
 Gap=     0.235 Goal=   None    Shift=    0.000
 RMSDP=3.51D-04 MaxDP=1.20D-02 DE=-1.79D-02 OVMax= 1.11D-02

 Cycle   3  Pass 0  IDiag  1:
 RMSU=  3.50D-04    CP:  9.98D-01  1.02D+00
 E= -874.567596064833     Delta-E=       -0.000156334389 Rises=F Damp=F
 DIIS: error= 1.20D-03 at cycle   3 NSaved=   3.
 NSaved= 3 IEnMin= 3 EnMin= -874.567596064833     IErMin= 3 ErrMin= 1.20D-03
 ErrMax= 1.20D-03  0.00D+00 EMaxC= 1.00D-01 BMatC= 1.07D-03 BMatP= 1.13D-03
 IDIUse=3 WtCom= 9.88D-01 WtEn= 1.20D-02
 Coeff-Com: -0.165D-01 0.495D+00 0.522D+00
 Coeff-En:   0.000D+00 0.458D+00 0.542D+00
 Coeff:     -0.163D-01 0.494D+00 0.522D+00
 Gap=     0.232 Goal=   None    Shift=    0.000
 RMSDP=1.87D-04 MaxDP=7.51D-03 DE=-1.56D-04 OVMax= 7.73D-03

 Cycle   4  Pass 0  IDiag  1:
 RMSU=  9.05D-05    CP:  9.98D-01  1.06D+00  5.51D-01
 E= -874.568414186352     Delta-E=       -0.000818121519 Rises=F Damp=F
 DIIS: error= 5.17D-04 at cycle   4 NSaved=   4.
 NSaved= 4 IEnMin= 4 EnMin= -874.568414186352     IErMin= 4 ErrMin= 5.17D-04
 ErrMax= 5.17D-04  0.00D+00 EMaxC= 1.00D-01 BMatC= 7.90D-05 BMatP= 1.07D-03
 IDIUse=3 WtCom= 9.95D-01 WtEn= 5.17D-03
 Coeff-Com: -0.171D-01 0.212D+00 0.292D+00 0.513D+00
 Coeff-En:   0.000D+00 0.000D+00 0.000D+00 0.100D+01
 Coeff:     -0.170D-01 0.211D+00 0.291D+00 0.516D+00
 Gap=     0.231 Goal=   None    Shift=    0.000
 RMSDP=5.52D-05 MaxDP=1.65D-03 DE=-8.18D-04 OVMax= 2.71D-03

 Cycle   5  Pass 0  IDiag  1:
 RMSU=  3.79D-05    CP:  9.98D-01  1.06D+00  5.86D-01  5.81D-01
 E= -874.568473083358     Delta-E=       -0.000058897006 Rises=F Damp=F
 DIIS: error= 1.54D-04 at cycle   5 NSaved=   5.
 NSaved= 5 IEnMin= 5 EnMin= -874.568473083358     IErMin= 5 ErrMin= 1.54D-04
 ErrMax= 1.54D-04  0.00D+00 EMaxC= 1.00D-01 BMatC= 1.04D-05 BMatP= 7.90D-05
 IDIUse=3 WtCom= 9.98D-01 WtEn= 1.54D-03
 Coeff-Com: -0.816D-02 0.788D-01 0.124D+00 0.316D+00 0.489D+00
 Coeff-En:   0.000D+00 0.000D+00 0.000D+00 0.545D-01 0.945D+00
 Coeff:     -0.815D-02 0.787D-01 0.124D+00 0.315D+00 0.490D+00
 Gap=     0.231 Goal=   None    Shift=    0.000
 RMSDP=1.99D-05 MaxDP=6.13D-04 DE=-5.89D-05 OVMax= 1.21D-03

 Cycle   6  Pass 0  IDiag  1:
 RMSU=  1.35D-05    CP:  9.98D-01  1.06D+00  5.92D-01  6.51D-01  6.65D-01
 E= -874.568480227731     Delta-E=       -0.000007144374 Rises=F Damp=F
 DIIS: error= 4.73D-05 at cycle   6 NSaved=   6.
 NSaved= 6 IEnMin= 6 EnMin= -874.568480227731     IErMin= 6 ErrMin= 4.73D-05
 ErrMax= 4.73D-05  0.00D+00 EMaxC= 1.00D-01 BMatC= 1.25D-06 BMatP= 1.04D-05
 IDIUse=1 WtCom= 1.00D+00 WtEn= 0.00D+00
 Coeff-Com: -0.250D-02 0.171D-01 0.330D-01 0.120D+00 0.300D+00 0.532D+00
 Coeff:     -0.250D-02 0.171D-01 0.330D-01 0.120D+00 0.300D+00 0.532D+00
 Gap=     0.231 Goal=   None    Shift=    0.000
 RMSDP=6.75D-06 MaxDP=2.29D-04 DE=-7.14D-06 OVMax= 3.19D-04

 Initial convergence to 1.0D-05 achieved.  Increase integral accuracy.
 Cycle   7  Pass 1  IDiag  1:
 E= -874.568473329830     Delta-E=        0.000006897901 Rises=F Damp=F
 DIIS: error= 1.38D-05 at cycle   1 NSaved=   1.
 NSaved= 1 IEnMin= 1 EnMin= -874.568473329830     IErMin= 1 ErrMin= 1.38D-05
 ErrMax= 1.38D-05  0.00D+00 EMaxC= 1.00D-01 BMatC= 7.44D-08 BMatP= 7.44D-08
 IDIUse=1 WtCom= 1.00D+00 WtEn= 0.00D+00
 Coeff-Com:  0.100D+01
 Coeff:      0.100D+01
 Gap=     0.231 Goal=   None    Shift=    0.000
 RMSDP=6.75D-06 MaxDP=2.29D-04 DE= 6.90D-06 OVMax= 1.32D-04

 Cycle   8  Pass 1  IDiag  1:
 RMSU=  7.98D-06    CP:  1.00D+00
 E= -874.568473315618     Delta-E=        0.000000014213 Rises=F Damp=F
 DIIS: error= 1.61D-05 at cycle   2 NSaved=   2.
 NSaved= 2 IEnMin= 1 EnMin= -874.568473329830     IErMin= 1 ErrMin= 1.38D-05
 ErrMax= 1.61D-05  0.00D+00 EMaxC= 1.00D-01 BMatC= 1.08D-07 BMatP= 7.44D-08
 IDIUse=1 WtCom= 1.00D+00 WtEn= 0.00D+00
 Coeff-Com:  0.554D+00 0.446D+00
 Coeff:      0.554D+00 0.446D+00
 Gap=     0.231 Goal=   None    Shift=    0.000
 RMSDP=2.15D-06 MaxDP=6.44D-05 DE= 1.42D-08 OVMax= 1.09D-04

 Cycle   9  Pass 1  IDiag  1:
 RMSU=  2.06D-06    CP:  1.00D+00  9.24D-01
 E= -874.568473401603     Delta-E=       -0.000000085985 Rises=F Damp=F
 DIIS: error= 5.83D-06 at cycle   3 NSaved=   3.
 NSaved= 3 IEnMin= 3 EnMin= -874.568473401603     IErMin= 3 ErrMin= 5.83D-06
 ErrMax= 5.83D-06  0.00D+00 EMaxC= 1.00D-01 BMatC= 1.19D-08 BMatP= 7.44D-08
 IDIUse=1 WtCom= 1.00D+00 WtEn= 0.00D+00
 Coeff-Com:  0.137D+00 0.255D+00 0.608D+00
 Coeff:      0.137D+00 0.255D+00 0.608D+00
 Gap=     0.231 Goal=   None    Shift=    0.000
 RMSDP=7.02D-07 MaxDP=2.63D-05 DE=-8.60D-08 OVMax= 4.91D-05

 Cycle  10  Pass 1  IDiag  1:
 RMSU=  5.93D-07    CP:  1.00D+00  9.39D-01  8.28D-01
 E= -874.568473408454     Delta-E=       -0.000000006852 Rises=F Damp=F
 DIIS: error= 2.88D-06 at cycle   4 NSaved=   4.
 NSaved= 4 IEnMin= 4 EnMin= -874.568473408454     IErMin= 4 ErrMin= 2.88D-06
 ErrMax= 2.88D-06  0.00D+00 EMaxC= 1.00D-01 BMatC= 3.04D-09 BMatP= 1.19D-08
 IDIUse=1 WtCom= 1.00D+00 WtEn= 0.00D+00
 Coeff-Com:  0.152D-02 0.975D-01 0.400D+00 0.501D+00
 Coeff:      0.152D-02 0.975D-01 0.400D+00 0.501D+00
 Gap=     0.231 Goal=   None    Shift=    0.000
 RMSDP=3.25D-07 MaxDP=1.26D-05 DE=-6.85D-09 OVMax= 1.69D-05

 Cycle  11  Pass 1  IDiag  1:
 RMSU=  1.66D-07    CP:  1.00D+00  9.47D-01  8.38D-01  5.43D-01
 E= -874.568473410933     Delta-E=       -0.000000002479 Rises=F Damp=F
 DIIS: error= 4.44D-07 at cycle   5 NSaved=   5.
 NSaved= 5 IEnMin= 5 EnMin= -874.568473410933     IErMin= 5 ErrMin= 4.44D-07
 ErrMax= 4.44D-07  0.00D+00 EMaxC= 1.00D-01 BMatC= 1.21D-10 BMatP= 3.04D-09
 IDIUse=1 WtCom= 1.00D+00 WtEn= 0.00D+00
 Coeff-Com: -0.579D-02 0.397D-01 0.182D+00 0.271D+00 0.513D+00
 Coeff:     -0.579D-02 0.397D-01 0.182D+00 0.271D+00 0.513D+00
 Gap=     0.231 Goal=   None    Shift=    0.000
 RMSDP=7.23D-08 MaxDP=1.99D-06 DE=-2.48D-09 OVMax= 3.05D-06

 Cycle  12  Pass 1  IDiag  1:
 RMSU=  6.39D-08    CP:  1.00D+00  9.48D-01  8.39D-01  5.60D-01  8.08D-01
 E= -874.568473411045     Delta-E=       -0.000000000113 Rises=F Damp=F
 DIIS: error= 1.05D-07 at cycle   6 NSaved=   6.
 NSaved= 6 IEnMin= 6 EnMin= -874.568473411045     IErMin= 6 ErrMin= 1.05D-07
 ErrMax= 1.05D-07  0.00D+00 EMaxC= 1.00D-01 BMatC= 9.56D-12 BMatP= 1.21D-10
 IDIUse=1 WtCom= 1.00D+00 WtEn= 0.00D+00
 Coeff-Com: -0.286D-02 0.343D-02 0.222D-01 0.495D-01 0.236D+00 0.692D+00
 Coeff:     -0.286D-02 0.343D-02 0.222D-01 0.495D-01 0.236D+00 0.692D+00
 Gap=     0.231 Goal=   None    Shift=    0.000
 RMSDP=2.64D-08 MaxDP=6.52D-07 DE=-1.13D-10 OVMax= 1.75D-06

 Cycle  13  Pass 1  IDiag  1:
 RMSU=  1.87D-08    CP:  1.00D+00  9.48D-01  8.40D-01  5.75D-01  9.02D-01
                    CP:  9.46D-01
 E= -874.568473411057     Delta-E=       -0.000000000011 Rises=F Damp=F
 DIIS: error= 6.30D-08 at cycle   7 NSaved=   7.
 NSaved= 7 IEnMin= 7 EnMin= -874.568473411057     IErMin= 7 ErrMin= 6.30D-08
 ErrMax= 6.30D-08  0.00D+00 EMaxC= 1.00D-01 BMatC= 2.03D-12 BMatP= 9.56D-12
 IDIUse=1 WtCom= 1.00D+00 WtEn= 0.00D+00
 Coeff-Com: -0.753D-03-0.357D-02-0.125D-01-0.962D-02 0.635D-01 0.375D+00
 Coeff-Com:  0.588D+00
 Coeff:     -0.753D-03-0.357D-02-0.125D-01-0.962D-02 0.635D-01 0.375D+00
 Coeff:      0.588D+00
 Gap=     0.231 Goal=   None    Shift=    0.000
 RMSDP=1.27D-08 MaxDP=4.65D-07 DE=-1.11D-11 OVMax= 6.94D-07

 Cycle  14  Pass 1  IDiag  1:
 RMSU=  9.04D-09    CP:  1.00D+00  9.48D-01  8.40D-01  5.72D-01  9.26D-01
                    CP:  1.03D+00  6.95D-01
 E= -874.568473411050     Delta-E=        0.000000000006 Rises=F Damp=F
 DIIS: error= 4.55D-08 at cycle   8 NSaved=   8.
 NSaved= 8 IEnMin= 7 EnMin= -874.568473411057     IErMin= 8 ErrMin= 4.55D-08
 ErrMax= 4.55D-08  0.00D+00 EMaxC= 1.00D-01 BMatC= 8.52D-13 BMatP= 2.03D-12
 IDIUse=1 WtCom= 1.00D+00 WtEn= 0.00D+00
 Coeff-Com:  0.789D-04-0.335D-02-0.139D-01-0.183D-01-0.764D-02 0.110D+00
 Coeff-Com:  0.434D+00 0.499D+00
 Coeff:      0.789D-04-0.335D-02-0.139D-01-0.183D-01-0.764D-02 0.110D+00
 Coeff:      0.434D+00 0.499D+00
 Gap=     0.231 Goal=   None    Shift=    0.000
 RMSDP=5.93D-09 MaxDP=2.03D-07 DE= 6.14D-12 OVMax= 3.16D-07

 SCF Done:  E(RB3LYP) =  -874.568473411     A.U. after   14 cycles
            NFock= 14  Conv=0.59D-08     -V/T= 2.0064
 KE= 8.689686736870D+02 PE=-3.276780965209D+03 EE= 9.243795479445D+02
 Leave Link  502 at Fri Mar 14 15:11:48 2025, MaxMem=  8589934592 cpu:              84.2 elap:              12.3
 (Enter /home/enzo/gaussian_versions/gdv.j21/gdv/l701.exe)
 ... and contract with generalized density number  0.
 Compute integral first derivatives.
 Leave Link  701 at Fri Mar 14 15:11:49 2025, MaxMem=  8589934592 cpu:               3.0 elap:               0.6
 (Enter /home/enzo/gaussian_versions/gdv.j21/gdv/l702.exe)
 L702 exits ... SP integral derivatives will be done elsewhere.
 Leave Link  702 at Fri Mar 14 15:11:49 2025, MaxMem=  8589934592 cpu:               0.2 elap:               0.2
 (Enter /home/enzo/gaussian_versions/gdv.j21/gdv/l703.exe)
 Integral derivatives from FoFJK, PRISM(SPDF).
 Compute integral first derivatives, UseDBF=F ICtDFT=           0.
 Calling FoFJK, ICntrl=      2127 FMM=F ISym2X=0 I1Cent= 0 IOpClX= 0 NMat=1 NMatS=1 NMatT=0.
 FoFJK:  IHMeth= 1 ICntrl=    2127 DoSepK=F KAlg= 0 I1Cent=           0 FoldK=F
 IRaf=         0 NMat=       1 IRICut=       1 DoRegI=T DoRafI=F ISym2E= 0 IDoP0=0 IntGTp=1.
 FoFCou: FMM=F IPFlag=           0 FMFlag=      100000 FMFlg1=         800
         NFxFlg=           0 DoJE=F BraDBF=F KetDBF=F FulRan=T
         wScrn=  0.000000 ICntrl=      2127 IOpCl=  0 I1Cent=           0 NGrid=           0
         NMat0=    1 NMatS0=      1 NMatT0=    0 NMatD0=    1 NMtDS0=    0 NMtDT0=    0
 Symmetry not used in FoFCou.
 Leave Link  703 at Fri Mar 14 15:11:51 2025, MaxMem=  8589934592 cpu:              15.6 elap:               2.0
 (Enter /home/enzo/gaussian_versions/gdv.j21/gdv/l716.exe)
 Dipole        =-9.22869059D-01 2.16897492D-02-9.60028040D-01
 ***** Axes restored to original set *****
 -------------------------------------------------------------------
 Center     Atomic                   Forces (Hartrees/Bohr)
 Number     Number              X              Y              Z
 -------------------------------------------------------------------
      1        6           0.001182871    0.001217171   -0.001294263
      2        6          -0.000131473    0.002183204   -0.008612115
      3       16           0.000331033    0.001240633    0.002308578
      4        6          -0.009941397    0.004322725    0.016517051
      5        8           0.003964038   -0.001666688   -0.006922783
      6        7           0.006854595   -0.009608406   -0.004250378
      7        6           0.007354663    0.003412037   -0.002222311
      8        6          -0.020887856    0.004136670   -0.001805442
      9        8           0.009337650   -0.003237596    0.003988466
     10        8           0.005102050   -0.004475578   -0.008658594
     11        1          -0.000443663    0.000087480    0.001106811
     12        1           0.000472040   -0.001060257    0.001253943
     13        1          -0.000833331   -0.000456933   -0.000499463
     14        1           0.001055134   -0.000714011    0.002296876
     15        1          -0.000646334   -0.003060892   -0.001553122
     16        1          -0.001069514    0.005056545    0.000912299
     17        1           0.000434198    0.001315290   -0.001475475
     18        1          -0.001184283   -0.001143250    0.000302855
     19        1          -0.000950421    0.002451855    0.008607066
 -------------------------------------------------------------------
 Cartesian Forces:  Max     0.020887856 RMS     0.005309051
 Leave Link  716 at Fri Mar 14 15:11:52 2025, MaxMem=  8589934592 cpu:               0.5 elap:               0.3
 (Enter /home/enzo/gaussian_versions/gdv.j21/gdv/l103.exe)

 GradGradGradGradGradGradGradGradGradGradGradGradGradGradGradGradGradGrad
 Berny optimization.
 Using GEDIIS/GDIIS optimizer.
 FormGI is forming the generalized inverse of G from B-inverse, IUseBI=4.
 Internal  Forces:  Max     0.010026242 RMS     0.002973778
 Search for a local minimum.
 Step number   2 out of a maximum of   93
 All quantities printed in internal units (Hartrees-Bohrs-Radians)
 RMS Force = .29738D-02 SwitMx=.10000D-02 MixMth= 1
 Mixed Optimization -- RFO/linear search
 Update second derivatives using D2CorX and points    1    2
 DE= -2.33D-02 DEPred=-2.31D-02 R= 1.01D+00
 TightC=F SS=  1.41D+00  RLast= 3.89D-01 DXNew= 5.0454D-01 1.1683D+00
 Trust test= 1.01D+00 RLast= 3.89D-01 DXMaxT set to 5.05D-01
 ITU=  1  0
 Use linear search instead of GDIIS.
     Eigenvalues ---    0.00231   0.00449   0.00749   0.00859   0.00905
     Eigenvalues ---    0.00962   0.01054   0.01132   0.01277   0.01799
     Eigenvalues ---    0.04928   0.05205   0.05381   0.05622   0.05702
     Eigenvalues ---    0.06660   0.07632   0.09916   0.13251   0.15657
     Eigenvalues ---    0.15998   0.16000   0.16000   0.16000   0.16163
     Eigenvalues ---    0.17639   0.20176   0.21552   0.22006   0.22026
     Eigenvalues ---    0.23716   0.24742   0.24967   0.24998   0.26389
     Eigenvalues ---    0.30102   0.32059   0.32523   0.32578   0.32600
     Eigenvalues ---    0.32606   0.32636   0.32716   0.33026   0.37068
     Eigenvalues ---    0.40628   0.41880   0.45755   0.49232   0.77843
     Eigenvalues ---    0.80133
 RFO step:  Lambda=-6.51381430D-03 EMin= 2.30621859D-03
 Quartic linear search produced a step of  0.17985.
 Iteration  1 RMS(Cart)=  0.12702812 RMS(Int)=  0.01292794
 Iteration  2 RMS(Cart)=  0.01423638 RMS(Int)=  0.00055985
 Iteration  3 RMS(Cart)=  0.00055209 RMS(Int)=  0.00024688
 Iteration  4 RMS(Cart)=  0.00000094 RMS(Int)=  0.00024688
 Variable       Old X    -DE/DX   Delta X   Delta X   Delta X     New X
                                 (Linear)    (Quad)   (Total)
    R1        2.90783  -0.00023   0.00504  -0.00446   0.00058   2.90842
    R2        2.06901  -0.00105  -0.00497  -0.00022  -0.00519   2.06382
    R3        2.07841  -0.00150  -0.00342  -0.00285  -0.00626   2.07215
    R4        2.06977  -0.00092  -0.00503   0.00028  -0.00475   2.06502
    R5        3.47518   0.00116   0.00695   0.00007   0.00702   3.48219
    R6        2.87277   0.00392   0.00637   0.00938   0.01575   2.88852
    R7        2.07744  -0.00175  -0.00366  -0.00355  -0.00721   2.07023
    R8        2.56303  -0.00316  -0.01694  -0.00302  -0.01997   2.54307
    R9        2.32153  -0.00658  -0.01048  -0.00338  -0.01386   2.30767
   R10        2.59865  -0.00261  -0.01913   0.00526  -0.01387   2.58478
   R11        2.75877   0.00048   0.00024   0.00131   0.00156   2.76033
   R12        1.91578  -0.00232  -0.01052   0.00039  -0.01013   1.90565
   R13        2.85226   0.00577   0.00557   0.01598   0.02155   2.87382
   R14        2.07741  -0.00178  -0.00376  -0.00359  -0.00735   2.07006
   R15        2.06837  -0.00095  -0.00522   0.00030  -0.00492   2.06345
   R16        2.28819  -0.01003  -0.01580  -0.00513  -0.02093   2.26726
   R17        2.56408   0.00205  -0.01077   0.01178   0.00101   2.56509
   R18        1.84460  -0.00301  -0.01218   0.00028  -0.01190   1.83269
    A1        1.92146   0.00021   0.00064   0.00265   0.00328   1.92474
    A2        1.93799  -0.00091   0.00300  -0.00958  -0.00660   1.93139
    A3        1.92862  -0.00031  -0.00065  -0.00270  -0.00337   1.92526
    A4        1.88907   0.00068  -0.00033   0.00727   0.00693   1.89600
    A5        1.89578   0.00015  -0.00047   0.00257   0.00210   1.89788
    A6        1.88979   0.00021  -0.00226   0.00019  -0.00210   1.88769
    A7        1.96120   0.00177   0.00761   0.00160   0.00920   1.97040
    A8        1.91339  -0.00049  -0.00295   0.00074  -0.00229   1.91110
    A9        1.89410   0.00086   0.00049   0.01690   0.01741   1.91151
   A10        1.93395  -0.00129   0.00210  -0.01569  -0.01361   1.92034
   A11        1.83635  -0.00148  -0.00815  -0.01068  -0.01886   1.81748
   A12        1.92314   0.00066   0.00075   0.00778   0.00838   1.93152
   A13        1.64069   0.00208   0.00283   0.01201   0.01484   1.65553
   A14        2.14670  -0.00210   0.01044  -0.01699  -0.00669   2.14001
   A15        2.04411  -0.00695  -0.00988  -0.02360  -0.03361   2.01050
   A16        2.09142   0.00904  -0.00072   0.04190   0.04106   2.13248
   A17        2.10490   0.00026  -0.00228   0.00272  -0.00047   2.10442
   A18        2.07873   0.00128   0.00081   0.00794   0.00780   2.08654
   A19        2.09924  -0.00156   0.00142  -0.01239  -0.01185   2.08738
   A20        1.95083   0.00010   0.00354  -0.00164   0.00179   1.95262
   A21        1.89138  -0.00032  -0.00370  -0.00362  -0.00731   1.88407
   A22        1.93825   0.00085   0.00491   0.00782   0.01266   1.95091
   A23        1.90588  -0.00066  -0.00098  -0.00985  -0.01085   1.89503
   A24        1.89164   0.00030  -0.00236   0.00932   0.00680   1.89844
   A25        1.88456  -0.00031  -0.00156  -0.00243  -0.00395   1.88062
   A26        2.14903   0.00184   0.00957   0.00246   0.01151   2.16054
   A27        2.05339  -0.01001  -0.00693  -0.03867  -0.04612   2.00727
   A28        2.07786   0.00818  -0.00312   0.04085   0.03722   2.11508
   A29        1.96669  -0.00648  -0.02562  -0.02246  -0.04808   1.91860
    D1        1.01870  -0.00004  -0.00512  -0.00370  -0.00880   1.00990
    D2       -3.10580  -0.00082   0.00070  -0.02227  -0.02159  -3.12739
    D3       -1.00456   0.00022   0.00015  -0.00204  -0.00191  -1.00647
    D4        3.11043   0.00036  -0.00324   0.00096  -0.00226   3.10817
    D5       -1.01407  -0.00041   0.00259  -0.01761  -0.01505  -1.02912
    D6        1.08717   0.00063   0.00203   0.00262   0.00463   1.09180
    D7       -1.07540  -0.00017  -0.00453  -0.00688  -0.01137  -1.08677
    D8        1.08328  -0.00094   0.00130  -0.02545  -0.02416   1.05912
    D9       -3.09867   0.00009   0.00074  -0.00521  -0.00447  -3.10314
   D10        1.19827   0.00060   0.00744   0.08114   0.08872   1.28699
   D11       -0.94891   0.00091   0.00448   0.09061   0.09516  -0.85375
   D12       -3.02715   0.00166   0.00729   0.09579   0.10287  -2.92428
   D13       -1.32098   0.00075   0.00506   0.03450   0.03976  -1.28122
   D14        1.77341   0.00091  -0.00152   0.06788   0.06618   1.83959
   D15        0.85360   0.00177   0.01411   0.02616   0.04048   0.89408
   D16       -2.33519   0.00193   0.00753   0.05953   0.06690  -2.26829
   D17        2.87872  -0.00041   0.00584   0.00844   0.01442   2.89315
   D18       -0.31007  -0.00024  -0.00075   0.04182   0.04084  -0.26923
   D19       -3.08671   0.00119   0.00796   0.03752   0.04544  -3.04127
   D20        0.02787  -0.00021   0.00324  -0.03628  -0.03357  -0.00569
   D21        0.00925   0.00105   0.00166   0.06819   0.07038   0.07964
   D22        3.12384  -0.00035  -0.00306  -0.00561  -0.00862   3.11522
   D23       -2.85367   0.00158   0.00439   0.06750   0.07214  -2.78152
   D24       -0.75261   0.00061   0.00297   0.05187   0.05505  -0.69756
   D25        1.31461   0.00054   0.00172   0.05125   0.05308   1.36769
   D26        0.31525   0.00296   0.00916   0.14185   0.15088   0.46613
   D27        2.41630   0.00199   0.00774   0.12622   0.13379   2.55010
   D28       -1.79966   0.00191   0.00650   0.12559   0.13182  -1.66784
   D29       -2.34423  -0.00008  -0.00655   0.04677   0.04008  -2.30415
   D30        0.88010  -0.00049   0.00430  -0.02109  -0.01665   0.86345
   D31        1.84639   0.00069  -0.00354   0.05883   0.05514   1.90154
   D32       -1.21246   0.00028   0.00731  -0.00903  -0.00159  -1.21405
   D33       -0.20254   0.00126   0.00027   0.06195   0.06207  -0.14046
   D34        3.02180   0.00085   0.01111  -0.00591   0.00534   3.02714
   D35       -0.39593   0.00663   0.01600   0.27272   0.28917  -0.10676
   D36        2.82492   0.00651   0.02622   0.20941   0.23518   3.06010
         Item               Value     Threshold  Converged?
 Maximum Force            0.010026     0.000450     NO 
 RMS     Force            0.002974     0.000300     NO 
 Maximum Displacement     0.742280     0.001800     NO 
 RMS     Displacement     0.133119     0.001200     NO 
 Predicted change in Energy=-5.214382D-03
 Lowest energy point so far.  Saving SCF results.
 GradGradGradGradGradGradGradGradGradGradGradGradGradGradGradGradGradGrad

 Leave Link  103 at Fri Mar 14 15:11:52 2025, MaxMem=  8589934592 cpu:               0.5 elap:               0.2
 (Enter /home/enzo/gaussian_versions/gdv.j21/gdv/l202.exe)
                          Input orientation:                          
 ---------------------------------------------------------------------
 Center     Atomic      Atomic             Coordinates (Angstroms)
 Number     Number       Type             X           Y           Z
 ---------------------------------------------------------------------
      1          6           0        2.449006    1.410687   -1.159854
      2          6           0        1.815099    0.073984   -0.735454
      3         16           0        3.025714   -1.080000    0.038026
      4          6           0        0.657880    0.340883    0.226858
      5          8           0        0.831350    0.691731    1.383601
      6          7           0       -0.591518    0.183354   -0.307078
      7          6           0       -1.780036    0.528209    0.468904
      8          6           0       -3.025317   -0.162584   -0.064747
      9          8           0       -4.063965    0.401046   -0.272138
     10          8           0       -2.897476   -1.498388   -0.269158
     11          1           0        3.269016    1.235480   -1.859588
     12          1           0        1.705814    2.054498   -1.645195
     13          1           0        2.839355    1.939454   -0.286837
     14          1           0        1.463616   -0.462761   -1.623441
     15          1           0        3.104477   -0.401905    1.197760
     16          1           0       -0.688815   -0.085923   -1.274005
     17          1           0       -1.615385    0.201920    1.501565
     18          1           0       -1.955274    1.605881    0.484203
     19          1           0       -1.977694   -1.768686   -0.122562
 ---------------------------------------------------------------------
                    Distance matrix (angstroms):
                    1          2          3          4          5
     1  C    0.000000
     2  C    1.539068   0.000000
     3  S    2.823301   1.842698   0.000000
     4  C    2.505112   1.528540   2.767888   0.000000
     5  O    3.098850   2.416561   3.124874   1.221164   0.000000
     6  N    3.387974   2.446891   3.847015   1.367808   2.267466
     7  C    4.616971   3.818612   5.085983   2.457054   2.771777
     8  C    5.800229   4.892386   6.121045   3.728868   4.207309
     9  O    6.650278   5.906354   7.249361   4.748519   5.175913
    10  O    6.151498   4.989804   5.945888   4.033547   4.629512
    11  H    1.092127   2.174080   3.003594   3.459998   4.093428
    12  H    1.096532   2.182203   3.794792   2.745765   3.434447
    13  H    1.092760   2.174933   3.042591   2.752843   2.894695
    14  H    2.166960   1.095517   2.362542   2.172247   3.282516
    15  H    3.045239   2.371978   1.345734   2.734999   2.529364
    16  H    3.478332   2.566163   4.062922   2.061150   3.158879
    17  H    5.006351   4.097419   5.032401   2.609966   2.498068
    18  H    4.705179   4.248527   5.676554   2.914622   3.067550
    19  H    5.547979   4.261027   5.053135   3.393910   4.026526
                    6          7          8          9         10
     6  N    0.000000
     7  C    1.460701   0.000000
     8  C    2.470177   1.520757   0.000000
     9  O    3.479439   2.404505   1.199783   0.000000
    10  O    2.854318   2.429095   1.357387   2.229025   0.000000
    11  H    4.291967   5.604911   6.692882   7.549098   6.930304
    12  H    3.251073   4.353174   5.458651   6.157072   5.975513
    13  H    3.854243   4.888919   6.233961   7.072675   6.688071
    14  H    2.524648   3.985123   4.761318   5.755547   4.682491
    15  H    4.033292   5.025416   6.263032   7.361514   6.275154
    16  H    1.008426   2.146078   2.632000   3.554224   2.807661
    17  H    2.078422   1.095429   2.138716   3.030053   2.769524
    18  H    2.123567   1.091933   2.138646   2.543669   3.330432
    19  H    2.401247   2.380047   1.918442   3.013741   0.969819
                   11         12         13         14         15
    11  H    0.000000
    12  H    1.777739   0.000000
    13  H    1.775876   1.772932   0.000000
    14  H    2.489831   2.528977   3.074053   0.000000
    15  H    3.472101   4.009061   2.785010   3.264246   0.000000
    16  H    4.213483   3.233176   4.186243   2.212932   4.538560
    17  H    6.018552   4.936042   5.105106   4.437083   4.768018
    18  H    5.737923   4.259009   4.867673   4.517770   5.490123
    19  H    6.290488   5.522987   6.081221   3.975008   5.425846
                   16         17         18         19
    16  H    0.000000
    17  H    2.940268   0.000000
    18  H    2.749075   1.766821   0.000000
    19  H    2.412203   2.579214   3.428755   0.000000
 Stoichiometry    C5H9NO3S
 Framework group  C1[X(C5H9NO3S)]
 Deg. of freedom    51
 Full point group                 C1      NOp   1
 RotChk:  IX=3 Diff= 2.60D-02
 Largest Abelian subgroup         C1      NOp   1
 Largest concise Abelian subgroup C1      NOp   1
                         Standard orientation:                         
 ---------------------------------------------------------------------
 Center     Atomic      Atomic             Coordinates (Angstroms)
 Number     Number       Type             X           Y           Z
 ---------------------------------------------------------------------
      1          6           0       -2.463910   -1.528060   -0.843107
      2          6           0       -1.806571   -0.156201   -0.609361
      3         16           0       -2.987121    1.104258    0.033353
      4          6           0       -0.630559   -0.311579    0.354635
      5          8           0       -0.781262   -0.507299    1.550555
      6          7           0        0.607916   -0.241179   -0.221666
      7          6           0        1.810154   -0.498402    0.567073
      8          6           0        3.050086    0.100813   -0.078071
      9          8           0        4.077794   -0.498704   -0.232583
     10          8           0        2.931569    1.400468   -0.451367
     11          1           0       -3.297788   -1.434068   -1.542073
     12          1           0       -1.738739   -2.239146   -1.256467
     13          1           0       -2.839749   -1.934048    0.099254
     14          1           0       -1.469842    0.256276   -1.566771
     15          1           0       -3.046494    0.583206    1.272699
     16          1           0        0.685945   -0.100737   -1.217211
     17          1           0        1.672507   -0.038939    1.551914
     18          1           0        1.974435   -1.567249    0.718388
     19          1           0        2.018241    1.699694   -0.321577
 ---------------------------------------------------------------------
 Rotational constants (GHZ):           2.4953410           0.4634695           0.4414189
 Leave Link  202 at Fri Mar 14 15:11:52 2025, MaxMem=  8589934592 cpu:               0.1 elap:               0.2
 (Enter /home/enzo/gaussian_versions/gdv.j21/gdv/l301.exe)
 Standard basis: 6-31G(d) (6D, 7F)
 Ernie: Thresh=  0.10000D-02 Tol=  0.10000D-05 Strict=F.
 There are   172 symmetry adapted cartesian basis functions of A   symmetry.
 There are   172 symmetry adapted basis functions of A   symmetry.
   172 basis functions,   340 primitive gaussians,   172 cartesian basis functions
    43 alpha electrons       43 beta electrons
       nuclear repulsion energy       610.8200258382 Hartrees.
 IExCor=      4002 DFT=T Ex+Corr=B3LYP ScaHFX=  0.200000
 ScaDFX=  0.800000  0.720000  1.000000  0.810000  1.000000  0.000000
 ScaDFX=  0.000000  0.000000  0.000000  0.000000  0.000000  0.000000
 IRadAn=      5 IRanWt=     -1 IRanGd=            0 ICorTp=0 IEmpDi=  4
 NAtoms=   19 NActive=   19 NUniq=   19 SFac= 1.00D+00 NAtFMM=   60 NAOKFM=F Big=F
 Integral buffers will be    131072 words long.
 Raffenetti 2 integral format.
 Two-electron integral symmetry is turned on.
 Leave Link  301 at Fri Mar 14 15:11:52 2025, MaxMem=  8589934592 cpu:               0.5 elap:               0.2
 (Enter /home/enzo/gaussian_versions/gdv.j21/gdv/l302.exe)
 NPDir=0 NMtPBC=     1 NCelOv=     1 NCel=       1 NClECP=     1 NCelD=      1
         NCelK=      1 NCelE2=     1 NClLst=     1 CellRange=     0.0.
 One-electron integrals computed using PRISM.
 One-electron integral symmetry used in STVInt
 NBasis=   172 RedAO= T EigKep=  2.73D-03  NBF=   172
 NBsUse=   172 1.00D-06 EigRej= -1.00D+00 NBFU=   172
 Precomputing XC quadrature grid using
 IXCGrd= 4 IRadAn=           5 IRanWt=          -1 IRanGd=           0 AccXCQ= 0.00D+00.
 Generated NRdTot=       0 NPtTot=      406827 NUsed=           0 NTot=          64
 NSgBfM=   171   171   171   171   171 MxSgAt=    19 MxSgA2=    19 SizInc=   0.000
 NMBTot=     3427 MaxBatPerAtom=       85 MaxMicBPerAtom=      210 NBfPt=            50744637.
 Leave Link  302 at Fri Mar 14 15:11:53 2025, MaxMem=  8589934592 cpu:               3.0 elap:               0.5
 (Enter /home/enzo/gaussian_versions/gdv.j21/gdv/l303.exe)
 DipDrv:  MaxL=1.
 Leave Link  303 at Fri Mar 14 15:11:53 2025, MaxMem=  8589934592 cpu:               0.4 elap:               0.2
 (Enter /home/enzo/gaussian_versions/gdv.j21/gdv/l401.exe)
 Initial guess from the checkpoint file:  "/local/home/enzo/scratch/Gau-2337715.chk"
 B after Tr=     0.000000    0.000000   -0.000000
         Rot=    0.999936    0.011143   -0.001845    0.001150 Ang=   1.30 deg.
 AO Guess basis will be translated and rotated to current coordinates.
 JPrj=2 DoOrth=T DoCkMO=T.
 Generating alternative initial guess.
 ExpMin= 1.17D-01 ExpMax= 2.19D+04 ExpMxC= 3.30D+03 IAcc=3 IRadAn=         5 AccDes= 0.00D+00
 Harris functional with IExCor= 4002 and IRadAn=       5 diagonalized for initial guess.
 HarFok:  IExCor=    4002 AccDes= 0.00D+00 IRadAn=         5 IDoV= 1 UseB2=F ITyADJ=14 ICtDFT=  3500011
 FoFCou: FMM=F IPFlag=           0 FMFlag=      100000 FMFlg1=           0
         NFxFlg=           0 DoJE=T BraDBF=F KetDBF=T FulRan=T
         wScrn=  0.000000 ICntrl=       500 IOpCl=  0 I1Cent=   200000004 NGrid=           0
         NMat0=    1 NMatS0=      1 NMatT0=    0 NMatD0=    1 NMtDS0=    0 NMtDT0=    0
 Petite list used in FoFCou.
 Harris En= -874.543818553150    
 Leave Link  401 at Fri Mar 14 15:11:54 2025, MaxMem=  8589934592 cpu:               7.2 elap:               1.0
 (Enter /home/enzo/gaussian_versions/gdv.j21/gdv/l502.exe)
 Integral symmetry usage will be decided dynamically.
 Closed shell SCF:
 Using DIIS extrapolation, IDIIS=  1040.
 NGot=  8589934592 LenX=  8589843591 LenY=  8589813566
 Requested convergence on RMS density matrix=1.00D-08 within 128 cycles.
 Requested convergence on MAX density matrix=1.00D-06.
 Requested convergence on             energy=1.00D-06.
 No special actions if energy rises.
 Fock matrices will be formed incrementally for  20 cycles.
 Integral accuracy reduced to 1.0D-05 until final iterations.

 Cycle   1  Pass 0  IDiag  1:
 FoFJK:  IHMeth= 1 ICntrl=       0 DoSepK=F KAlg= 0 I1Cent=           0 FoldK=F
 IRaf= 890000000 NMat=       1 IRICut=       1 DoRegI=T DoRafI=F ISym2E= 0 IDoP0=0 IntGTp=1.
 FoFCou: FMM=F IPFlag=           0 FMFlag=      100000 FMFlg1=           0
         NFxFlg=           0 DoJE=F BraDBF=F KetDBF=F FulRan=T
         wScrn=  0.000000 ICntrl=         0 IOpCl=  0 I1Cent=           0 NGrid=           0
         NMat0=    1 NMatS0=      1 NMatT0=    0 NMatD0=    1 NMtDS0=    0 NMtDT0=    0
 Symmetry not used in FoFCou.
 E= -874.541749951839    
 DIIS: error= 9.66D-03 at cycle   1 NSaved=   1.
 NSaved= 1 IEnMin= 1 EnMin= -874.541749951839     IErMin= 1 ErrMin= 9.66D-03
 ErrMax= 9.66D-03  0.00D+00 EMaxC= 1.00D-01 BMatC= 1.74D-02 BMatP= 1.74D-02
 IDIUse=3 WtCom= 9.03D-01 WtEn= 9.66D-02
 Coeff-Com:  0.100D+01
 Coeff-En:   0.100D+01
 Coeff:      0.100D+01
 Gap=     1.556 Goal=   None    Shift=    0.000
 GapD=    1.556 DampG=2.000 DampE=1.000 DampFc=2.0000 IDamp=-1.
 RMSDP=1.35D-03 MaxDP=5.40D-02              OVMax= 4.87D-02

 Cycle   2  Pass 0  IDiag  1:
 RMSU=  1.35D-03    CP:  9.97D-01
 E= -874.573143926944     Delta-E=       -0.031393975105 Rises=F Damp=F
 DIIS: error= 1.79D-03 at cycle   2 NSaved=   2.
 NSaved= 2 IEnMin= 2 EnMin= -874.573143926944     IErMin= 2 ErrMin= 1.79D-03
 ErrMax= 1.79D-03  0.00D+00 EMaxC= 1.00D-01 BMatC= 4.36D-04 BMatP= 1.74D-02
 IDIUse=3 WtCom= 9.82D-01 WtEn= 1.79D-02
 Coeff-Com: -0.339D-01 0.103D+01
 Coeff-En:   0.000D+00 0.100D+01
 Coeff:     -0.332D-01 0.103D+01
 Gap=     0.233 Goal=   None    Shift=    0.000
 RMSDP=3.00D-04 MaxDP=7.75D-03 DE=-3.14D-02 OVMax= 1.47D-02

 Cycle   3  Pass 0  IDiag  1:
 RMSU=  2.82D-04    CP:  9.97D-01  1.08D+00
 E= -874.573023658735     Delta-E=        0.000120268209 Rises=F Damp=F
 DIIS: error= 2.01D-03 at cycle   3 NSaved=   3.
 NSaved= 3 IEnMin= 2 EnMin= -874.573143926944     IErMin= 2 ErrMin= 1.79D-03
 ErrMax= 2.01D-03  0.00D+00 EMaxC= 1.00D-01 BMatC= 9.35D-04 BMatP= 4.36D-04
 IDIUse=3 WtCom= 1.82D-01 WtEn= 8.18D-01
 Coeff-Com: -0.414D-01 0.645D+00 0.396D+00
 Coeff-En:   0.000D+00 0.560D+00 0.440D+00
 Coeff:     -0.755D-02 0.575D+00 0.432D+00
 Gap=     0.232 Goal=   None    Shift=    0.000
 RMSDP=2.02D-04 MaxDP=6.51D-03 DE= 1.20D-04 OVMax= 1.28D-02

 Cycle   4  Pass 0  IDiag  1:
 RMSU=  1.08D-04    CP:  9.97D-01  1.10D+00  4.08D-01
 E= -874.573627255496     Delta-E=       -0.000603596761 Rises=F Damp=F
 DIIS: error= 6.56D-04 at cycle   4 NSaved=   4.
 NSaved= 4 IEnMin= 4 EnMin= -874.573627255496     IErMin= 4 ErrMin= 6.56D-04
 ErrMax= 6.56D-04  0.00D+00 EMaxC= 1.00D-01 BMatC= 1.45D-04 BMatP= 4.36D-04
 IDIUse=3 WtCom= 9.93D-01 WtEn= 6.56D-03
 Coeff-Com: -0.192D-01 0.201D+00 0.296D+00 0.523D+00
 Coeff-En:   0.000D+00 0.000D+00 0.164D+00 0.836D+00
 Coeff:     -0.190D-01 0.200D+00 0.295D+00 0.525D+00
 Gap=     0.232 Goal=   None    Shift=    0.000
 RMSDP=6.53D-05 MaxDP=2.38D-03 DE=-6.04D-04 OVMax= 4.01D-03

 Cycle   5  Pass 0  IDiag  1:
 RMSU=  3.47D-05    CP:  9.97D-01  1.10D+00  5.52D-01  6.64D-01
 E= -874.573734491751     Delta-E=       -0.000107236255 Rises=F Damp=F
 DIIS: error= 1.10D-04 at cycle   5 NSaved=   5.
 NSaved= 5 IEnMin= 5 EnMin= -874.573734491751     IErMin= 5 ErrMin= 1.10D-04
 ErrMax= 1.10D-04  0.00D+00 EMaxC= 1.00D-01 BMatC= 6.99D-06 BMatP= 1.45D-04
 IDIUse=3 WtCom= 9.99D-01 WtEn= 1.10D-03
 Coeff-Com: -0.701D-02 0.572D-01 0.133D+00 0.303D+00 0.513D+00
 Coeff-En:   0.000D+00 0.000D+00 0.000D+00 0.000D+00 0.100D+01
 Coeff:     -0.701D-02 0.571D-01 0.133D+00 0.303D+00 0.514D+00
 Gap=     0.232 Goal=   None    Shift=    0.000
 RMSDP=1.59D-05 MaxDP=5.97D-04 DE=-1.07D-04 OVMax= 6.25D-04

 Cycle   6  Pass 0  IDiag  1:
 RMSU=  9.59D-06    CP:  9.97D-01  1.10D+00  5.59D-01  7.24D-01  6.98D-01
 E= -874.573739969469     Delta-E=       -0.000005477718 Rises=F Damp=F
 DIIS: error= 3.16D-05 at cycle   6 NSaved=   6.
 NSaved= 6 IEnMin= 6 EnMin= -874.573739969469     IErMin= 6 ErrMin= 3.16D-05
 ErrMax= 3.16D-05  0.00D+00 EMaxC= 1.00D-01 BMatC= 4.76D-07 BMatP= 6.99D-06
 IDIUse=1 WtCom= 1.00D+00 WtEn= 0.00D+00
 Coeff-Com: -0.413D-03-0.281D-02 0.172D-01 0.609D-01 0.238D+00 0.688D+00
 Coeff:     -0.413D-03-0.281D-02 0.172D-01 0.609D-01 0.238D+00 0.688D+00
 Gap=     0.232 Goal=   None    Shift=    0.000
 RMSDP=5.79D-06 MaxDP=1.41D-04 DE=-5.48D-06 OVMax= 2.30D-04

 Initial convergence to 1.0D-05 achieved.  Increase integral accuracy.
 Cycle   7  Pass 1  IDiag  1:
 E= -874.573718817565     Delta-E=        0.000021151904 Rises=F Damp=F
 DIIS: error= 1.47D-05 at cycle   1 NSaved=   1.
 NSaved= 1 IEnMin= 1 EnMin= -874.573718817565     IErMin= 1 ErrMin= 1.47D-05
 ErrMax= 1.47D-05  0.00D+00 EMaxC= 1.00D-01 BMatC= 1.23D-07 BMatP= 1.23D-07
 IDIUse=1 WtCom= 1.00D+00 WtEn= 0.00D+00
 Coeff-Com:  0.100D+01
 Coeff:      0.100D+01
 Gap=     0.232 Goal=   None    Shift=    0.000
 RMSDP=5.79D-06 MaxDP=1.41D-04 DE= 2.12D-05 OVMax= 2.38D-04

 Cycle   8  Pass 1  IDiag  1:
 RMSU=  8.13D-06    CP:  1.00D+00
 E= -874.573718665202     Delta-E=        0.000000152363 Rises=F Damp=F
 DIIS: error= 2.85D-05 at cycle   2 NSaved=   2.
 NSaved= 2 IEnMin= 1 EnMin= -874.573718817565     IErMin= 1 ErrMin= 1.47D-05
 ErrMax= 2.85D-05  0.00D+00 EMaxC= 1.00D-01 BMatC= 3.24D-07 BMatP= 1.23D-07
 IDIUse=1 WtCom= 1.00D+00 WtEn= 0.00D+00
 Coeff-Com:  0.627D+00 0.373D+00
 Coeff:      0.627D+00 0.373D+00
 Gap=     0.232 Goal=   None    Shift=    0.000
 RMSDP=3.63D-06 MaxDP=1.26D-04 DE= 1.52D-07 OVMax= 1.73D-04

 Cycle   9  Pass 1  IDiag  1:
 RMSU=  2.77D-06    CP:  1.00D+00  7.13D-01
 E= -874.573718921592     Delta-E=       -0.000000256390 Rises=F Damp=F
 DIIS: error= 6.58D-06 at cycle   3 NSaved=   3.
 NSaved= 3 IEnMin= 3 EnMin= -874.573718921592     IErMin= 3 ErrMin= 6.58D-06
 ErrMax= 6.58D-06  0.00D+00 EMaxC= 1.00D-01 BMatC= 1.27D-08 BMatP= 1.23D-07
 IDIUse=1 WtCom= 1.00D+00 WtEn= 0.00D+00
 Coeff-Com:  0.234D+00 0.199D+00 0.567D+00
 Coeff:      0.234D+00 0.199D+00 0.567D+00
 Gap=     0.232 Goal=   None    Shift=    0.000
 RMSDP=7.61D-07 MaxDP=2.41D-05 DE=-2.56D-07 OVMax= 2.85D-05

 Cycle  10  Pass 1  IDiag  1:
 RMSU=  7.00D-07    CP:  1.00D+00  7.35D-01  9.17D-01
 E= -874.573718929870     Delta-E=       -0.000000008278 Rises=F Damp=F
 DIIS: error= 2.70D-06 at cycle   4 NSaved=   4.
 NSaved= 4 IEnMin= 4 EnMin= -874.573718929870     IErMin= 4 ErrMin= 2.70D-06
 ErrMax= 2.70D-06  0.00D+00 EMaxC= 1.00D-01 BMatC= 2.22D-09 BMatP= 1.27D-08
 IDIUse=1 WtCom= 1.00D+00 WtEn= 0.00D+00
 Coeff-Com:  0.119D-01 0.414D-01 0.330D+00 0.616D+00
 Coeff:      0.119D-01 0.414D-01 0.330D+00 0.616D+00
 Gap=     0.232 Goal=   None    Shift=    0.000
 RMSDP=2.79D-07 MaxDP=8.01D-06 DE=-8.28D-09 OVMax= 9.70D-06

 Cycle  11  Pass 1  IDiag  1:
 RMSU=  1.53D-07    CP:  1.00D+00  7.39D-01  9.33D-01  6.78D-01
 E= -874.573718931646     Delta-E=       -0.000000001776 Rises=F Damp=F
 DIIS: error= 9.57D-07 at cycle   5 NSaved=   5.
 NSaved= 5 IEnMin= 5 EnMin= -874.573718931646     IErMin= 5 ErrMin= 9.57D-07
 ErrMax= 9.57D-07  0.00D+00 EMaxC= 1.00D-01 BMatC= 1.94D-10 BMatP= 2.22D-09
 IDIUse=1 WtCom= 1.00D+00 WtEn= 0.00D+00
 Coeff-Com: -0.363D-02 0.156D-01 0.171D+00 0.369D+00 0.449D+00
 Coeff:     -0.363D-02 0.156D-01 0.171D+00 0.369D+00 0.449D+00
 Gap=     0.232 Goal=   None    Shift=    0.000
 RMSDP=8.15D-08 MaxDP=2.40D-06 DE=-1.78D-09 OVMax= 3.50D-06

 Cycle  12  Pass 1  IDiag  1:
 RMSU=  5.33D-08    CP:  1.00D+00  7.41D-01  9.29D-01  6.77D-01  6.17D-01
 E= -874.573718931810     Delta-E=       -0.000000000164 Rises=F Damp=F
 DIIS: error= 1.50D-07 at cycle   6 NSaved=   6.
 NSaved= 6 IEnMin= 6 EnMin= -874.573718931810     IErMin= 6 ErrMin= 1.50D-07
 ErrMax= 1.50D-07  0.00D+00 EMaxC= 1.00D-01 BMatC= 8.40D-12 BMatP= 1.94D-10
 IDIUse=1 WtCom= 1.00D+00 WtEn= 0.00D+00
 Coeff-Com: -0.284D-02 0.451D-02 0.593D-01 0.136D+00 0.224D+00 0.579D+00
 Coeff:     -0.284D-02 0.451D-02 0.593D-01 0.136D+00 0.224D+00 0.579D+00
 Gap=     0.232 Goal=   None    Shift=    0.000
 RMSDP=2.26D-08 MaxDP=8.37D-07 DE=-1.64D-10 OVMax= 1.24D-06

 Cycle  13  Pass 1  IDiag  1:
 RMSU=  2.06D-08    CP:  1.00D+00  7.41D-01  9.31D-01  6.81D-01  6.59D-01
                    CP:  9.24D-01
 E= -874.573718931803     Delta-E=        0.000000000006 Rises=F Damp=F
 DIIS: error= 9.51D-08 at cycle   7 NSaved=   7.
 NSaved= 7 IEnMin= 6 EnMin= -874.573718931810     IErMin= 7 ErrMin= 9.51D-08
 ErrMax= 9.51D-08  0.00D+00 EMaxC= 1.00D-01 BMatC= 2.56D-12 BMatP= 8.40D-12
 IDIUse=1 WtCom= 1.00D+00 WtEn= 0.00D+00
 Coeff-Com: -0.112D-02-0.127D-05 0.591D-02 0.183D-01 0.584D-01 0.373D+00
 Coeff-Com:  0.546D+00
 Coeff:     -0.112D-02-0.127D-05 0.591D-02 0.183D-01 0.584D-01 0.373D+00
 Coeff:      0.546D+00
 Gap=     0.232 Goal=   None    Shift=    0.000
 RMSDP=1.06D-08 MaxDP=3.54D-07 DE= 6.37D-12 OVMax= 6.08D-07

 Cycle  14  Pass 1  IDiag  1:
 RMSU=  7.87D-09    CP:  1.00D+00  7.41D-01  9.31D-01  6.82D-01  6.72D-01
                    CP:  1.01D+00  7.75D-01
 E= -874.573718931814     Delta-E=       -0.000000000011 Rises=F Damp=F
 DIIS: error= 3.35D-08 at cycle   8 NSaved=   8.
 NSaved= 8 IEnMin= 8 EnMin= -874.573718931814     IErMin= 8 ErrMin= 3.35D-08
 ErrMax= 3.35D-08  0.00D+00 EMaxC= 1.00D-01 BMatC= 3.91D-13 BMatP= 2.56D-12
 IDIUse=1 WtCom= 1.00D+00 WtEn= 0.00D+00
 Coeff-Com: -0.259D-04-0.101D-02-0.979D-02-0.197D-01-0.150D-01 0.950D-01
 Coeff-Com:  0.331D+00 0.619D+00
 Coeff:     -0.259D-04-0.101D-02-0.979D-02-0.197D-01-0.150D-01 0.950D-01
 Coeff:      0.331D+00 0.619D+00
 Gap=     0.232 Goal=   None    Shift=    0.000
 RMSDP=4.61D-09 MaxDP=1.98D-07 DE=-1.07D-11 OVMax= 2.51D-07

 SCF Done:  E(RB3LYP) =  -874.573718932     A.U. after   14 cycles
            NFock= 14  Conv=0.46D-08     -V/T= 2.0063
 KE= 8.690759495232D+02 PE=-3.280705223806D+03 EE= 9.262355295125D+02
 Leave Link  502 at Fri Mar 14 15:12:06 2025, MaxMem=  8589934592 cpu:              92.6 elap:              12.2
 (Enter /home/enzo/gaussian_versions/gdv.j21/gdv/l701.exe)
 ... and contract with generalized density number  0.
 Compute integral first derivatives.
 Leave Link  701 at Fri Mar 14 15:12:07 2025, MaxMem=  8589934592 cpu:               2.5 elap:               0.5
 (Enter /home/enzo/gaussian_versions/gdv.j21/gdv/l702.exe)
 L702 exits ... SP integral derivatives will be done elsewhere.
 Leave Link  702 at Fri Mar 14 15:12:07 2025, MaxMem=  8589934592 cpu:               0.4 elap:               0.3
 (Enter /home/enzo/gaussian_versions/gdv.j21/gdv/l703.exe)
 Integral derivatives from FoFJK, PRISM(SPDF).
 Compute integral first derivatives, UseDBF=F ICtDFT=           0.
 Calling FoFJK, ICntrl=      2127 FMM=F ISym2X=0 I1Cent= 0 IOpClX= 0 NMat=1 NMatS=1 NMatT=0.
 FoFJK:  IHMeth= 1 ICntrl=    2127 DoSepK=F KAlg= 0 I1Cent=           0 FoldK=F
 IRaf=         0 NMat=       1 IRICut=       1 DoRegI=T DoRafI=F ISym2E= 0 IDoP0=0 IntGTp=1.
 FoFCou: FMM=F IPFlag=           0 FMFlag=      100000 FMFlg1=         800
         NFxFlg=           0 DoJE=F BraDBF=F KetDBF=F FulRan=T
         wScrn=  0.000000 ICntrl=      2127 IOpCl=  0 I1Cent=           0 NGrid=           0
         NMat0=    1 NMatS0=      1 NMatT0=    0 NMatD0=    1 NMtDS0=    0 NMtDT0=    0
 Symmetry not used in FoFCou.
 Leave Link  703 at Fri Mar 14 15:12:09 2025, MaxMem=  8589934592 cpu:              15.0 elap:               2.1
 (Enter /home/enzo/gaussian_versions/gdv.j21/gdv/l716.exe)
 Dipole        =-8.44371427D-01-1.28630333D-01-6.91178602D-01
 ***** Axes restored to original set *****
 -------------------------------------------------------------------
 Center     Atomic                   Forces (Hartrees/Bohr)
 Number     Number              X              Y              Z
 -------------------------------------------------------------------
      1        6           0.000038701   -0.001664470    0.000341099
      2        6           0.002142716    0.003141971   -0.001812320
      3       16           0.000566234   -0.002202194   -0.002057986
      4        6           0.001703070   -0.003716472    0.000516652
      5        8           0.000251315    0.002482006    0.001533104
      6        7          -0.003694285   -0.005140224    0.004578794
      7        6           0.001804475    0.001903643   -0.001348635
      8        6           0.002768605   -0.001971271   -0.000391757
      9        8          -0.005468735    0.001915619    0.000550481
     10        8          -0.002534864   -0.000489205   -0.003808271
     11        1           0.000636488   -0.000063751   -0.000261289
     12        1          -0.000567647    0.000237006   -0.000423692
     13        1           0.000085191    0.000154271    0.000704977
     14        1          -0.000462077   -0.000067632   -0.000026144
     15        1          -0.000369506    0.001117687    0.002003036
     16        1          -0.000744493    0.003396865   -0.003190804
     17        1           0.001741689    0.001202570    0.000894312
     18        1          -0.001363378    0.000871553   -0.000697044
     19        1           0.003466502   -0.001107973    0.002895485
 -------------------------------------------------------------------
 Cartesian Forces:  Max     0.005468735 RMS     0.002100739
 Leave Link  716 at Fri Mar 14 15:12:09 2025, MaxMem=  8589934592 cpu:               0.2 elap:               0.2
 (Enter /home/enzo/gaussian_versions/gdv.j21/gdv/l103.exe)

 GradGradGradGradGradGradGradGradGradGradGradGradGradGradGradGradGradGrad
 Berny optimization.
 Using GEDIIS/GDIIS optimizer.
 FormGI is forming the generalized inverse of G from B-inverse, IUseBI=4.
 Internal  Forces:  Max     0.005539219 RMS     0.001375007
 Search for a local minimum.
 Step number   3 out of a maximum of   93
 All quantities printed in internal units (Hartrees-Bohrs-Radians)
 RMS Force = .13750D-02 SwitMx=.10000D-02 MixMth= 1
 Mixed Optimization -- RFO/linear search
 Update second derivatives using D2CorX and points    2    3
 DE= -5.25D-03 DEPred=-5.21D-03 R= 1.01D+00
 TightC=F SS=  1.41D+00  RLast= 5.30D-01 DXNew= 8.4853D-01 1.5910D+00
 Trust test= 1.01D+00 RLast= 5.30D-01 DXMaxT set to 8.49D-01
 ITU=  1  1  0
 Use linear search instead of GDIIS.
     Eigenvalues ---    0.00238   0.00449   0.00697   0.00797   0.00891
     Eigenvalues ---    0.00976   0.01066   0.01140   0.01284   0.01907
     Eigenvalues ---    0.04942   0.05128   0.05264   0.05670   0.05702
     Eigenvalues ---    0.06671   0.07724   0.09957   0.13264   0.15471
     Eigenvalues ---    0.15978   0.16000   0.16000   0.16057   0.16164
     Eigenvalues ---    0.17593   0.20152   0.21538   0.22011   0.22469
     Eigenvalues ---    0.23688   0.24758   0.24995   0.25283   0.26741
     Eigenvalues ---    0.30075   0.31924   0.32575   0.32581   0.32601
     Eigenvalues ---    0.32621   0.32649   0.32756   0.32961   0.37097
     Eigenvalues ---    0.40653   0.42220   0.46447   0.49172   0.79744
     Eigenvalues ---    0.81316
 RFO step:  Lambda=-2.22209999D-03 EMin= 2.38192046D-03
 Quartic linear search produced a step of  0.28632.
 Iteration  1 RMS(Cart)=  0.11357893 RMS(Int)=  0.00412690
 Iteration  2 RMS(Cart)=  0.00606308 RMS(Int)=  0.00028091
 Iteration  3 RMS(Cart)=  0.00002014 RMS(Int)=  0.00028071
 Iteration  4 RMS(Cart)=  0.00000000 RMS(Int)=  0.00028071
 Variable       Old X    -DE/DX   Delta X   Delta X   Delta X     New X
                                 (Linear)    (Quad)   (Total)
    R1        2.90842  -0.00118   0.00017  -0.00469  -0.00453   2.90389
    R2        2.06382   0.00066  -0.00148   0.00281   0.00132   2.06514
    R3        2.07215   0.00071  -0.00179   0.00320   0.00141   2.07356
    R4        2.06502   0.00067  -0.00136   0.00281   0.00145   2.06646
    R5        3.48219   0.00079   0.00201   0.00348   0.00549   3.48768
    R6        2.88852   0.00242   0.00451   0.00787   0.01238   2.90090
    R7        2.07023   0.00020  -0.00206   0.00137  -0.00070   2.06953
    R8        2.54307   0.00227  -0.00572   0.01422   0.00850   2.55157
    R9        2.30767   0.00220  -0.00397   0.00438   0.00041   2.30808
   R10        2.58478   0.00381  -0.00397   0.01216   0.00819   2.59297
   R11        2.76033  -0.00080   0.00045  -0.00282  -0.00238   2.75795
   R12        1.90565   0.00222  -0.00290   0.00736   0.00446   1.91011
   R13        2.87382   0.00246   0.00617   0.00714   0.01331   2.88712
   R14        2.07006   0.00075  -0.00210   0.00344   0.00134   2.07140
   R15        2.06345   0.00107  -0.00141   0.00433   0.00293   2.06638
   R16        2.26726   0.00554  -0.00599   0.00998   0.00398   2.27124
   R17        2.56509   0.00180   0.00029   0.00409   0.00438   2.56947
   R18        1.83269   0.00403  -0.00341   0.01163   0.00823   1.84092
    A1        1.92474   0.00019   0.00094   0.00126   0.00220   1.92694
    A2        1.93139  -0.00019  -0.00189  -0.00034  -0.00224   1.92915
    A3        1.92526  -0.00039  -0.00096  -0.00302  -0.00399   1.92127
    A4        1.89600   0.00007   0.00198   0.00041   0.00240   1.89840
    A5        1.89788   0.00008   0.00060  -0.00007   0.00054   1.89842
    A6        1.88769   0.00026  -0.00060   0.00181   0.00118   1.88887
    A7        1.97040  -0.00005   0.00264  -0.00022   0.00243   1.97283
    A8        1.91110   0.00071  -0.00065   0.00582   0.00515   1.91625
    A9        1.91151   0.00016   0.00498   0.00225   0.00722   1.91873
   A10        1.92034  -0.00049  -0.00390  -0.00187  -0.00578   1.91456
   A11        1.81748  -0.00011  -0.00540  -0.00287  -0.00831   1.80918
   A12        1.93152  -0.00028   0.00240  -0.00368  -0.00139   1.93013
   A13        1.65553  -0.00075   0.00425  -0.00732  -0.00307   1.65246
   A14        2.14001  -0.00049  -0.00191  -0.00159  -0.00410   2.13592
   A15        2.01050   0.00107  -0.00962   0.00809  -0.00213   2.00837
   A16        2.13248  -0.00058   0.01175  -0.00779   0.00337   2.13585
   A17        2.10442   0.00191  -0.00014   0.00919   0.00782   2.11224
   A18        2.08654  -0.00019   0.00223  -0.00242  -0.00150   2.08504
   A19        2.08738  -0.00179  -0.00339  -0.01233  -0.01691   2.07047
   A20        1.95262  -0.00281   0.00051  -0.01630  -0.01587   1.93675
   A21        1.88407  -0.00071  -0.00209  -0.01398  -0.01611   1.86796
   A22        1.95091   0.00189   0.00363   0.01599   0.01968   1.97059
   A23        1.89503   0.00165  -0.00311   0.00992   0.00660   1.90163
   A24        1.89844   0.00049   0.00195   0.00456   0.00652   1.90496
   A25        1.88062  -0.00043  -0.00113   0.00021  -0.00087   1.87975
   A26        2.16054   0.00140   0.00329   0.00595   0.00909   2.16963
   A27        2.00727  -0.00182  -0.01321  -0.00434  -0.01770   1.98957
   A28        2.11508   0.00042   0.01066  -0.00226   0.00825   2.12334
   A29        1.91860  -0.00077  -0.01377  -0.00165  -0.01542   1.90319
    D1        1.00990  -0.00011  -0.00252  -0.01475  -0.01727   0.99264
    D2       -3.12739  -0.00025  -0.00618  -0.01305  -0.01925   3.13655
    D3       -1.00647  -0.00005  -0.00055  -0.01250  -0.01304  -1.01951
    D4        3.10817  -0.00002  -0.00065  -0.01363  -0.01428   3.09389
    D5       -1.02912  -0.00016  -0.00431  -0.01193  -0.01626  -1.04538
    D6        1.09180   0.00004   0.00133  -0.01138  -0.01005   1.08175
    D7       -1.08677  -0.00007  -0.00325  -0.01355  -0.01679  -1.10356
    D8        1.05912  -0.00021  -0.00692  -0.01185  -0.01877   1.04035
    D9       -3.10314  -0.00001  -0.00128  -0.01129  -0.01256  -3.11570
   D10        1.28699   0.00049   0.02540   0.02934   0.05475   1.34174
   D11       -0.85375  -0.00004   0.02725   0.02334   0.05064  -0.80311
   D12       -2.92428   0.00059   0.02945   0.03015   0.05953  -2.86474
   D13       -1.28122   0.00102   0.01139   0.09773   0.10909  -1.17213
   D14        1.83959   0.00046   0.01895   0.02883   0.04780   1.88739
   D15        0.89408   0.00112   0.01159   0.10018   0.11174   1.00583
   D16       -2.26829   0.00056   0.01915   0.03128   0.05045  -2.21784
   D17        2.89315   0.00055   0.00413   0.09350   0.09760   2.99075
   D18       -0.26923  -0.00001   0.01169   0.02459   0.03631  -0.23292
   D19       -3.04127   0.00050   0.01301   0.03909   0.05236  -2.98891
   D20       -0.00569  -0.00044  -0.00961  -0.02219  -0.03203  -0.03773
   D21        0.07964  -0.00006   0.02015  -0.02940  -0.00902   0.07062
   D22        3.11522  -0.00100  -0.00247  -0.09069  -0.09342   3.02180
   D23       -2.78152   0.00094   0.02066   0.08635   0.10715  -2.67438
   D24       -0.69756   0.00084   0.01576   0.07984   0.09596  -0.60160
   D25        1.36769   0.00097   0.01520   0.08063   0.09604   1.46373
   D26        0.46613   0.00178   0.04320   0.14707   0.18994   0.65607
   D27        2.55010   0.00168   0.03831   0.14055   0.17875   2.72885
   D28       -1.66784   0.00181   0.03774   0.14135   0.17883  -1.48901
   D29       -2.30415  -0.00124   0.01148  -0.08015  -0.06871  -2.37286
   D30        0.86345  -0.00114  -0.00477  -0.05160  -0.05635   0.80710
   D31        1.90154   0.00028   0.01579  -0.05936  -0.04357   1.85796
   D32       -1.21405   0.00037  -0.00045  -0.03081  -0.03122  -1.24526
   D33       -0.14046  -0.00039   0.01777  -0.06761  -0.04988  -0.19034
   D34        3.02714  -0.00030   0.00153  -0.03906  -0.03752   2.98963
   D35       -0.10676   0.00192   0.08279   0.04450   0.12739   0.02063
   D36        3.06010   0.00200   0.06734   0.07210   0.13935  -3.08373
         Item               Value     Threshold  Converged?
 Maximum Force            0.005539     0.000450     NO 
 RMS     Force            0.001375     0.000300     NO 
 Maximum Displacement     0.394958     0.001800     NO 
 RMS     Displacement     0.113408     0.001200     NO 
 Predicted change in Energy=-1.787131D-03
 Lowest energy point so far.  Saving SCF results.
 GradGradGradGradGradGradGradGradGradGradGradGradGradGradGradGradGradGrad

 Leave Link  103 at Fri Mar 14 15:12:10 2025, MaxMem=  8589934592 cpu:               0.5 elap:               0.2
 (Enter /home/enzo/gaussian_versions/gdv.j21/gdv/l202.exe)
                          Input orientation:                          
 ---------------------------------------------------------------------
 Center     Atomic      Atomic             Coordinates (Angstroms)
 Number     Number       Type             X           Y           Z
 ---------------------------------------------------------------------
      1          6           0        2.485558    1.425644   -1.113255
      2          6           0        1.800910    0.092368   -0.774146
      3         16           0        2.960490   -1.154206   -0.061635
      4          6           0        0.641034    0.336935    0.201239
      5          8           0        0.820034    0.715774    1.348503
      6          7           0       -0.612428    0.196624   -0.339051
      7          6           0       -1.802883    0.580639    0.412831
      8          6           0       -3.019959   -0.222755   -0.042641
      9          8           0       -4.107408    0.248949   -0.241361
     10          8           0       -2.787291   -1.556710   -0.166059
     11          1           0        3.316791    1.262355   -1.803657
     12          1           0        1.771723    2.117692   -1.577505
     13          1           0        2.871068    1.892073   -0.202417
     14          1           0        1.439046   -0.385309   -1.690787
     15          1           0        2.994495   -0.585856    1.162680
     16          1           0       -0.708928   -0.018794   -1.321892
     17          1           0       -1.602722    0.356848    1.467045
     18          1           0       -2.028598    1.647847    0.336528
     19          1           0       -1.865086   -1.743236    0.086441
 ---------------------------------------------------------------------
                    Distance matrix (angstroms):
                    1          2          3          4          5
     1  C    0.000000
     2  C    1.536672   0.000000
     3  S    2.826144   1.845601   0.000000
     4  C    2.513056   1.535090   2.769924   0.000000
     5  O    3.055836   2.419998   3.172833   1.221382   0.000000
     6  N    3.421607   2.454460   3.829810   1.372140   2.273610
     7  C    4.629653   3.825525   5.091613   2.465136   2.788088
     8  C    5.845866   4.886223   6.052580   3.711550   4.190663
     9  O    6.753667   5.934358   7.208074   4.769837   5.198584
    10  O    6.131440   4.913331   5.762804   3.933728   4.524475
    11  H    1.092825   2.174088   3.000226   3.469248   4.058159
    12  H    1.097278   2.179031   3.796887   2.759254   3.381214
    13  H    1.093526   2.170496   3.050841   2.748535   2.827680
    14  H    2.169857   1.095149   2.357993   2.176745   3.291328
    15  H    3.079777   2.374011   1.350231   2.704568   2.541074
    16  H    3.512075   2.571316   4.042528   2.066124   3.163593
    17  H    4.951192   4.083821   5.044110   2.576257   2.452065
    18  H    4.746456   4.279982   5.735942   2.977202   3.163472
    19  H    5.514451   4.189222   4.863648   3.258977   3.853492
                    6          7          8          9         10
     6  N    0.000000
     7  C    1.459444   0.000000
     8  C    2.461695   1.527800   0.000000
     9  O    3.496737   2.418434   1.201890   0.000000
    10  O    2.798954   2.423311   1.359707   2.238031   0.000000
    11  H    4.326616   5.620375   6.742486   7.654181   6.920164
    12  H    3.302793   4.370557   5.549208   6.312025   6.023124
    13  H    3.876591   4.893282   6.261168   7.169415   6.626648
    14  H    2.524753   3.983511   4.756630   5.767692   4.643157
    15  H    3.984641   4.993778   6.144778   7.287336   6.011419
    16  H    1.010788   2.136661   2.649329   3.576158   2.832089
    17  H    2.065995   1.096136   2.150268   3.033768   2.780636
    18  H    2.137287   1.093482   2.150749   2.571444   3.331276
    19  H    2.348032   2.347508   1.913701   3.017327   0.974172
                   11         12         13         14         15
    11  H    0.000000
    12  H    1.780444   0.000000
    13  H    1.777409   1.774917   0.000000
    14  H    2.500692   2.527552   3.074475   0.000000
    15  H    3.509831   4.038930   2.831759   3.256058   0.000000
    16  H    4.252041   3.283830   4.209633   2.210024   4.495553
    17  H    5.976541   4.874088   5.015857   4.446914   4.702737
    18  H    5.770804   4.280971   4.935265   4.502031   5.559085
    19  H    6.281552   5.558944   5.977464   3.989962   5.110123
                   16         17         18         19
    16  H    0.000000
    17  H    2.952650   0.000000
    18  H    2.696216   1.768083   0.000000
    19  H    2.508745   2.526906   3.404222   0.000000
 Stoichiometry    C5H9NO3S
 Framework group  C1[X(C5H9NO3S)]
 Deg. of freedom    51
 Full point group                 C1      NOp   1
 RotChk:  IX=0 Diff= 6.46D-02
 Largest Abelian subgroup         C1      NOp   1
 Largest concise Abelian subgroup C1      NOp   1
                         Standard orientation:                         
 ---------------------------------------------------------------------
 Center     Atomic      Atomic             Coordinates (Angstroms)
 Number     Number       Type             X           Y           Z
 ---------------------------------------------------------------------
      1          6           0       -2.534589   -1.505796   -0.798295
      2          6           0       -1.814199   -0.162244   -0.605239
      3         16           0       -2.922742    1.165652    0.038244
      4          6           0       -0.620384   -0.343995    0.342534
      5          8           0       -0.759547   -0.616862    1.524884
      6          7           0        0.612551   -0.277465   -0.255975
      7          6           0        1.825548   -0.618352    0.480510
      8          6           0        3.036861    0.116757   -0.090897
      9          8           0        4.107230   -0.392825   -0.288833
     10          8           0        2.822224    1.439219   -0.322905
     11          1           0       -3.390003   -1.386718   -1.467888
     12          1           0       -1.851917   -2.250463   -1.226604
     13          1           0       -2.891068   -1.882414    0.164452
     14          1           0       -1.481386    0.225551   -1.573846
     15          1           0       -2.917186    0.707833    1.308478
     16          1           0        0.673114   -0.151218   -1.257018
     17          1           0        1.671789   -0.298780    1.517692
     18          1           0        2.029762   -1.692550    0.490375
     19          1           0        1.914237    1.666111   -0.052555
 ---------------------------------------------------------------------
 Rotational constants (GHZ):           2.4525942           0.4717561           0.4437666
 Leave Link  202 at Fri Mar 14 15:12:10 2025, MaxMem=  8589934592 cpu:               0.9 elap:               0.3
 (Enter /home/enzo/gaussian_versions/gdv.j21/gdv/l301.exe)
 Standard basis: 6-31G(d) (6D, 7F)
 Ernie: Thresh=  0.10000D-02 Tol=  0.10000D-05 Strict=F.
 There are   172 symmetry adapted cartesian basis functions of A   symmetry.
 There are   172 symmetry adapted basis functions of A   symmetry.
   172 basis functions,   340 primitive gaussians,   172 cartesian basis functions
    43 alpha electrons       43 beta electrons
       nuclear repulsion energy       611.1318055349 Hartrees.
 IExCor=      4002 DFT=T Ex+Corr=B3LYP ScaHFX=  0.200000
 ScaDFX=  0.800000  0.720000  1.000000  0.810000  1.000000  0.000000
 ScaDFX=  0.000000  0.000000  0.000000  0.000000  0.000000  0.000000
 IRadAn=      5 IRanWt=     -1 IRanGd=            0 ICorTp=0 IEmpDi=  4
 NAtoms=   19 NActive=   19 NUniq=   19 SFac= 1.00D+00 NAtFMM=   60 NAOKFM=F Big=F
 Integral buffers will be    131072 words long.
 Raffenetti 2 integral format.
 Two-electron integral symmetry is turned on.
 Leave Link  301 at Fri Mar 14 15:12:10 2025, MaxMem=  8589934592 cpu:               0.6 elap:               0.4
 (Enter /home/enzo/gaussian_versions/gdv.j21/gdv/l302.exe)
 NPDir=0 NMtPBC=     1 NCelOv=     1 NCel=       1 NClECP=     1 NCelD=      1
         NCelK=      1 NCelE2=     1 NClLst=     1 CellRange=     0.0.
 One-electron integrals computed using PRISM.
 One-electron integral symmetry used in STVInt
 NBasis=   172 RedAO= T EigKep=  2.74D-03  NBF=   172
 NBsUse=   172 1.00D-06 EigRej= -1.00D+00 NBFU=   172
 Precomputing XC quadrature grid using
 IXCGrd= 4 IRadAn=           5 IRanWt=          -1 IRanGd=           0 AccXCQ= 0.00D+00.
 Generated NRdTot=       0 NPtTot=      406880 NUsed=           0 NTot=          64
 NSgBfM=   171   171   171   171   171 MxSgAt=    19 MxSgA2=    19 SizInc=   0.000
 NMBTot=     3443 MaxBatPerAtom=       85 MaxMicBPerAtom=      210 NBfPt=            50868798.
 Leave Link  302 at Fri Mar 14 15:12:11 2025, MaxMem=  8589934592 cpu:               3.1 elap:               0.5
 (Enter /home/enzo/gaussian_versions/gdv.j21/gdv/l303.exe)
 DipDrv:  MaxL=1.
 Leave Link  303 at Fri Mar 14 15:12:11 2025, MaxMem=  8589934592 cpu:               1.4 elap:               0.4
 (Enter /home/enzo/gaussian_versions/gdv.j21/gdv/l401.exe)
 Initial guess from the checkpoint file:  "/local/home/enzo/scratch/Gau-2337715.chk"
 B after Tr=    -0.000000   -0.000000   -0.000000
         Rot=    0.999787   -0.020448   -0.002726    0.000971 Ang=  -2.37 deg.
 AO Guess basis will be translated and rotated to current coordinates.
 JPrj=2 DoOrth=T DoCkMO=T.
 Generating alternative initial guess.
 ExpMin= 1.17D-01 ExpMax= 2.19D+04 ExpMxC= 3.30D+03 IAcc=3 IRadAn=         5 AccDes= 0.00D+00
 Harris functional with IExCor= 4002 and IRadAn=       5 diagonalized for initial guess.
 HarFok:  IExCor=    4002 AccDes= 0.00D+00 IRadAn=         5 IDoV= 1 UseB2=F ITyADJ=14 ICtDFT=  3500011
 FoFCou: FMM=F IPFlag=           0 FMFlag=      100000 FMFlg1=           0
         NFxFlg=           0 DoJE=T BraDBF=F KetDBF=T FulRan=T
         wScrn=  0.000000 ICntrl=       500 IOpCl=  0 I1Cent=   200000004 NGrid=           0
         NMat0=    1 NMatS0=      1 NMatT0=    0 NMatD0=    1 NMtDS0=    0 NMtDT0=    0
 Petite list used in FoFCou.
 Harris En= -874.543536118714    
 Leave Link  401 at Fri Mar 14 15:12:12 2025, MaxMem=  8589934592 cpu:               5.8 elap:               0.8
 (Enter /home/enzo/gaussian_versions/gdv.j21/gdv/l502.exe)
 Integral symmetry usage will be decided dynamically.
 Closed shell SCF:
 Using DIIS extrapolation, IDIIS=  1040.
 NGot=  8589934592 LenX=  8589843591 LenY=  8589813566
 Requested convergence on RMS density matrix=1.00D-08 within 128 cycles.
 Requested convergence on MAX density matrix=1.00D-06.
 Requested convergence on             energy=1.00D-06.
 No special actions if energy rises.
 Fock matrices will be formed incrementally for  20 cycles.
 Integral accuracy reduced to 1.0D-05 until final iterations.

 Cycle   1  Pass 0  IDiag  1:
 FoFJK:  IHMeth= 1 ICntrl=       0 DoSepK=F KAlg= 0 I1Cent=           0 FoldK=F
 IRaf= 900000000 NMat=       1 IRICut=       1 DoRegI=T DoRafI=F ISym2E= 0 IDoP0=0 IntGTp=1.
 FoFCou: FMM=F IPFlag=           0 FMFlag=      100000 FMFlg1=           0
         NFxFlg=           0 DoJE=F BraDBF=F KetDBF=F FulRan=T
         wScrn=  0.000000 ICntrl=         0 IOpCl=  0 I1Cent=           0 NGrid=           0
         NMat0=    1 NMatS0=      1 NMatT0=    0 NMatD0=    1 NMtDS0=    0 NMtDT0=    0
 Symmetry not used in FoFCou.
 E= -874.556547581046    
 DIIS: error= 4.03D-03 at cycle   1 NSaved=   1.
 NSaved= 1 IEnMin= 1 EnMin= -874.556547581046     IErMin= 1 ErrMin= 4.03D-03
 ErrMax= 4.03D-03  0.00D+00 EMaxC= 1.00D-01 BMatC= 1.04D-02 BMatP= 1.04D-02
 IDIUse=3 WtCom= 9.60D-01 WtEn= 4.03D-02
 Coeff-Com:  0.100D+01
 Coeff-En:   0.100D+01
 Coeff:      0.100D+01
 Gap=     1.546 Goal=   None    Shift=    0.000
 GapD=    1.546 DampG=2.000 DampE=1.000 DampFc=2.0000 IDamp=-1.
 RMSDP=1.02D-03 MaxDP=2.08D-02              OVMax= 3.55D-02

 Cycle   2  Pass 0  IDiag  1:
 RMSU=  1.02D-03    CP:  9.98D-01
 E= -874.575155098431     Delta-E=       -0.018607517386 Rises=F Damp=F
 DIIS: error= 6.76D-04 at cycle   2 NSaved=   2.
 NSaved= 2 IEnMin= 2 EnMin= -874.575155098431     IErMin= 2 ErrMin= 6.76D-04
 ErrMax= 6.76D-04  0.00D+00 EMaxC= 1.00D-01 BMatC= 1.36D-04 BMatP= 1.04D-02
 IDIUse=3 WtCom= 9.93D-01 WtEn= 6.76D-03
 Coeff-Com: -0.598D-01 0.106D+01
 Coeff-En:   0.000D+00 0.100D+01
 Coeff:     -0.594D-01 0.106D+01
 Gap=     0.232 Goal=   None    Shift=    0.000
 RMSDP=1.74D-04 MaxDP=4.04D-03 DE=-1.86D-02 OVMax= 7.22D-03

 Cycle   3  Pass 0  IDiag  1:
 RMSU=  1.44D-04    CP:  9.99D-01  1.10D+00
 E= -874.575289765045     Delta-E=       -0.000134666614 Rises=F Damp=F
 DIIS: error= 7.26D-04 at cycle   3 NSaved=   3.
 NSaved= 3 IEnMin= 3 EnMin= -874.575289765045     IErMin= 2 ErrMin= 6.76D-04
 ErrMax= 7.26D-04  0.00D+00 EMaxC= 1.00D-01 BMatC= 1.27D-04 BMatP= 1.36D-04
 IDIUse=3 WtCom= 9.93D-01 WtEn= 7.26D-03
 Coeff-Com: -0.392D-01 0.567D+00 0.472D+00
 Coeff-En:   0.000D+00 0.000D+00 0.100D+01
 Coeff:     -0.389D-01 0.563D+00 0.476D+00
 Gap=     0.232 Goal=   None    Shift=    0.000
 RMSDP=8.28D-05 MaxDP=2.37D-03 DE=-1.35D-04 OVMax= 4.66D-03

 Cycle   4  Pass 0  IDiag  1:
 RMSU=  6.01D-05    CP:  9.98D-01  1.11D+00  6.15D-01
 E= -874.575369291072     Delta-E=       -0.000079526027 Rises=F Damp=F
 DIIS: error= 2.60D-04 at cycle   4 NSaved=   4.
 NSaved= 4 IEnMin= 4 EnMin= -874.575369291072     IErMin= 4 ErrMin= 2.60D-04
 ErrMax= 2.60D-04  0.00D+00 EMaxC= 1.00D-01 BMatC= 3.24D-05 BMatP= 1.27D-04
 IDIUse=3 WtCom= 9.97D-01 WtEn= 2.60D-03
 Coeff-Com: -0.154D-01 0.184D+00 0.329D+00 0.502D+00
 Coeff-En:   0.000D+00 0.000D+00 0.218D+00 0.782D+00
 Coeff:     -0.153D-01 0.184D+00 0.329D+00 0.503D+00
 Gap=     0.232 Goal=   None    Shift=    0.000
 RMSDP=3.14D-05 MaxDP=1.02D-03 DE=-7.95D-05 OVMax= 1.61D-03

 Cycle   5  Pass 0  IDiag  1:
 RMSU=  1.86D-05    CP:  9.98D-01  1.11D+00  7.05D-01  6.44D-01
 E= -874.575393068678     Delta-E=       -0.000023777606 Rises=F Damp=F
 DIIS: error= 9.51D-05 at cycle   5 NSaved=   5.
 NSaved= 5 IEnMin= 5 EnMin= -874.575393068678     IErMin= 5 ErrMin= 9.51D-05
 ErrMax= 9.51D-05  0.00D+00 EMaxC= 1.00D-01 BMatC= 1.59D-06 BMatP= 3.24D-05
 IDIUse=1 WtCom= 1.00D+00 WtEn= 0.00D+00
 Coeff-Com: -0.437D-02 0.461D-01 0.130D+00 0.262D+00 0.566D+00
 Coeff:     -0.437D-02 0.461D-01 0.130D+00 0.262D+00 0.566D+00
 Gap=     0.232 Goal=   None    Shift=    0.000
 RMSDP=7.76D-06 MaxDP=2.25D-04 DE=-2.38D-05 OVMax= 2.80D-04

 Initial convergence to 1.0D-05 achieved.  Increase integral accuracy.
 Cycle   6  Pass 1  IDiag  1:
 E= -874.575385555301     Delta-E=        0.000007513377 Rises=F Damp=F
 DIIS: error= 2.48D-05 at cycle   1 NSaved=   1.
 NSaved= 1 IEnMin= 1 EnMin= -874.575385555301     IErMin= 1 ErrMin= 2.48D-05
 ErrMax= 2.48D-05  0.00D+00 EMaxC= 1.00D-01 BMatC= 2.11D-07 BMatP= 2.11D-07
 IDIUse=1 WtCom= 1.00D+00 WtEn= 0.00D+00
 Coeff-Com:  0.100D+01
 Coeff:      0.100D+01
 Gap=     0.232 Goal=   None    Shift=    0.000
 RMSDP=7.76D-06 MaxDP=2.25D-04 DE= 7.51D-06 OVMax= 2.27D-04

 Cycle   7  Pass 1  IDiag  1:
 RMSU=  7.53D-06    CP:  1.00D+00
 E= -874.575385310313     Delta-E=        0.000000244988 Rises=F Damp=F
 DIIS: error= 4.72D-05 at cycle   2 NSaved=   2.
 NSaved= 2 IEnMin= 1 EnMin= -874.575385555301     IErMin= 1 ErrMin= 2.48D-05
 ErrMax= 4.72D-05  0.00D+00 EMaxC= 1.00D-01 BMatC= 5.60D-07 BMatP= 2.11D-07
 IDIUse=1 WtCom= 1.00D+00 WtEn= 0.00D+00
 Coeff-Com:  0.625D+00 0.375D+00
 Coeff:      0.625D+00 0.375D+00
 Gap=     0.232 Goal=   None    Shift=    0.000
 RMSDP=3.72D-06 MaxDP=1.23D-04 DE= 2.45D-07 OVMax= 1.75D-04

 Cycle   8  Pass 1  IDiag  1:
 RMSU=  2.91D-06    CP:  1.00D+00  6.95D-01
 E= -874.575385734361     Delta-E=       -0.000000424048 Rises=F Damp=F
 DIIS: error= 5.21D-06 at cycle   3 NSaved=   3.
 NSaved= 3 IEnMin= 3 EnMin= -874.575385734361     IErMin= 3 ErrMin= 5.21D-06
 ErrMax= 5.21D-06  0.00D+00 EMaxC= 1.00D-01 BMatC= 1.13D-08 BMatP= 2.11D-07
 IDIUse=1 WtCom= 1.00D+00 WtEn= 0.00D+00
 Coeff-Com:  0.237D+00 0.178D+00 0.584D+00
 Coeff:      0.237D+00 0.178D+00 0.584D+00
 Gap=     0.232 Goal=   None    Shift=    0.000
 RMSDP=9.12D-07 MaxDP=3.46D-05 DE=-4.24D-07 OVMax= 4.56D-05

 Cycle   9  Pass 1  IDiag  1:
 RMSU=  7.68D-07    CP:  1.00D+00  7.27D-01  8.55D-01
 E= -874.575385739512     Delta-E=       -0.000000005151 Rises=F Damp=F
 DIIS: error= 3.95D-06 at cycle   4 NSaved=   4.
 NSaved= 4 IEnMin= 4 EnMin= -874.575385739512     IErMin= 4 ErrMin= 3.95D-06
 ErrMax= 3.95D-06  0.00D+00 EMaxC= 1.00D-01 BMatC= 5.49D-09 BMatP= 1.13D-08
 IDIUse=1 WtCom= 1.00D+00 WtEn= 0.00D+00
 Coeff-Com:  0.226D-01 0.397D-01 0.425D+00 0.513D+00
 Coeff:      0.226D-01 0.397D-01 0.425D+00 0.513D+00
 Gap=     0.232 Goal=   None    Shift=    0.000
 RMSDP=4.17D-07 MaxDP=1.53D-05 DE=-5.15D-09 OVMax= 1.66D-05

 Cycle  10  Pass 1  IDiag  1:
 RMSU=  2.41D-07    CP:  1.00D+00  7.28D-01  9.13D-01  6.17D-01
 E= -874.575385743702     Delta-E=       -0.000000004191 Rises=F Damp=F
 DIIS: error= 4.83D-07 at cycle   5 NSaved=   5.
 NSaved= 5 IEnMin= 5 EnMin= -874.575385743702     IErMin= 5 ErrMin= 4.83D-07
 ErrMax= 4.83D-07  0.00D+00 EMaxC= 1.00D-01 BMatC= 1.64D-10 BMatP= 5.49D-09
 IDIUse=1 WtCom= 1.00D+00 WtEn= 0.00D+00
 Coeff-Com: -0.922D-02 0.291D-02 0.142D+00 0.234D+00 0.630D+00
 Coeff:     -0.922D-02 0.291D-02 0.142D+00 0.234D+00 0.630D+00
 Gap=     0.232 Goal=   None    Shift=    0.000
 RMSDP=9.44D-08 MaxDP=2.29D-06 DE=-4.19D-09 OVMax= 3.18D-06

 Cycle  11  Pass 1  IDiag  1:
 RMSU=  8.22D-08    CP:  1.00D+00  7.30D-01  9.19D-01  6.46D-01  8.68D-01
 E= -874.575385743860     Delta-E=       -0.000000000158 Rises=F Damp=F
 DIIS: error= 1.47D-07 at cycle   6 NSaved=   6.
 NSaved= 6 IEnMin= 6 EnMin= -874.575385743860     IErMin= 6 ErrMin= 1.47D-07
 ErrMax= 1.47D-07  0.00D+00 EMaxC= 1.00D-01 BMatC= 1.47D-11 BMatP= 1.64D-10
 IDIUse=1 WtCom= 1.00D+00 WtEn= 0.00D+00
 Coeff-Com: -0.594D-02-0.200D-02 0.268D-01 0.613D-01 0.285D+00 0.635D+00
 Coeff:     -0.594D-02-0.200D-02 0.268D-01 0.613D-01 0.285D+00 0.635D+00
 Gap=     0.232 Goal=   None    Shift=    0.000
 RMSDP=3.08D-08 MaxDP=7.93D-07 DE=-1.58D-10 OVMax= 1.43D-06

 Cycle  12  Pass 1  IDiag  1:
 RMSU=  2.66D-08    CP:  1.00D+00  7.31D-01  9.19D-01  6.56D-01  9.11D-01
                    CP:  9.60D-01
 E= -874.575385743868     Delta-E=       -0.000000000008 Rises=F Damp=F
 DIIS: error= 6.22D-08 at cycle   7 NSaved=   7.
 NSaved= 7 IEnMin= 7 EnMin= -874.575385743868     IErMin= 7 ErrMin= 6.22D-08
 ErrMax= 6.22D-08  0.00D+00 EMaxC= 1.00D-01 BMatC= 1.43D-12 BMatP= 1.47D-11
 IDIUse=1 WtCom= 1.00D+00 WtEn= 0.00D+00
 Coeff-Com: -0.113D-02-0.128D-02-0.846D-02-0.798D-02 0.291D-01 0.245D+00
 Coeff-Com:  0.745D+00
 Coeff:     -0.113D-02-0.128D-02-0.846D-02-0.798D-02 0.291D-01 0.245D+00
 Coeff:      0.745D+00
 Gap=     0.232 Goal=   None    Shift=    0.000
 RMSDP=1.34D-08 MaxDP=5.49D-07 DE=-8.41D-12 OVMax= 6.41D-07

 Cycle  13  Pass 1  IDiag  1:
 RMSU=  8.47D-09    CP:  1.00D+00  7.31D-01  9.20D-01  6.57D-01  9.39D-01
                    CP:  1.04D+00  8.39D-01
 E= -874.575385743874     Delta-E=       -0.000000000006 Rises=F Damp=F
 DIIS: error= 5.91D-08 at cycle   8 NSaved=   8.
 NSaved= 8 IEnMin= 8 EnMin= -874.575385743874     IErMin= 8 ErrMin= 5.91D-08
 ErrMax= 5.91D-08  0.00D+00 EMaxC= 1.00D-01 BMatC= 1.19D-12 BMatP= 1.43D-12
 IDIUse=1 WtCom= 1.00D+00 WtEn= 0.00D+00
 Coeff-Com:  0.394D-04-0.656D-03-0.101D-01-0.149D-01-0.212D-01 0.834D-01
 Coeff-Com:  0.546D+00 0.417D+00
 Coeff:      0.394D-04-0.656D-03-0.101D-01-0.149D-01-0.212D-01 0.834D-01
 Coeff:      0.546D+00 0.417D+00
 Gap=     0.232 Goal=   None    Shift=    0.000
 RMSDP=5.56D-09 MaxDP=1.89D-07 DE=-5.68D-12 OVMax= 3.76D-07

 SCF Done:  E(RB3LYP) =  -874.575385744     A.U. after   13 cycles
            NFock= 13  Conv=0.56D-08     -V/T= 2.0064
 KE= 8.690145025165D+02 PE=-3.281273895327D+03 EE= 9.265522015314D+02
 Leave Link  502 at Fri Mar 14 15:12:24 2025, MaxMem=  8589934592 cpu:              83.9 elap:              11.3
 (Enter /home/enzo/gaussian_versions/gdv.j21/gdv/l701.exe)
 ... and contract with generalized density number  0.
 Compute integral first derivatives.
 Leave Link  701 at Fri Mar 14 15:12:24 2025, MaxMem=  8589934592 cpu:               2.6 elap:               0.5
 (Enter /home/enzo/gaussian_versions/gdv.j21/gdv/l702.exe)
 L702 exits ... SP integral derivatives will be done elsewhere.
 Leave Link  702 at Fri Mar 14 15:12:24 2025, MaxMem=  8589934592 cpu:               0.2 elap:               0.4
 (Enter /home/enzo/gaussian_versions/gdv.j21/gdv/l703.exe)
 Integral derivatives from FoFJK, PRISM(SPDF).
 Compute integral first derivatives, UseDBF=F ICtDFT=           0.
 Calling FoFJK, ICntrl=      2127 FMM=F ISym2X=0 I1Cent= 0 IOpClX= 0 NMat=1 NMatS=1 NMatT=0.
 FoFJK:  IHMeth= 1 ICntrl=    2127 DoSepK=F KAlg= 0 I1Cent=           0 FoldK=F
 IRaf=         0 NMat=       1 IRICut=       1 DoRegI=T DoRafI=F ISym2E= 0 IDoP0=0 IntGTp=1.
 FoFCou: FMM=F IPFlag=           0 FMFlag=      100000 FMFlg1=         800
         NFxFlg=           0 DoJE=F BraDBF=F KetDBF=F FulRan=T
         wScrn=  0.000000 ICntrl=      2127 IOpCl=  0 I1Cent=           0 NGrid=           0
         NMat0=    1 NMatS0=      1 NMatT0=    0 NMatD0=    1 NMtDS0=    0 NMtDT0=    0
 Symmetry not used in FoFCou.
 Leave Link  703 at Fri Mar 14 15:12:27 2025, MaxMem=  8589934592 cpu:              14.7 elap:               2.1
 (Enter /home/enzo/gaussian_versions/gdv.j21/gdv/l716.exe)
 Dipole        =-8.96061257D-01-2.54889512D-01-6.06505071D-01
 ***** Axes restored to original set *****
 -------------------------------------------------------------------
 Center     Atomic                   Forces (Hartrees/Bohr)
 Number     Number              X              Y              Z
 -------------------------------------------------------------------
      1        6          -0.000321528   -0.000916835    0.001295570
      2        6          -0.000085967   -0.000788793    0.000580385
      3       16           0.000146831   -0.000736665    0.000746092
      4        6           0.001914891    0.006105449   -0.005467111
      5        8           0.000209536   -0.002443509    0.001957104
      6        7          -0.001468816   -0.004160187    0.004136418
      7        6          -0.000149832   -0.000304866   -0.001765902
      8        6           0.001644819   -0.002643794    0.004512279
      9        8          -0.000573899    0.000407609   -0.001080696
     10        8          -0.001394425    0.001082527   -0.000792196
     11        1           0.000020617   -0.000181776   -0.000109606
     12        1          -0.000017760    0.000128144   -0.000278200
     13        1          -0.000056138    0.000071232    0.000056582
     14        1          -0.000753205    0.000472233   -0.000363498
     15        1           0.000272774    0.000261721    0.000112735
     16        1           0.000400675    0.002300946   -0.000931110
     17        1           0.000352889    0.001541850    0.000295569
     18        1          -0.000558070    0.000164336   -0.001587923
     19        1           0.000416612   -0.000359619   -0.001316492
 -------------------------------------------------------------------
 Cartesian Forces:  Max     0.006105449 RMS     0.001755666
 Leave Link  716 at Fri Mar 14 15:12:27 2025, MaxMem=  8589934592 cpu:               0.2 elap:               0.2
 (Enter /home/enzo/gaussian_versions/gdv.j21/gdv/l103.exe)

 GradGradGradGradGradGradGradGradGradGradGradGradGradGradGradGradGradGrad
 Berny optimization.
 Using GEDIIS/GDIIS optimizer.
 FormGI is forming the generalized inverse of G from B-inverse, IUseBI=4.
 Internal  Forces:  Max     0.003036137 RMS     0.000922939
 Search for a local minimum.
 Step number   4 out of a maximum of   93
 All quantities printed in internal units (Hartrees-Bohrs-Radians)
 RMS Force = .92294D-03 SwitMx=.10000D-02 MixMth= 2
 Mixed Optimization -- En-DIIS/RFO-DIIS
 Update second derivatives using D2CorX and points    3    4
 DE= -1.67D-03 DEPred=-1.79D-03 R= 9.33D-01
 TightC=F SS=  1.41D+00  RLast= 4.97D-01 DXNew= 1.4270D+00 1.4914D+00
 Trust test= 9.33D-01 RLast= 4.97D-01 DXMaxT set to 1.43D+00
 ITU=  1  1  1  0
 Use linear search instead of GDIIS.
     Eigenvalues ---    0.00241   0.00301   0.00453   0.00772   0.00902
     Eigenvalues ---    0.01082   0.01104   0.01272   0.01594   0.03047
     Eigenvalues ---    0.04910   0.05198   0.05329   0.05678   0.05730
     Eigenvalues ---    0.06744   0.07802   0.09815   0.13151   0.15626
     Eigenvalues ---    0.15948   0.16000   0.16004   0.16056   0.16184
     Eigenvalues ---    0.17645   0.20138   0.21733   0.22048   0.22857
     Eigenvalues ---    0.24122   0.24926   0.25006   0.25508   0.26639
     Eigenvalues ---    0.30032   0.32126   0.32577   0.32593   0.32601
     Eigenvalues ---    0.32633   0.32651   0.32831   0.32851   0.37069
     Eigenvalues ---    0.40653   0.41986   0.46259   0.49284   0.79491
     Eigenvalues ---    0.80826
 RFO step:  Lambda=-2.82735801D-03 EMin= 2.40604142D-03
 Quartic linear search produced a step of  0.13807.
 Iteration  1 RMS(Cart)=  0.16595092 RMS(Int)=  0.00993880
 Iteration  2 RMS(Cart)=  0.01427186 RMS(Int)=  0.00071534
 Iteration  3 RMS(Cart)=  0.00009586 RMS(Int)=  0.00071253
 Iteration  4 RMS(Cart)=  0.00000001 RMS(Int)=  0.00071253
 Variable       Old X    -DE/DX   Delta X   Delta X   Delta X     New X
                                 (Linear)    (Quad)   (Total)
    R1        2.90389  -0.00116  -0.00063  -0.00575  -0.00637   2.89752
    R2        2.06514   0.00011   0.00018   0.00026   0.00044   2.06559
    R3        2.07356   0.00021   0.00019   0.00098   0.00117   2.07473
    R4        2.06646   0.00006   0.00020   0.00018   0.00038   2.06685
    R5        3.48768   0.00092   0.00076   0.00898   0.00974   3.49742
    R6        2.90090  -0.00163   0.00171   0.00591   0.00762   2.90852
    R7        2.06953   0.00035  -0.00010  -0.00026  -0.00036   2.06917
    R8        2.55157   0.00022   0.00117   0.00357   0.00474   2.55631
    R9        2.30808   0.00111   0.00006  -0.00042  -0.00036   2.30772
   R10        2.59297   0.00084   0.00113   0.00400   0.00513   2.59809
   R11        2.75795  -0.00071  -0.00033  -0.00350  -0.00383   2.75412
   R12        1.91011   0.00038   0.00062   0.00203   0.00265   1.91276
   R13        2.88712   0.00033   0.00184   0.01178   0.01361   2.90074
   R14        2.07140   0.00003   0.00018   0.00038   0.00056   2.07196
   R15        2.06638   0.00039   0.00040   0.00217   0.00257   2.06896
   R16        2.27124   0.00086   0.00055   0.00098   0.00153   2.27277
   R17        2.56947  -0.00069   0.00061  -0.00042   0.00018   2.56966
   R18        1.84092   0.00012   0.00114   0.00396   0.00510   1.84601
    A1        1.92694  -0.00031   0.00030  -0.00032  -0.00002   1.92692
    A2        1.92915   0.00017  -0.00031   0.00018  -0.00013   1.92902
    A3        1.92127   0.00006  -0.00055  -0.00238  -0.00293   1.91833
    A4        1.89840  -0.00003   0.00033   0.00076   0.00109   1.89948
    A5        1.89842   0.00013   0.00007   0.00099   0.00106   1.89949
    A6        1.88887  -0.00003   0.00016   0.00085   0.00101   1.88989
    A7        1.97283  -0.00019   0.00034   0.00186   0.00220   1.97503
    A8        1.91625   0.00034   0.00071   0.00274   0.00345   1.91970
    A9        1.91873   0.00011   0.00100   0.00823   0.00923   1.92795
   A10        1.91456  -0.00050  -0.00080  -0.00812  -0.00893   1.90563
   A11        1.80918   0.00050  -0.00115  -0.00187  -0.00306   1.80612
   A12        1.93013  -0.00027  -0.00019  -0.00324  -0.00349   1.92664
   A13        1.65246   0.00005  -0.00042  -0.00156  -0.00198   1.65048
   A14        2.13592  -0.00068  -0.00057   0.00130  -0.00264   2.13327
   A15        2.00837   0.00158  -0.00029   0.00676   0.00308   2.01145
   A16        2.13585  -0.00069   0.00047   0.00358   0.00065   2.13650
   A17        2.11224   0.00104   0.00108   0.00849   0.00831   2.12056
   A18        2.08504  -0.00062  -0.00021  -0.00558  -0.00713   2.07791
   A19        2.07047  -0.00047  -0.00233  -0.01560  -0.01916   2.05132
   A20        1.93675   0.00174  -0.00219  -0.00336  -0.00560   1.93115
   A21        1.86796  -0.00079  -0.00222  -0.01670  -0.01891   1.84905
   A22        1.97059  -0.00038   0.00272   0.01451   0.01726   1.98785
   A23        1.90163  -0.00009   0.00091   0.00620   0.00698   1.90861
   A24        1.90496  -0.00073   0.00090   0.00116   0.00203   1.90699
   A25        1.87975   0.00021  -0.00012  -0.00217  -0.00222   1.87753
   A26        2.16963  -0.00143   0.00126   0.00469   0.00504   2.17467
   A27        1.98957   0.00304  -0.00244  -0.00209  -0.00545   1.98412
   A28        2.12334  -0.00156   0.00114   0.00012   0.00035   2.12369
   A29        1.90319   0.00098  -0.00213  -0.01162  -0.01375   1.88944
    D1        0.99264   0.00036  -0.00238  -0.01118  -0.01356   0.97908
    D2        3.13655  -0.00018  -0.00266  -0.01835  -0.02102   3.11553
    D3       -1.01951  -0.00021  -0.00180  -0.01526  -0.01706  -1.03656
    D4        3.09389   0.00024  -0.00197  -0.01033  -0.01230   3.08160
    D5       -1.04538  -0.00030  -0.00225  -0.01750  -0.01976  -1.06514
    D6        1.08175  -0.00033  -0.00139  -0.01441  -0.01579   1.06596
    D7       -1.10356   0.00035  -0.00232  -0.01067  -0.01299  -1.11654
    D8        1.04035  -0.00018  -0.00259  -0.01785  -0.02045   1.01990
    D9       -3.11570  -0.00022  -0.00173  -0.01476  -0.01648  -3.13218
   D10        1.34174  -0.00041   0.00756  -0.02013  -0.01257   1.32917
   D11       -0.80311  -0.00035   0.00699  -0.01899  -0.01199  -0.81509
   D12       -2.86474  -0.00007   0.00822  -0.01044  -0.00224  -2.86698
   D13       -1.17213  -0.00087   0.01506  -0.00139   0.01377  -1.15836
   D14        1.88739   0.00184   0.00660   0.15504   0.16154   2.04894
   D15        1.00583  -0.00123   0.01543  -0.00273   0.01278   1.01860
   D16       -2.21784   0.00149   0.00697   0.15370   0.16055  -2.05728
   D17        2.99075  -0.00107   0.01348  -0.01139   0.00220   2.99295
   D18       -0.23292   0.00165   0.00501   0.14504   0.14998  -0.08294
   D19       -2.98891  -0.00123   0.00723  -0.05261  -0.04529  -3.03420
   D20       -0.03773  -0.00160  -0.00442  -0.13187  -0.13647  -0.17420
   D21        0.07062   0.00149  -0.00125   0.10369   0.10261   0.17323
   D22        3.02180   0.00112  -0.01290   0.02443   0.01144   3.03324
   D23       -2.67438   0.00071   0.01479   0.12911   0.14405  -2.53033
   D24       -0.60160   0.00111   0.01325   0.12461   0.13814  -0.46346
   D25        1.46373   0.00063   0.01326   0.11953   0.13293   1.59666
   D26        0.65607   0.00109   0.02622   0.20668   0.23267   0.88874
   D27        2.72885   0.00149   0.02468   0.20218   0.22677   2.95561
   D28       -1.48901   0.00101   0.02469   0.19710   0.22156  -1.26745
   D29       -2.37286  -0.00005  -0.00949  -0.05292  -0.06240  -2.43526
   D30        0.80710  -0.00149  -0.00778  -0.13294  -0.14075   0.66635
   D31        1.85796  -0.00005  -0.00602  -0.03434  -0.04031   1.81765
   D32       -1.24526  -0.00150  -0.00431  -0.11435  -0.11866  -1.36392
   D33       -0.19034   0.00016  -0.00689  -0.03592  -0.04280  -0.23313
   D34        2.98963  -0.00128  -0.00518  -0.11593  -0.12115   2.86848
   D35        0.02063  -0.00045   0.01759   0.08756   0.10504   0.12567
   D36       -3.08373  -0.00185   0.01924   0.00980   0.02914  -3.05459
         Item               Value     Threshold  Converged?
 Maximum Force            0.003036     0.000450     NO 
 RMS     Force            0.000923     0.000300     NO 
 Maximum Displacement     0.514297     0.001800     NO 
 RMS     Displacement     0.168183     0.001200     NO 
 Predicted change in Energy=-1.938982D-03
 Lowest energy point so far.  Saving SCF results.
 GradGradGradGradGradGradGradGradGradGradGradGradGradGradGradGradGradGrad

 Leave Link  103 at Fri Mar 14 15:12:27 2025, MaxMem=  8589934592 cpu:               1.6 elap:               0.4
 (Enter /home/enzo/gaussian_versions/gdv.j21/gdv/l202.exe)
                          Input orientation:                          
 ---------------------------------------------------------------------
 Center     Atomic      Atomic             Coordinates (Angstroms)
 Number     Number       Type             X           Y           Z
 ---------------------------------------------------------------------
      1          6           0        2.582757    1.411516   -1.062295
      2          6           0        1.759874    0.140439   -0.820975
      3         16           0        2.763519   -1.258531   -0.142094
      4          6           0        0.596409    0.441486    0.140592
      5          8           0        0.779313    0.745760    1.309041
      6          7           0       -0.660924    0.264874   -0.386799
      7          6           0       -1.857837    0.635926    0.357370
      8          6           0       -3.003049   -0.343059    0.063574
      9          8           0       -4.151958   -0.023206   -0.091952
     10          8           0       -2.598821   -1.635630   -0.058612
     11          1           0        3.426726    1.199274   -1.723697
     12          1           0        1.960746    2.191539   -1.520605
     13          1           0        2.966363    1.792996   -0.111736
     14          1           0        1.379150   -0.254761   -1.768499
     15          1           0        2.821494   -0.751458    1.110670
     16          1           0       -0.758884    0.106525   -1.381714
     17          1           0       -1.586006    0.569559    1.417497
     18          1           0       -2.199153    1.658642    0.167006
     19          1           0       -1.653872   -1.685009    0.184090
 ---------------------------------------------------------------------
                    Distance matrix (angstroms):
                    1          2          3          4          5
     1  C    0.000000
     2  C    1.533300   0.000000
     3  S    2.829946   1.850757   0.000000
     4  C    2.516639   1.539121   2.768815   0.000000
     5  O    3.052683   2.421751   3.171758   1.221191   0.000000
     6  N    3.506073   2.462571   3.755989   1.374853   2.276270
     7  C    4.726084   3.836905   5.019498   2.471462   2.805763
     8  C    5.962159   4.868432   5.842404   3.684771   4.128314
     9  O    6.953876   5.958860   7.025124   4.776715   5.183776
    10  O    6.094360   4.768001   5.376231   3.816227   4.353537
    11  H    1.093061   2.171275   2.997018   3.472825   4.051168
    12  H    1.097899   2.176429   3.801016   2.771945   3.390126
    13  H    1.093729   2.165544   3.058412   2.739878   2.810426
    14  H    2.173447   1.094959   2.359920   2.177631   3.291215
    15  H    3.075261   2.377766   1.352739   2.704658   2.539983
    16  H    3.601610   2.580644   3.975847   2.065535   3.164622
    17  H    4.923093   4.048433   4.969165   2.531763   2.374351
    18  H    4.943574   4.353728   5.764855   3.049153   3.317960
    19  H    5.393604   3.999510   4.449901   3.096391   3.618638
                    6          7          8          9         10
     6  N    0.000000
     7  C    1.457418   0.000000
     8  C    2.461294   1.535004   0.000000
     9  O    3.515287   2.428855   1.202701   0.000000
    10  O    2.734056   2.425296   1.359804   2.239031   0.000000
    11  H    4.401055   5.707435   6.849462   7.848153   6.864139
    12  H    3.445390   4.530817   5.794228   6.656674   6.129787
    13  H    3.945634   4.983150   6.342502   7.346392   6.536785
    14  H    2.518138   3.973756   4.750574   5.784254   4.544751
    15  H    3.924613   4.938465   5.931989   7.113768   5.615051
    16  H    1.012189   2.124236   2.706891   3.632254   2.858508
    17  H    2.050389   1.096433   2.161941   3.035444   2.840343
    18  H    2.148357   1.094844   2.159572   2.590197   3.326088
    19  H    2.261395   2.336315   1.906733   3.013009   0.976868
                   11         12         13         14         15
    11  H    0.000000
    12  H    1.781834   0.000000
    13  H    1.778442   1.776236   0.000000
    14  H    2.511731   2.526676   3.075291   0.000000
    15  H    3.493609   4.040512   2.826573   3.258325   0.000000
    16  H    4.339399   3.429718   4.281880   2.202572   4.446035
    17  H    5.949044   4.882901   4.955746   4.429698   4.611430
    18  H    5.952839   4.520705   5.174776   4.495726   5.648538
    19  H    6.145829   5.567682   5.790561   3.880391   4.664651
                   16         17         18         19
    16  H    0.000000
    17  H    2.955354   0.000000
    18  H    2.623352   1.767988   0.000000
    19  H    2.542113   2.570793   3.387865   0.000000
 Stoichiometry    C5H9NO3S
 Framework group  C1[X(C5H9NO3S)]
 Deg. of freedom    51
 Full point group                 C1      NOp   1
 RotChk:  IX=0 Diff= 7.76D-02
 Largest Abelian subgroup         C1      NOp   1
 Largest concise Abelian subgroup C1      NOp   1
                         Standard orientation:                         
 ---------------------------------------------------------------------
 Center     Atomic      Atomic             Coordinates (Angstroms)
 Number     Number       Type             X           Y           Z
 ---------------------------------------------------------------------
      1          6           0       -2.715165   -1.427732   -0.726671
      2          6           0       -1.829711   -0.182059   -0.603067
      3         16           0       -2.729759    1.286552    0.073982
      4          6           0       -0.614530   -0.486879    0.290976
      5          8           0       -0.727228   -0.729937    1.482416
      6          7           0        0.608915   -0.386470   -0.328153
      7          6           0        1.839663   -0.772420    0.350352
      8          6           0        2.998119    0.144092   -0.067049
      9          8           0        4.120429   -0.229655   -0.284351
     10          8           0        2.635873    1.445360   -0.223724
     11          1           0       -3.594372   -1.211102   -1.338919
     12          1           0       -2.156659   -2.252787   -1.187905
     13          1           0       -3.046016   -1.749466    0.264928
     14          1           0       -1.500999    0.153626   -1.592107
     15          1           0       -2.719780    0.839751    1.350763
     16          1           0        0.643442   -0.277669   -1.333885
     17          1           0        1.644898   -0.646787    1.422009
     18          1           0        2.127743   -1.815947    0.186815
     19          1           0        1.712645    1.544684    0.079683
 ---------------------------------------------------------------------
 Rotational constants (GHZ):           2.3737263           0.4920838           0.4540644
 Leave Link  202 at Fri Mar 14 15:12:27 2025, MaxMem=  8589934592 cpu:               0.2 elap:               0.3
 (Enter /home/enzo/gaussian_versions/gdv.j21/gdv/l301.exe)
 Standard basis: 6-31G(d) (6D, 7F)
 Ernie: Thresh=  0.10000D-02 Tol=  0.10000D-05 Strict=F.
 There are   172 symmetry adapted cartesian basis functions of A   symmetry.
 There are   172 symmetry adapted basis functions of A   symmetry.
   172 basis functions,   340 primitive gaussians,   172 cartesian basis functions
    43 alpha electrons       43 beta electrons
       nuclear repulsion energy       613.3601406554 Hartrees.
 IExCor=      4002 DFT=T Ex+Corr=B3LYP ScaHFX=  0.200000
 ScaDFX=  0.800000  0.720000  1.000000  0.810000  1.000000  0.000000
 ScaDFX=  0.000000  0.000000  0.000000  0.000000  0.000000  0.000000
 IRadAn=      5 IRanWt=     -1 IRanGd=            0 ICorTp=0 IEmpDi=  4
 NAtoms=   19 NActive=   19 NUniq=   19 SFac= 1.00D+00 NAtFMM=   60 NAOKFM=F Big=F
 Integral buffers will be    131072 words long.
 Raffenetti 2 integral format.
 Two-electron integral symmetry is turned on.
 Leave Link  301 at Fri Mar 14 15:12:28 2025, MaxMem=  8589934592 cpu:               0.6 elap:               0.3
 (Enter /home/enzo/gaussian_versions/gdv.j21/gdv/l302.exe)
 NPDir=0 NMtPBC=     1 NCelOv=     1 NCel=       1 NClECP=     1 NCelD=      1
         NCelK=      1 NCelE2=     1 NClLst=     1 CellRange=     0.0.
 One-electron integrals computed using PRISM.
 One-electron integral symmetry used in STVInt
 NBasis=   172 RedAO= T EigKep=  2.68D-03  NBF=   172
 NBsUse=   172 1.00D-06 EigRej= -1.00D+00 NBFU=   172
 Precomputing XC quadrature grid using
 IXCGrd= 4 IRadAn=           5 IRanWt=          -1 IRanGd=           0 AccXCQ= 0.00D+00.
 Generated NRdTot=       0 NPtTot=      406781 NUsed=           0 NTot=          64
 NSgBfM=   171   171   171   171   171 MxSgAt=    19 MxSgA2=    19 SizInc=   0.000
 NMBTot=     3489 MaxBatPerAtom=       85 MaxMicBPerAtom=      209 NBfPt=            50997125.
 Leave Link  302 at Fri Mar 14 15:12:29 2025, MaxMem=  8589934592 cpu:               4.9 elap:               0.8
 (Enter /home/enzo/gaussian_versions/gdv.j21/gdv/l303.exe)
 DipDrv:  MaxL=1.
 Leave Link  303 at Fri Mar 14 15:12:29 2025, MaxMem=  8589934592 cpu:               0.5 elap:               0.3
 (Enter /home/enzo/gaussian_versions/gdv.j21/gdv/l401.exe)
 Initial guess from the checkpoint file:  "/local/home/enzo/scratch/Gau-2337715.chk"
 B after Tr=     0.000000    0.000000    0.000000
         Rot=    0.999708   -0.022688   -0.005130    0.006476 Ang=  -2.77 deg.
 AO Guess basis will be translated and rotated to current coordinates.
 JPrj=2 DoOrth=T DoCkMO=T.
 Generating alternative initial guess.
 ExpMin= 1.17D-01 ExpMax= 2.19D+04 ExpMxC= 3.30D+03 IAcc=3 IRadAn=         5 AccDes= 0.00D+00
 Harris functional with IExCor= 4002 and IRadAn=       5 diagonalized for initial guess.
 HarFok:  IExCor=    4002 AccDes= 0.00D+00 IRadAn=         5 IDoV= 1 UseB2=F ITyADJ=14 ICtDFT=  3500011
 FoFCou: FMM=F IPFlag=           0 FMFlag=      100000 FMFlg1=           0
         NFxFlg=           0 DoJE=T BraDBF=F KetDBF=T FulRan=T
         wScrn=  0.000000 ICntrl=       500 IOpCl=  0 I1Cent=   200000004 NGrid=           0
         NMat0=    1 NMatS0=      1 NMatT0=    0 NMatD0=    1 NMtDS0=    0 NMtDT0=    0
 Petite list used in FoFCou.
 Harris En= -874.543968126057    
 Leave Link  401 at Fri Mar 14 15:12:30 2025, MaxMem=  8589934592 cpu:               7.1 elap:               0.9
 (Enter /home/enzo/gaussian_versions/gdv.j21/gdv/l502.exe)
 Integral symmetry usage will be decided dynamically.
 Closed shell SCF:
 Using DIIS extrapolation, IDIIS=  1040.
 NGot=  8589934592 LenX=  8589843591 LenY=  8589813566
 Requested convergence on RMS density matrix=1.00D-08 within 128 cycles.
 Requested convergence on MAX density matrix=1.00D-06.
 Requested convergence on             energy=1.00D-06.
 No special actions if energy rises.
 Fock matrices will be formed incrementally for  20 cycles.
 Integral accuracy reduced to 1.0D-05 until final iterations.

 Cycle   1  Pass 0  IDiag  1:
 FoFJK:  IHMeth= 1 ICntrl=       0 DoSepK=F KAlg= 0 I1Cent=           0 FoldK=F
 IRaf= 900000000 NMat=       1 IRICut=       1 DoRegI=T DoRafI=F ISym2E= 0 IDoP0=0 IntGTp=1.
 FoFCou: FMM=F IPFlag=           0 FMFlag=      100000 FMFlg1=           0
         NFxFlg=           0 DoJE=F BraDBF=F KetDBF=F FulRan=T
         wScrn=  0.000000 ICntrl=         0 IOpCl=  0 I1Cent=           0 NGrid=           0
         NMat0=    1 NMatS0=      1 NMatT0=    0 NMatD0=    1 NMtDS0=    0 NMtDT0=    0
 Symmetry not used in FoFCou.
 E= -874.535630651690    
 DIIS: error= 6.14D-03 at cycle   1 NSaved=   1.
 NSaved= 1 IEnMin= 1 EnMin= -874.535630651690     IErMin= 1 ErrMin= 6.14D-03
 ErrMax= 6.14D-03  0.00D+00 EMaxC= 1.00D-01 BMatC= 2.27D-02 BMatP= 2.27D-02
 IDIUse=3 WtCom= 9.39D-01 WtEn= 6.14D-02
 Coeff-Com:  0.100D+01
 Coeff-En:   0.100D+01
 Coeff:      0.100D+01
 Gap=     1.536 Goal=   None    Shift=    0.000
 GapD=    1.536 DampG=2.000 DampE=1.000 DampFc=2.0000 IDamp=-1.
 RMSDP=1.52D-03 MaxDP=2.39D-02              OVMax= 4.50D-02

 Cycle   2  Pass 0  IDiag  1:
 RMSU=  1.52D-03    CP:  9.97D-01
 E= -874.576129956445     Delta-E=       -0.040499304755 Rises=F Damp=F
 DIIS: error= 6.06D-04 at cycle   2 NSaved=   2.
 NSaved= 2 IEnMin= 2 EnMin= -874.576129956445     IErMin= 2 ErrMin= 6.06D-04
 ErrMax= 6.06D-04  0.00D+00 EMaxC= 1.00D-01 BMatC= 3.11D-04 BMatP= 2.27D-02
 IDIUse=3 WtCom= 9.94D-01 WtEn= 6.06D-03
 Coeff-Com: -0.609D-01 0.106D+01
 Coeff-En:   0.000D+00 0.100D+01
 Coeff:     -0.605D-01 0.106D+01
 Gap=     0.229 Goal=   None    Shift=    0.000
 RMSDP=2.22D-04 MaxDP=4.34D-03 DE=-4.05D-02 OVMax= 7.74D-03

 Cycle   3  Pass 0  IDiag  1:
 RMSU=  1.92D-04    CP:  9.97D-01  1.07D+00
 E= -874.576467583937     Delta-E=       -0.000337627492 Rises=F Damp=F
 DIIS: error= 5.19D-04 at cycle   3 NSaved=   3.
 NSaved= 3 IEnMin= 3 EnMin= -874.576467583937     IErMin= 3 ErrMin= 5.19D-04
 ErrMax= 5.19D-04  0.00D+00 EMaxC= 1.00D-01 BMatC= 1.68D-04 BMatP= 3.11D-04
 IDIUse=3 WtCom= 9.95D-01 WtEn= 5.19D-03
 Coeff-Com: -0.351D-01 0.481D+00 0.554D+00
 Coeff-En:   0.000D+00 0.000D+00 0.100D+01
 Coeff:     -0.349D-01 0.479D+00 0.556D+00
 Gap=     0.228 Goal=   None    Shift=    0.000
 RMSDP=9.87D-05 MaxDP=2.40D-03 DE=-3.38D-04 OVMax= 2.94D-03

 Cycle   4  Pass 0  IDiag  1:
 RMSU=  6.84D-05    CP:  9.97D-01  1.09D+00  6.46D-01
 E= -874.576580500592     Delta-E=       -0.000112916655 Rises=F Damp=F
 DIIS: error= 3.41D-04 at cycle   4 NSaved=   4.
 NSaved= 4 IEnMin= 4 EnMin= -874.576580500592     IErMin= 4 ErrMin= 3.41D-04
 ErrMax= 3.41D-04  0.00D+00 EMaxC= 1.00D-01 BMatC= 4.38D-05 BMatP= 1.68D-04
 IDIUse=3 WtCom= 9.97D-01 WtEn= 3.41D-03
 Coeff-Com: -0.141D-01 0.176D+00 0.352D+00 0.486D+00
 Coeff-En:   0.000D+00 0.000D+00 0.172D+00 0.828D+00
 Coeff:     -0.140D-01 0.176D+00 0.351D+00 0.487D+00
 Gap=     0.228 Goal=   None    Shift=    0.000
 RMSDP=4.01D-05 MaxDP=1.56D-03 DE=-1.13D-04 OVMax= 2.00D-03

 Cycle   5  Pass 0  IDiag  1:
 RMSU=  3.03D-05    CP:  9.97D-01  1.09D+00  6.90D-01  6.43D-01
 E= -874.576610567916     Delta-E=       -0.000030067324 Rises=F Damp=F
 DIIS: error= 1.45D-04 at cycle   5 NSaved=   5.
 NSaved= 5 IEnMin= 5 EnMin= -874.576610567916     IErMin= 5 ErrMin= 1.45D-04
 ErrMax= 1.45D-04  0.00D+00 EMaxC= 1.00D-01 BMatC= 4.92D-06 BMatP= 4.38D-05
 IDIUse=3 WtCom= 9.99D-01 WtEn= 1.45D-03
 Coeff-Com: -0.458D-02 0.526D-01 0.155D+00 0.303D+00 0.494D+00
 Coeff-En:   0.000D+00 0.000D+00 0.000D+00 0.656D-01 0.934D+00
 Coeff:     -0.457D-02 0.525D-01 0.154D+00 0.303D+00 0.495D+00
 Gap=     0.228 Goal=   None    Shift=    0.000
 RMSDP=1.49D-05 MaxDP=5.53D-04 DE=-3.01D-05 OVMax= 7.77D-04

 Cycle   6  Pass 0  IDiag  1:
 RMSU=  8.50D-06    CP:  9.97D-01  1.09D+00  7.04D-01  7.26D-01  6.59D-01
 E= -874.576614370404     Delta-E=       -0.000003802488 Rises=F Damp=F
 DIIS: error= 2.86D-05 at cycle   6 NSaved=   6.
 NSaved= 6 IEnMin= 6 EnMin= -874.576614370404     IErMin= 6 ErrMin= 2.86D-05
 ErrMax= 2.86D-05  0.00D+00 EMaxC= 1.00D-01 BMatC= 3.88D-07 BMatP= 4.92D-06
 IDIUse=1 WtCom= 1.00D+00 WtEn= 0.00D+00
 Coeff-Com: -0.356D-03 0.119D-02 0.325D-01 0.921D-01 0.266D+00 0.609D+00
 Coeff:     -0.356D-03 0.119D-02 0.325D-01 0.921D-01 0.266D+00 0.609D+00
 Gap=     0.228 Goal=   None    Shift=    0.000
 RMSDP=4.26D-06 MaxDP=1.32D-04 DE=-3.80D-06 OVMax= 1.75D-04

 Initial convergence to 1.0D-05 achieved.  Increase integral accuracy.
 Cycle   7  Pass 1  IDiag  1:
 E= -874.576629174878     Delta-E=       -0.000014804474 Rises=F Damp=F
 DIIS: error= 1.60D-05 at cycle   1 NSaved=   1.
 NSaved= 1 IEnMin= 1 EnMin= -874.576629174878     IErMin= 1 ErrMin= 1.60D-05
 ErrMax= 1.60D-05  0.00D+00 EMaxC= 1.00D-01 BMatC= 7.54D-08 BMatP= 7.54D-08
 IDIUse=1 WtCom= 1.00D+00 WtEn= 0.00D+00
 Coeff-Com:  0.100D+01
 Coeff:      0.100D+01
 Gap=     0.228 Goal=   None    Shift=    0.000
 RMSDP=4.26D-06 MaxDP=1.32D-04 DE=-1.48D-05 OVMax= 1.33D-04

 Cycle   8  Pass 1  IDiag  1:
 RMSU=  6.20D-06    CP:  1.00D+00
 E= -874.576629135766     Delta-E=        0.000000039112 Rises=F Damp=F
 DIIS: error= 1.77D-05 at cycle   2 NSaved=   2.
 NSaved= 2 IEnMin= 1 EnMin= -874.576629174878     IErMin= 1 ErrMin= 1.60D-05
 ErrMax= 1.77D-05  0.00D+00 EMaxC= 1.00D-01 BMatC= 1.42D-07 BMatP= 7.54D-08
 IDIUse=1 WtCom= 1.00D+00 WtEn= 0.00D+00
 Coeff-Com:  0.587D+00 0.413D+00
 Coeff:      0.587D+00 0.413D+00
 Gap=     0.228 Goal=   None    Shift=    0.000
 RMSDP=2.05D-06 MaxDP=8.15D-05 DE= 3.91D-08 OVMax= 1.14D-04

 Cycle   9  Pass 1  IDiag  1:
 RMSU=  1.84D-06    CP:  1.00D+00  8.55D-01
 E= -874.576629240176     Delta-E=       -0.000000104410 Rises=F Damp=F
 DIIS: error= 4.94D-06 at cycle   3 NSaved=   3.
 NSaved= 3 IEnMin= 3 EnMin= -874.576629240176     IErMin= 3 ErrMin= 4.94D-06
 ErrMax= 4.94D-06  0.00D+00 EMaxC= 1.00D-01 BMatC= 7.70D-09 BMatP= 7.54D-08
 IDIUse=1 WtCom= 1.00D+00 WtEn= 0.00D+00
 Coeff-Com:  0.159D+00 0.206D+00 0.635D+00
 Coeff:      0.159D+00 0.206D+00 0.635D+00
 Gap=     0.228 Goal=   None    Shift=    0.000
 RMSDP=6.96D-07 MaxDP=2.46D-05 DE=-1.04D-07 OVMax= 3.96D-05

 Cycle  10  Pass 1  IDiag  1:
 RMSU=  6.11D-07    CP:  1.00D+00  8.63D-01  8.26D-01
 E= -874.576629243559     Delta-E=       -0.000000003383 Rises=F Damp=F
 DIIS: error= 3.29D-06 at cycle   4 NSaved=   4.
 NSaved= 4 IEnMin= 4 EnMin= -874.576629243559     IErMin= 4 ErrMin= 3.29D-06
 ErrMax= 3.29D-06  0.00D+00 EMaxC= 1.00D-01 BMatC= 3.33D-09 BMatP= 7.70D-09
 IDIUse=1 WtCom= 1.00D+00 WtEn= 0.00D+00
 Coeff-Com:  0.520D-02 0.694D-01 0.445D+00 0.481D+00
 Coeff:      0.520D-02 0.694D-01 0.445D+00 0.481D+00
 Gap=     0.228 Goal=   None    Shift=    0.000
 RMSDP=3.21D-07 MaxDP=1.09D-05 DE=-3.38D-09 OVMax= 1.38D-05

 Cycle  11  Pass 1  IDiag  1:
 RMSU=  1.44D-07    CP:  1.00D+00  8.71D-01  8.83D-01  5.75D-01
 E= -874.576629246093     Delta-E=       -0.000000002535 Rises=F Damp=F
 DIIS: error= 7.65D-07 at cycle   5 NSaved=   5.
 NSaved= 5 IEnMin= 5 EnMin= -874.576629246093     IErMin= 5 ErrMin= 7.65D-07
 ErrMax= 7.65D-07  0.00D+00 EMaxC= 1.00D-01 BMatC= 1.35D-10 BMatP= 3.33D-09
 IDIUse=1 WtCom= 1.00D+00 WtEn= 0.00D+00
 Coeff-Com: -0.484D-02 0.291D-01 0.220D+00 0.277D+00 0.479D+00
 Coeff:     -0.484D-02 0.291D-01 0.220D+00 0.277D+00 0.479D+00
 Gap=     0.228 Goal=   None    Shift=    0.000
 RMSDP=7.11D-08 MaxDP=2.43D-06 DE=-2.53D-09 OVMax= 2.05D-06

 Cycle  12  Pass 1  IDiag  1:
 RMSU=  4.69D-08    CP:  1.00D+00  8.75D-01  8.78D-01  5.68D-01  6.75D-01
 E= -874.576629246209     Delta-E=       -0.000000000116 Rises=F Damp=F
 DIIS: error= 7.03D-08 at cycle   6 NSaved=   6.
 NSaved= 6 IEnMin= 6 EnMin= -874.576629246209     IErMin= 6 ErrMin= 7.03D-08
 ErrMax= 7.03D-08  0.00D+00 EMaxC= 1.00D-01 BMatC= 2.62D-12 BMatP= 1.35D-10
 IDIUse=1 WtCom= 1.00D+00 WtEn= 0.00D+00
 Coeff-Com: -0.203D-02 0.736D-02 0.586D-01 0.784D-01 0.184D+00 0.674D+00
 Coeff:     -0.203D-02 0.736D-02 0.586D-01 0.784D-01 0.184D+00 0.674D+00
 Gap=     0.228 Goal=   None    Shift=    0.000
 RMSDP=1.49D-08 MaxDP=3.82D-07 DE=-1.16D-10 OVMax= 5.82D-07

 Cycle  13  Pass 1  IDiag  1:
 RMSU=  1.36D-08    CP:  1.00D+00  8.76D-01  8.79D-01  5.70D-01  6.98D-01
                    CP:  1.05D+00
 E= -874.576629246209     Delta-E=        0.000000000000 Rises=F Damp=F
 DIIS: error= 4.26D-08 at cycle   7 NSaved=   7.
 NSaved= 7 IEnMin= 6 EnMin= -874.576629246209     IErMin= 7 ErrMin= 4.26D-08
 ErrMax= 4.26D-08  0.00D+00 EMaxC= 1.00D-01 BMatC= 1.04D-12 BMatP= 2.62D-12
 IDIUse=1 WtCom= 1.00D+00 WtEn= 0.00D+00
 Coeff-Com: -0.616D-03 0.450D-03 0.560D-02 0.974D-02 0.487D-01 0.414D+00
 Coeff-Com:  0.522D+00
 Coeff:     -0.616D-03 0.450D-03 0.560D-02 0.974D-02 0.487D-01 0.414D+00
 Coeff:      0.522D+00
 Gap=     0.228 Goal=   None    Shift=    0.000
 RMSDP=6.77D-09 MaxDP=2.11D-07 DE= 2.27D-13 OVMax= 3.27D-07

 SCF Done:  E(RB3LYP) =  -874.576629246     A.U. after   13 cycles
            NFock= 13  Conv=0.68D-08     -V/T= 2.0064
 KE= 8.689889205801D+02 PE=-3.285724534671D+03 EE= 9.287988441891D+02
 Leave Link  502 at Fri Mar 14 15:12:39 2025, MaxMem=  8589934592 cpu:              72.3 elap:               9.4
 (Enter /home/enzo/gaussian_versions/gdv.j21/gdv/l701.exe)
 ... and contract with generalized density number  0.
 Compute integral first derivatives.
 Leave Link  701 at Fri Mar 14 15:12:40 2025, MaxMem=  8589934592 cpu:               5.2 elap:               0.9
 (Enter /home/enzo/gaussian_versions/gdv.j21/gdv/l702.exe)
 L702 exits ... SP integral derivatives will be done elsewhere.
 Leave Link  702 at Fri Mar 14 15:12:40 2025, MaxMem=  8589934592 cpu:               0.1 elap:               0.2
 (Enter /home/enzo/gaussian_versions/gdv.j21/gdv/l703.exe)
 Integral derivatives from FoFJK, PRISM(SPDF).
 Compute integral first derivatives, UseDBF=F ICtDFT=           0.
 Calling FoFJK, ICntrl=      2127 FMM=F ISym2X=0 I1Cent= 0 IOpClX= 0 NMat=1 NMatS=1 NMatT=0.
 FoFJK:  IHMeth= 1 ICntrl=    2127 DoSepK=F KAlg= 0 I1Cent=           0 FoldK=F
 IRaf=         0 NMat=       1 IRICut=       1 DoRegI=T DoRafI=F ISym2E= 0 IDoP0=0 IntGTp=1.
 FoFCou: FMM=F IPFlag=           0 FMFlag=      100000 FMFlg1=         800
         NFxFlg=           0 DoJE=F BraDBF=F KetDBF=F FulRan=T
         wScrn=  0.000000 ICntrl=      2127 IOpCl=  0 I1Cent=           0 NGrid=           0
         NMat0=    1 NMatS0=      1 NMatT0=    0 NMatD0=    1 NMtDS0=    0 NMtDT0=    0
 Symmetry not used in FoFCou.
 Leave Link  703 at Fri Mar 14 15:12:43 2025, MaxMem=  8589934592 cpu:              14.5 elap:               2.2
 (Enter /home/enzo/gaussian_versions/gdv.j21/gdv/l716.exe)
 Dipole        =-1.06309176D+00-5.15771391D-01-6.33011264D-01
 ***** Axes restored to original set *****
 -------------------------------------------------------------------
 Center     Atomic                   Forces (Hartrees/Bohr)
 Number     Number              X              Y              Z
 -------------------------------------------------------------------
      1        6           0.000470147   -0.000935964    0.000595691
      2        6          -0.002189554    0.002231820    0.001373452
      3       16          -0.001027078    0.001020677    0.001540822
      4        6           0.002248916   -0.010263602   -0.000552736
      5        8           0.000644490    0.004304947   -0.000084333
      6        7          -0.001510437    0.003395195   -0.000573961
      7        6          -0.001699296   -0.003145108    0.003281979
      8        6           0.003705198   -0.001761120   -0.004568592
      9        8           0.000411758    0.000994315    0.002065410
     10        8          -0.001001953    0.001886268    0.004727037
     11        1          -0.000034051    0.000276156   -0.000044956
     12        1           0.000328541   -0.000072405   -0.000080919
     13        1           0.000027901    0.000281632   -0.000169435
     14        1          -0.000272476    0.001074776   -0.000688082
     15        1           0.000532605   -0.000381114   -0.001055709
     16        1           0.001089606    0.001839845   -0.000145947
     17        1          -0.000550960    0.001339066    0.000188345
     18        1          -0.000077026   -0.000956973   -0.002417269
     19        1          -0.001096331   -0.001128410   -0.003390797
 -------------------------------------------------------------------
 Cartesian Forces:  Max     0.010263602 RMS     0.002239923
 Leave Link  716 at Fri Mar 14 15:12:43 2025, MaxMem=  8589934592 cpu:               0.3 elap:               0.3
 (Enter /home/enzo/gaussian_versions/gdv.j21/gdv/l103.exe)

 GradGradGradGradGradGradGradGradGradGradGradGradGradGradGradGradGradGrad
 Berny optimization.
 Using GEDIIS/GDIIS optimizer.
 FormGI is forming the generalized inverse of G from B-inverse, IUseBI=4.
 Internal  Forces:  Max     0.005653342 RMS     0.001436905
 Search for a local minimum.
 Step number   5 out of a maximum of   93
 All quantities printed in internal units (Hartrees-Bohrs-Radians)
 RMS Force = .14369D-02 SwitMx=.10000D-02 MixMth= 1
 Mixed Optimization -- RFO/linear search
 Update second derivatives using D2CorX and points    4    5
 DE= -1.24D-03 DEPred=-1.94D-03 R= 6.41D-01
 TightC=F SS=  1.41D+00  RLast= 6.25D-01 DXNew= 2.4000D+00 1.8761D+00
 Trust test= 6.41D-01 RLast= 6.25D-01 DXMaxT set to 1.88D+00
 ITU=  1  1  1  1  0
 Use linear search instead of GDIIS.
     Eigenvalues ---    0.00218   0.00298   0.00452   0.00775   0.00904
     Eigenvalues ---    0.01080   0.01178   0.01280   0.02379   0.03997
     Eigenvalues ---    0.04909   0.05215   0.05371   0.05674   0.05751
     Eigenvalues ---    0.06773   0.07889   0.09769   0.13150   0.15512
     Eigenvalues ---    0.15899   0.15999   0.16028   0.16055   0.16193
     Eigenvalues ---    0.17657   0.20145   0.21704   0.21892   0.23015
     Eigenvalues ---    0.23648   0.24644   0.24974   0.25592   0.26990
     Eigenvalues ---    0.30015   0.32148   0.32577   0.32586   0.32602
     Eigenvalues ---    0.32625   0.32663   0.32744   0.32915   0.37042
     Eigenvalues ---    0.40663   0.41962   0.46360   0.49336   0.79436
     Eigenvalues ---    0.80890
 RFO step:  Lambda=-2.08075977D-03 EMin= 2.17653706D-03
 Quartic linear search produced a step of -0.11555.
 Iteration  1 RMS(Cart)=  0.08666181 RMS(Int)=  0.00352181
 Iteration  2 RMS(Cart)=  0.00440371 RMS(Int)=  0.00009388
 Iteration  3 RMS(Cart)=  0.00001841 RMS(Int)=  0.00009309
 Iteration  4 RMS(Cart)=  0.00000000 RMS(Int)=  0.00009309
 Variable       Old X    -DE/DX   Delta X   Delta X   Delta X     New X
                                 (Linear)    (Quad)   (Total)
    R1        2.89752   0.00000   0.00074  -0.00448  -0.00374   2.89378
    R2        2.06559  -0.00005  -0.00005   0.00048   0.00043   2.06601
    R3        2.07473  -0.00020  -0.00014   0.00021   0.00007   2.07480
    R4        2.06685  -0.00004  -0.00004   0.00045   0.00041   2.06726
    R5        3.49742  -0.00057  -0.00113   0.00281   0.00168   3.49910
    R6        2.90852  -0.00324  -0.00088  -0.00683  -0.00771   2.90080
    R7        2.06917   0.00030   0.00004   0.00100   0.00104   2.07021
    R8        2.55631  -0.00110  -0.00055  -0.00118  -0.00173   2.55458
    R9        2.30772   0.00109   0.00004   0.00216   0.00220   2.30992
   R10        2.59809   0.00067  -0.00059   0.00556   0.00497   2.60306
   R11        2.75412  -0.00051   0.00044  -0.00303  -0.00259   2.75153
   R12        1.91276  -0.00025  -0.00031   0.00161   0.00130   1.91406
   R13        2.90074  -0.00128  -0.00157   0.00295   0.00137   2.90211
   R14        2.07196  -0.00004  -0.00006   0.00010   0.00003   2.07199
   R15        2.06896  -0.00045  -0.00030   0.00073   0.00043   2.06938
   R16        2.27277  -0.00040  -0.00018   0.00159   0.00142   2.27419
   R17        2.56966  -0.00146  -0.00002  -0.00112  -0.00114   2.56851
   R18        1.84601  -0.00185  -0.00059  -0.00025  -0.00084   1.84517
    A1        1.92692   0.00024   0.00000   0.00017   0.00018   1.92710
    A2        1.92902   0.00015   0.00002  -0.00001   0.00001   1.92903
    A3        1.91833   0.00039   0.00034   0.00129   0.00163   1.91997
    A4        1.89948  -0.00032  -0.00013  -0.00152  -0.00164   1.89784
    A5        1.89949  -0.00023  -0.00012   0.00048   0.00036   1.89985
    A6        1.88989  -0.00025  -0.00012  -0.00045  -0.00057   1.88932
    A7        1.97503  -0.00056  -0.00025  -0.00298  -0.00324   1.97180
    A8        1.91970   0.00145  -0.00040   0.00541   0.00499   1.92469
    A9        1.92795  -0.00051  -0.00107   0.00456   0.00349   1.93144
   A10        1.90563  -0.00098   0.00103  -0.01118  -0.01015   1.89549
   A11        1.80612   0.00081   0.00035   0.00595   0.00631   1.81242
   A12        1.92664  -0.00031   0.00040  -0.00209  -0.00169   1.92495
   A13        1.65048   0.00071   0.00023   0.00364   0.00387   1.65435
   A14        2.13327  -0.00062   0.00031  -0.00616  -0.00555   2.12772
   A15        2.01145   0.00035  -0.00036   0.00322   0.00317   2.01462
   A16        2.13650   0.00041  -0.00008   0.00324   0.00348   2.13998
   A17        2.12056   0.00007  -0.00096   0.00374   0.00267   2.12323
   A18        2.07791  -0.00087   0.00082  -0.00949  -0.00876   2.06915
   A19        2.05132   0.00078   0.00221  -0.00671  -0.00463   2.04669
   A20        1.93115   0.00488   0.00065   0.01831   0.01895   1.95010
   A21        1.84905  -0.00058   0.00218  -0.00401  -0.00192   1.84713
   A22        1.98785  -0.00229  -0.00199  -0.00691  -0.00887   1.97898
   A23        1.90861  -0.00099  -0.00081   0.00342   0.00256   1.91117
   A24        1.90699  -0.00194  -0.00023  -0.01037  -0.01055   1.89644
   A25        1.87753   0.00086   0.00026  -0.00029  -0.00006   1.87747
   A26        2.17467  -0.00429  -0.00058  -0.01346  -0.01435   2.16032
   A27        1.98412   0.00565   0.00063   0.01780   0.01812   2.00224
   A28        2.12369  -0.00129  -0.00004  -0.00279  -0.00314   2.12055
   A29        1.88944   0.00317   0.00159   0.01147   0.01306   1.90250
    D1        0.97908   0.00036   0.00157  -0.00431  -0.00274   0.97634
    D2        3.11553  -0.00023   0.00243  -0.01689  -0.01447   3.10106
    D3       -1.03656   0.00002   0.00197  -0.01288  -0.01090  -1.04746
    D4        3.08160   0.00021   0.00142  -0.00610  -0.00468   3.07692
    D5       -1.06514  -0.00038   0.00228  -0.01868  -0.01640  -1.08155
    D6        1.06596  -0.00013   0.00182  -0.01467  -0.01284   1.05312
    D7       -1.11654   0.00024   0.00150  -0.00584  -0.00434  -1.12088
    D8        1.01990  -0.00034   0.00236  -0.01843  -0.01607   1.00383
    D9       -3.13218  -0.00010   0.00190  -0.01441  -0.01250   3.13850
   D10        1.32917  -0.00005   0.00145  -0.06428  -0.06281   1.26636
   D11       -0.81509  -0.00082   0.00138  -0.06098  -0.05963  -0.87472
   D12       -2.86698  -0.00044   0.00026  -0.05660  -0.05632  -2.92331
   D13       -1.15836   0.00182  -0.00159   0.08647   0.08485  -1.07351
   D14        2.04894  -0.00049  -0.01867   0.08133   0.06270   2.11164
   D15        1.01860   0.00143  -0.00148   0.07872   0.07721   1.09581
   D16       -2.05728  -0.00088  -0.01855   0.07358   0.05506  -2.00222
   D17        2.99295   0.00169  -0.00025   0.07853   0.07824   3.07119
   D18       -0.08294  -0.00062  -0.01733   0.07339   0.05610  -0.02684
   D19       -3.03420   0.00063   0.00523   0.00360   0.00883  -3.02538
   D20       -0.17420   0.00067   0.01577  -0.04886  -0.03299  -0.20719
   D21        0.17323  -0.00164  -0.01186  -0.00116  -0.01311   0.16012
   D22        3.03324  -0.00161  -0.00132  -0.05362  -0.05493   2.97830
   D23       -2.53033   0.00004  -0.01664   0.10821   0.09153  -2.43881
   D24       -0.46346   0.00110  -0.01596   0.11963   0.10364  -0.35982
   D25        1.59666   0.00049  -0.01536   0.11279   0.09742   1.69408
   D26        0.88874   0.00026  -0.02688   0.16037   0.13350   1.02223
   D27        2.95561   0.00132  -0.02620   0.17179   0.14561   3.10122
   D28       -1.26745   0.00071  -0.02560   0.16494   0.13939  -1.12806
   D29       -2.43526  -0.00084   0.00721  -0.10119  -0.09389  -2.52914
   D30        0.66635   0.00121   0.01626  -0.05733  -0.04107   0.62528
   D31        1.81765  -0.00237   0.00466  -0.10893  -0.10426   1.71339
   D32       -1.36392  -0.00032   0.01371  -0.06508  -0.05145  -1.41537
   D33       -0.23313  -0.00172   0.00495  -0.10456  -0.09958  -0.33272
   D34        2.86848   0.00034   0.01400  -0.06071  -0.04677   2.82171
   D35        0.12567  -0.00337  -0.01214  -0.07651  -0.08879   0.03689
   D36       -3.05459  -0.00147  -0.00337  -0.03438  -0.03761  -3.09220
         Item               Value     Threshold  Converged?
 Maximum Force            0.005653     0.000450     NO 
 RMS     Force            0.001437     0.000300     NO 
 Maximum Displacement     0.304394     0.001800     NO 
 RMS     Displacement     0.086499     0.001200     NO 
 Predicted change in Energy=-1.293147D-03
 Lowest energy point so far.  Saving SCF results.
 GradGradGradGradGradGradGradGradGradGradGradGradGradGradGradGradGradGrad

 Leave Link  103 at Fri Mar 14 15:12:44 2025, MaxMem=  8589934592 cpu:               2.8 elap:               0.6
 (Enter /home/enzo/gaussian_versions/gdv.j21/gdv/l202.exe)
                          Input orientation:                          
 ---------------------------------------------------------------------
 Center     Atomic      Atomic             Coordinates (Angstroms)
 Number     Number       Type             X           Y           Z
 ---------------------------------------------------------------------
      1          6           0        2.622578    1.406449   -1.011799
      2          6           0        1.748504    0.160500   -0.842834
      3         16           0        2.685948   -1.297003   -0.190551
      4          6           0        0.579325    0.455715    0.107014
      5          8           0        0.759230    0.782825    1.270967
      6          7           0       -0.677230    0.274403   -0.427449
      7          6           0       -1.879631    0.649898    0.302832
      8          6           0       -2.998440   -0.387465    0.127875
      9          8           0       -4.167367   -0.107370    0.069126
     10          8           0       -2.572596   -1.676301    0.057290
     11          1           0        3.478869    1.187172   -1.655196
     12          1           0        2.044170    2.224429   -1.461042
     13          1           0        2.989361    1.741299   -0.037088
     14          1           0        1.372559   -0.182452   -1.812983
     15          1           0        2.801225   -0.805048    1.063291
     16          1           0       -0.763583    0.145061   -1.428315
     17          1           0       -1.586119    0.697237    1.358206
     18          1           0       -2.268231    1.634791    0.023267
     19          1           0       -1.602724   -1.697259    0.168249
 ---------------------------------------------------------------------
                    Distance matrix (angstroms):
                    1          2          3          4          5
     1  C    0.000000
     2  C    1.531321   0.000000
     3  S    2.826149   1.851645   0.000000
     4  C    2.516053   1.535039   2.756525   0.000000
     5  O    3.011975   2.415389   3.189665   1.222356   0.000000
     6  N    3.537192   2.463677   3.719732   1.377481   2.281781
     7  C    4.750843   3.836068   4.987821   2.474371   2.813990
     8  C    6.009395   4.876066   5.765494   3.675838   4.098331
     9  O    7.040128   5.991740   6.960645   4.780123   5.148613
    10  O    6.134830   4.780792   5.278028   3.805597   4.315249
    11  H    1.093287   2.169827   2.990825   3.470990   4.015266
    12  H    1.097938   2.174719   3.798225   2.780813   3.345620
    13  H    1.093946   2.165151   3.057269   2.735282   2.757384
    14  H    2.174637   1.095509   2.366327   2.173216   3.289176
    15  H    3.037867   2.381978   1.351824   2.727789   2.595036
    16  H    3.637399   2.579459   3.938385   2.063284   3.164147
    17  H    4.881910   4.031424   4.962479   2.512561   2.348531
    18  H    5.004349   4.365527   5.760644   3.083148   3.383507
    19  H    5.373890   3.962864   4.322228   3.066005   3.598003
                    6          7          8          9         10
     6  N    0.000000
     7  C    1.456047   0.000000
     8  C    2.476786   1.535730   0.000000
     9  O    3.545898   2.421117   1.203451   0.000000
    10  O    2.762722   2.439609   1.359199   2.237180   0.000000
    11  H    4.428732   5.730275   6.900316   7.944435   6.910305
    12  H    3.503846   4.581114   5.896996   6.808956   6.231818
    13  H    3.968382   5.001378   6.357092   7.392402   6.528726
    14  H    2.515961   3.968150   4.786919   5.851389   4.614516
    15  H    3.935374   4.960401   5.889439   7.073640   5.536160
    16  H    1.012877   2.120682   2.774869   3.727170   2.965959
    17  H    2.047787   1.096451   2.164473   2.995323   2.880833
    18  H    2.141281   1.095071   2.152596   2.577585   3.325225
    19  H    2.258063   2.367264   1.914475   3.019100   0.976424
                   11         12         13         14         15
    11  H    0.000000
    12  H    1.781000   0.000000
    13  H    1.779030   1.776077   0.000000
    14  H    2.517401   2.523489   3.077121   0.000000
    15  H    3.437777   4.015361   2.780308   3.271340   0.000000
    16  H    4.374457   3.494041   4.309070   2.195071   4.451816
    17  H    5.913944   4.843499   4.896114   4.425390   4.646786
    18  H    6.003895   4.598657   5.259017   4.464251   5.721350
    19  H    6.121069   5.597684   5.740479   3.882298   4.581693
                   16         17         18         19
    16  H    0.000000
    17  H    2.957392   0.000000
    18  H    2.567168   1.768148   0.000000
    19  H    2.578240   2.673927   3.400953   0.000000
 Stoichiometry    C5H9NO3S
 Framework group  C1[X(C5H9NO3S)]
 Deg. of freedom    51
 Full point group                 C1      NOp   1
 RotChk:  IX=0 Diff= 3.56D-02
 Largest Abelian subgroup         C1      NOp   1
 Largest concise Abelian subgroup C1      NOp   1
                         Standard orientation:                         
 ---------------------------------------------------------------------
 Center     Atomic      Atomic             Coordinates (Angstroms)
 Number     Number       Type             X           Y           Z
 ---------------------------------------------------------------------
      1          6           0       -2.797075   -1.394994   -0.636368
      2          6           0       -1.852345   -0.190530   -0.595208
      3         16           0       -2.655678    1.335435    0.079091
      4          6           0       -0.617584   -0.511858    0.258289
      5          8           0       -0.706965   -0.787978    1.445691
      6          7           0        0.592719   -0.414481   -0.392201
      7          6           0        1.836795   -0.825393    0.243016
      8          6           0        2.983811    0.146149   -0.071510
      9          8           0        4.127785   -0.195676   -0.222420
     10          8           0        2.615857    1.451910   -0.155287
     11          1           0       -3.696521   -1.154754   -1.209568
     12          1           0       -2.301733   -2.257026   -1.102207
     13          1           0       -3.089846   -1.675896    0.379554
     14          1           0       -1.549658    0.098146   -1.607723
     15          1           0       -2.680571    0.894634    1.356786
     16          1           0        0.594279   -0.325167   -1.401132
     17          1           0        1.638047   -0.820270    1.321292
     18          1           0        2.150647   -1.838246   -0.030490
     19          1           0        1.662141    1.526696    0.040255
 ---------------------------------------------------------------------
 Rotational constants (GHZ):           2.3611430           0.4981454           0.4546236
 Leave Link  202 at Fri Mar 14 15:12:44 2025, MaxMem=  8589934592 cpu:               0.2 elap:               0.3
 (Enter /home/enzo/gaussian_versions/gdv.j21/gdv/l301.exe)
 Standard basis: 6-31G(d) (6D, 7F)
 Ernie: Thresh=  0.10000D-02 Tol=  0.10000D-05 Strict=F.
 There are   172 symmetry adapted cartesian basis functions of A   symmetry.
 There are   172 symmetry adapted basis functions of A   symmetry.
   172 basis functions,   340 primitive gaussians,   172 cartesian basis functions
    43 alpha electrons       43 beta electrons
       nuclear repulsion energy       613.6610627223 Hartrees.
 IExCor=      4002 DFT=T Ex+Corr=B3LYP ScaHFX=  0.200000
 ScaDFX=  0.800000  0.720000  1.000000  0.810000  1.000000  0.000000
 ScaDFX=  0.000000  0.000000  0.000000  0.000000  0.000000  0.000000
 IRadAn=      5 IRanWt=     -1 IRanGd=            0 ICorTp=0 IEmpDi=  4
 NAtoms=   19 NActive=   19 NUniq=   19 SFac= 1.00D+00 NAtFMM=   60 NAOKFM=F Big=F
 Integral buffers will be    131072 words long.
 Raffenetti 2 integral format.
 Two-electron integral symmetry is turned on.
 Leave Link  301 at Fri Mar 14 15:12:44 2025, MaxMem=  8589934592 cpu:               0.4 elap:               0.2
 (Enter /home/enzo/gaussian_versions/gdv.j21/gdv/l302.exe)
 NPDir=0 NMtPBC=     1 NCelOv=     1 NCel=       1 NClECP=     1 NCelD=      1
         NCelK=      1 NCelE2=     1 NClLst=     1 CellRange=     0.0.
 One-electron integrals computed using PRISM.
 One-electron integral symmetry used in STVInt
 NBasis=   172 RedAO= T EigKep=  2.63D-03  NBF=   172
 NBsUse=   172 1.00D-06 EigRej= -1.00D+00 NBFU=   172
 Precomputing XC quadrature grid using
 IXCGrd= 4 IRadAn=           5 IRanWt=          -1 IRanGd=           0 AccXCQ= 0.00D+00.
 Generated NRdTot=       0 NPtTot=      406632 NUsed=           0 NTot=          64
 NSgBfM=   171   171   171   171   171 MxSgAt=    19 MxSgA2=    19 SizInc=   0.000
 NMBTot=     3475 MaxBatPerAtom=       85 MaxMicBPerAtom=      207 NBfPt=            50976374.
 Leave Link  302 at Fri Mar 14 15:12:45 2025, MaxMem=  8589934592 cpu:               3.3 elap:               0.5
 (Enter /home/enzo/gaussian_versions/gdv.j21/gdv/l303.exe)
 DipDrv:  MaxL=1.
 Leave Link  303 at Fri Mar 14 15:12:45 2025, MaxMem=  8589934592 cpu:               0.7 elap:               0.2
 (Enter /home/enzo/gaussian_versions/gdv.j21/gdv/l401.exe)
 Initial guess from the checkpoint file:  "/local/home/enzo/scratch/Gau-2337715.chk"
 B after Tr=     0.000000    0.000000   -0.000000
         Rot=    0.999959   -0.007665   -0.002346    0.004101 Ang=  -1.03 deg.
 AO Guess basis will be translated and rotated to current coordinates.
 JPrj=2 DoOrth=T DoCkMO=T.
 Generating alternative initial guess.
 ExpMin= 1.17D-01 ExpMax= 2.19D+04 ExpMxC= 3.30D+03 IAcc=3 IRadAn=         5 AccDes= 0.00D+00
 Harris functional with IExCor= 4002 and IRadAn=       5 diagonalized for initial guess.
 HarFok:  IExCor=    4002 AccDes= 0.00D+00 IRadAn=         5 IDoV= 1 UseB2=F ITyADJ=14 ICtDFT=  3500011
 FoFCou: FMM=F IPFlag=           0 FMFlag=      100000 FMFlg1=           0
         NFxFlg=           0 DoJE=T BraDBF=F KetDBF=T FulRan=T
         wScrn=  0.000000 ICntrl=       500 IOpCl=  0 I1Cent=   200000004 NGrid=           0
         NMat0=    1 NMatS0=      1 NMatT0=    0 NMatD0=    1 NMtDS0=    0 NMtDT0=    0
 Petite list used in FoFCou.
 Harris En= -874.546028870227    
 Leave Link  401 at Fri Mar 14 15:12:47 2025, MaxMem=  8589934592 cpu:              14.6 elap:               2.2
 (Enter /home/enzo/gaussian_versions/gdv.j21/gdv/l502.exe)
 Integral symmetry usage will be decided dynamically.
 Closed shell SCF:
 Using DIIS extrapolation, IDIIS=  1040.
 NGot=  8589934592 LenX=  8589843591 LenY=  8589813566
 Requested convergence on RMS density matrix=1.00D-08 within 128 cycles.
 Requested convergence on MAX density matrix=1.00D-06.
 Requested convergence on             energy=1.00D-06.
 No special actions if energy rises.
 Fock matrices will be formed incrementally for  20 cycles.
 Integral accuracy reduced to 1.0D-05 until final iterations.

 Cycle   1  Pass 0  IDiag  1:
 FoFJK:  IHMeth= 1 ICntrl=       0 DoSepK=F KAlg= 0 I1Cent=           0 FoldK=F
 IRaf= 900000000 NMat=       1 IRICut=       1 DoRegI=T DoRafI=F ISym2E= 0 IDoP0=0 IntGTp=1.
 FoFCou: FMM=F IPFlag=           0 FMFlag=      100000 FMFlg1=           0
         NFxFlg=           0 DoJE=F BraDBF=F KetDBF=F FulRan=T
         wScrn=  0.000000 ICntrl=         0 IOpCl=  0 I1Cent=           0 NGrid=           0
         NMat0=    1 NMatS0=      1 NMatT0=    0 NMatD0=    1 NMtDS0=    0 NMtDT0=    0
 Symmetry not used in FoFCou.
 E= -874.564632752711    
 DIIS: error= 4.69D-03 at cycle   1 NSaved=   1.
 NSaved= 1 IEnMin= 1 EnMin= -874.564632752711     IErMin= 1 ErrMin= 4.69D-03
 ErrMax= 4.69D-03  0.00D+00 EMaxC= 1.00D-01 BMatC= 7.06D-03 BMatP= 7.06D-03
 IDIUse=3 WtCom= 9.53D-01 WtEn= 4.69D-02
 Coeff-Com:  0.100D+01
 Coeff-En:   0.100D+01
 Coeff:      0.100D+01
 Gap=     1.545 Goal=   None    Shift=    0.000
 GapD=    1.545 DampG=2.000 DampE=1.000 DampFc=2.0000 IDamp=-1.
 RMSDP=9.19D-04 MaxDP=2.11D-02              OVMax= 2.64D-02

 Cycle   2  Pass 0  IDiag  1:
 RMSU=  9.19D-04    CP:  9.99D-01
 E= -874.578113296904     Delta-E=       -0.013480544193 Rises=F Damp=F
 DIIS: error= 5.88D-04 at cycle   2 NSaved=   2.
 NSaved= 2 IEnMin= 2 EnMin= -874.578113296904     IErMin= 2 ErrMin= 5.88D-04
 ErrMax= 5.88D-04  0.00D+00 EMaxC= 1.00D-01 BMatC= 1.39D-04 BMatP= 7.06D-03
 IDIUse=3 WtCom= 9.94D-01 WtEn= 5.88D-03
 Coeff-Com: -0.599D-01 0.106D+01
 Coeff-En:   0.000D+00 0.100D+01
 Coeff:     -0.596D-01 0.106D+01
 Gap=     0.229 Goal=   None    Shift=    0.000
 RMSDP=1.69D-04 MaxDP=3.59D-03 DE=-1.35D-02 OVMax= 6.11D-03

 Cycle   3  Pass 0  IDiag  1:
 RMSU=  1.60D-04    CP:  9.99D-01  1.06D+00
 E= -874.578164597726     Delta-E=       -0.000051300822 Rises=F Damp=F
 DIIS: error= 8.42D-04 at cycle   3 NSaved=   3.
 NSaved= 3 IEnMin= 3 EnMin= -874.578164597726     IErMin= 2 ErrMin= 5.88D-04
 ErrMax= 8.42D-04  0.00D+00 EMaxC= 1.00D-01 BMatC= 2.05D-04 BMatP= 1.39D-04
 IDIUse=3 WtCom= 2.56D-01 WtEn= 7.44D-01
 Coeff-Com: -0.467D-01 0.623D+00 0.423D+00
 Coeff-En:   0.000D+00 0.388D+00 0.612D+00
 Coeff:     -0.120D-01 0.448D+00 0.564D+00
 Gap=     0.228 Goal=   None    Shift=    0.000
 RMSDP=1.37D-04 MaxDP=5.12D-03 DE=-5.13D-05 OVMax= 7.68D-03

 Cycle   4  Pass 0  IDiag  1:
 RMSU=  8.21D-05    CP:  1.00D+00  1.08D+00  3.29D-01
 E= -874.578223577528     Delta-E=       -0.000058979802 Rises=F Damp=F
 DIIS: error= 8.06D-04 at cycle   4 NSaved=   4.
 NSaved= 4 IEnMin= 4 EnMin= -874.578223577528     IErMin= 2 ErrMin= 5.88D-04
 ErrMax= 8.06D-04  0.00D+00 EMaxC= 1.00D-01 BMatC= 1.42D-04 BMatP= 1.39D-04
 IDIUse=3 WtCom= 9.92D-01 WtEn= 8.06D-03
 Coeff-Com: -0.183D-01 0.195D+00 0.423D+00 0.400D+00
 Coeff-En:   0.000D+00 0.000D+00 0.419D+00 0.581D+00
 Coeff:     -0.181D-01 0.193D+00 0.423D+00 0.402D+00
 Gap=     0.228 Goal=   None    Shift=    0.000
 RMSDP=6.23D-05 MaxDP=2.62D-03 DE=-5.90D-05 OVMax= 3.62D-03

 Cycle   5  Pass 0  IDiag  1:
 RMSU=  1.82D-05    CP:  9.99D-01  1.08D+00  5.83D-01  4.75D-01
 E= -874.578333969727     Delta-E=       -0.000110392199 Rises=F Damp=F
 DIIS: error= 4.25D-05 at cycle   5 NSaved=   5.
 NSaved= 5 IEnMin= 5 EnMin= -874.578333969727     IErMin= 5 ErrMin= 4.25D-05
 ErrMax= 4.25D-05  0.00D+00 EMaxC= 1.00D-01 BMatC= 1.07D-06 BMatP= 1.39D-04
 IDIUse=1 WtCom= 1.00D+00 WtEn= 0.00D+00
 Coeff-Com: -0.445D-02 0.383D-01 0.161D+00 0.181D+00 0.624D+00
 Coeff:     -0.445D-02 0.383D-01 0.161D+00 0.181D+00 0.624D+00
 Gap=     0.228 Goal=   None    Shift=    0.000
 RMSDP=7.05D-06 MaxDP=2.51D-04 DE=-1.10D-04 OVMax= 2.85D-04

 Initial convergence to 1.0D-05 achieved.  Increase integral accuracy.
 Cycle   6  Pass 1  IDiag  1:
 E= -874.578330856547     Delta-E=        0.000003113180 Rises=F Damp=F
 DIIS: error= 2.58D-05 at cycle   1 NSaved=   1.
 NSaved= 1 IEnMin= 1 EnMin= -874.578330856547     IErMin= 1 ErrMin= 2.58D-05
 ErrMax= 2.58D-05  0.00D+00 EMaxC= 1.00D-01 BMatC= 2.88D-07 BMatP= 2.88D-07
 IDIUse=1 WtCom= 1.00D+00 WtEn= 0.00D+00
 Coeff-Com:  0.100D+01
 Coeff:      0.100D+01
 Gap=     0.228 Goal=   None    Shift=    0.000
 RMSDP=7.05D-06 MaxDP=2.51D-04 DE= 3.11D-06 OVMax= 3.88D-04

 Cycle   7  Pass 1  IDiag  1:
 RMSU=  7.95D-06    CP:  1.00D+00
 E= -874.578330450697     Delta-E=        0.000000405850 Rises=F Damp=F
 DIIS: error= 4.73D-05 at cycle   2 NSaved=   2.
 NSaved= 2 IEnMin= 1 EnMin= -874.578330856547     IErMin= 1 ErrMin= 2.58D-05
 ErrMax= 4.73D-05  0.00D+00 EMaxC= 1.00D-01 BMatC= 8.63D-07 BMatP= 2.88D-07
 IDIUse=1 WtCom= 1.00D+00 WtEn= 0.00D+00
 Coeff-Com:  0.639D+00 0.361D+00
 Coeff:      0.639D+00 0.361D+00
 Gap=     0.228 Goal=   None    Shift=    0.000
 RMSDP=4.44D-06 MaxDP=1.85D-04 DE= 4.06D-07 OVMax= 3.00D-04

 Cycle   8  Pass 1  IDiag  1:
 RMSU=  2.74D-06    CP:  1.00D+00  5.62D-01
 E= -874.578331080723     Delta-E=       -0.000000630026 Rises=F Damp=F
 DIIS: error= 6.70D-06 at cycle   3 NSaved=   3.
 NSaved= 3 IEnMin= 3 EnMin= -874.578331080723     IErMin= 3 ErrMin= 6.70D-06
 ErrMax= 6.70D-06  0.00D+00 EMaxC= 1.00D-01 BMatC= 1.75D-08 BMatP= 2.88D-07
 IDIUse=1 WtCom= 1.00D+00 WtEn= 0.00D+00
 Coeff-Com:  0.281D+00 0.189D+00 0.531D+00
 Coeff:      0.281D+00 0.189D+00 0.531D+00
 Gap=     0.228 Goal=   None    Shift=    0.000
 RMSDP=9.30D-07 MaxDP=3.50D-05 DE=-6.30D-07 OVMax= 5.02D-05

 Cycle   9  Pass 1  IDiag  1:
 RMSU=  7.98D-07    CP:  1.00D+00  5.98D-01  8.63D-01
 E= -874.578331091106     Delta-E=       -0.000000010383 Rises=F Damp=F
 DIIS: error= 4.19D-06 at cycle   4 NSaved=   4.
 NSaved= 4 IEnMin= 4 EnMin= -874.578331091106     IErMin= 4 ErrMin= 4.19D-06
 ErrMax= 4.19D-06  0.00D+00 EMaxC= 1.00D-01 BMatC= 4.85D-09 BMatP= 1.75D-08
 IDIUse=1 WtCom= 1.00D+00 WtEn= 0.00D+00
 Coeff-Com:  0.251D-01 0.341D-01 0.358D+00 0.583D+00
 Coeff:      0.251D-01 0.341D-01 0.358D+00 0.583D+00
 Gap=     0.228 Goal=   None    Shift=    0.000
 RMSDP=3.95D-07 MaxDP=1.41D-05 DE=-1.04D-08 OVMax= 1.66D-05

 Cycle  10  Pass 1  IDiag  1:
 RMSU=  2.51D-07    CP:  1.00D+00  5.97D-01  9.22D-01  6.79D-01
 E= -874.578331094827     Delta-E=       -0.000000003721 Rises=F Damp=F
 DIIS: error= 5.16D-07 at cycle   5 NSaved=   5.
 NSaved= 5 IEnMin= 5 EnMin= -874.578331094827     IErMin= 5 ErrMin= 5.16D-07
 ErrMax= 5.16D-07  0.00D+00 EMaxC= 1.00D-01 BMatC= 2.09D-10 BMatP= 4.85D-09
 IDIUse=1 WtCom= 1.00D+00 WtEn= 0.00D+00
 Coeff-Com: -0.885D-02 0.234D-02 0.134D+00 0.284D+00 0.589D+00
 Coeff:     -0.885D-02 0.234D-02 0.134D+00 0.284D+00 0.589D+00
 Gap=     0.228 Goal=   None    Shift=    0.000
 RMSDP=1.12D-07 MaxDP=2.63D-06 DE=-3.72D-09 OVMax= 4.27D-06

 Cycle  11  Pass 1  IDiag  1:
 RMSU=  8.80D-08    CP:  1.00D+00  6.00D-01  9.26D-01  6.97D-01  7.61D-01
 E= -874.578331095003     Delta-E=       -0.000000000176 Rises=F Damp=F
 DIIS: error= 2.45D-07 at cycle   6 NSaved=   6.
 NSaved= 6 IEnMin= 6 EnMin= -874.578331095003     IErMin= 6 ErrMin= 2.45D-07
 ErrMax= 2.45D-07  0.00D+00 EMaxC= 1.00D-01 BMatC= 2.76D-11 BMatP= 2.09D-10
 IDIUse=1 WtCom= 1.00D+00 WtEn= 0.00D+00
 Coeff-Com: -0.753D-02-0.172D-02 0.465D-01 0.114D+00 0.325D+00 0.524D+00
 Coeff:     -0.753D-02-0.172D-02 0.465D-01 0.114D+00 0.325D+00 0.524D+00
 Gap=     0.228 Goal=   None    Shift=    0.000
 RMSDP=3.90D-08 MaxDP=1.30D-06 DE=-1.76D-10 OVMax= 1.66D-06

 Cycle  12  Pass 1  IDiag  1:
 RMSU=  3.35D-08    CP:  1.00D+00  6.00D-01  9.28D-01  7.01D-01  8.02D-01
                    CP:  8.24D-01
 E= -874.578331095020     Delta-E=       -0.000000000018 Rises=F Damp=F
 DIIS: error= 1.18D-07 at cycle   7 NSaved=   7.
 NSaved= 7 IEnMin= 7 EnMin= -874.578331095020     IErMin= 7 ErrMin= 1.18D-07
 ErrMax= 1.18D-07  0.00D+00 EMaxC= 1.00D-01 BMatC= 4.34D-12 BMatP= 2.76D-11
 IDIUse=1 WtCom= 1.00D+00 WtEn= 0.00D+00
 Coeff-Com: -0.267D-02-0.150D-02 0.339D-03 0.976D-02 0.701D-01 0.294D+00
 Coeff-Com:  0.630D+00
 Coeff:     -0.267D-02-0.150D-02 0.339D-03 0.976D-02 0.701D-01 0.294D+00
 Coeff:      0.630D+00
 Gap=     0.228 Goal=   None    Shift=    0.000
 RMSDP=1.69D-08 MaxDP=5.36D-07 DE=-1.75D-11 OVMax= 9.74D-07

 Cycle  13  Pass 1  IDiag  1:
 RMSU=  1.30D-08    CP:  1.00D+00  6.00D-01  9.29D-01  7.03D-01  8.12D-01
                    CP:  9.27D-01  8.84D-01
 E= -874.578331095034     Delta-E=       -0.000000000014 Rises=F Damp=F
 DIIS: error= 5.81D-08 at cycle   8 NSaved=   8.
 NSaved= 8 IEnMin= 8 EnMin= -874.578331095034     IErMin= 8 ErrMin= 5.81D-08
 ErrMax= 5.81D-08  0.00D+00 EMaxC= 1.00D-01 BMatC= 1.42D-12 BMatP= 4.34D-12
 IDIUse=1 WtCom= 1.00D+00 WtEn= 0.00D+00
 Coeff-Com: -0.826D-04-0.549D-03-0.915D-02-0.171D-01-0.260D-01 0.722D-01
 Coeff-Com:  0.427D+00 0.553D+00
 Coeff:     -0.826D-04-0.549D-03-0.915D-02-0.171D-01-0.260D-01 0.722D-01
 Coeff:      0.427D+00 0.553D+00
 Gap=     0.228 Goal=   None    Shift=    0.000
 RMSDP=7.60D-09 MaxDP=1.51D-07 DE=-1.39D-11 OVMax= 3.99D-07

 SCF Done:  E(RB3LYP) =  -874.578331095     A.U. after   13 cycles
            NFock= 13  Conv=0.76D-08     -V/T= 2.0064
 KE= 8.689795107206D+02 PE=-3.286337804255D+03 EE= 9.291188997167D+02
 Leave Link  502 at Fri Mar 14 15:12:57 2025, MaxMem=  8589934592 cpu:              73.8 elap:               9.3
 (Enter /home/enzo/gaussian_versions/gdv.j21/gdv/l701.exe)
 ... and contract with generalized density number  0.
 Compute integral first derivatives.
 Leave Link  701 at Fri Mar 14 15:12:57 2025, MaxMem=  8589934592 cpu:               3.2 elap:               0.6
 (Enter /home/enzo/gaussian_versions/gdv.j21/gdv/l702.exe)
 L702 exits ... SP integral derivatives will be done elsewhere.
 Leave Link  702 at Fri Mar 14 15:12:58 2025, MaxMem=  8589934592 cpu:               0.1 elap:               0.2
 (Enter /home/enzo/gaussian_versions/gdv.j21/gdv/l703.exe)
 Integral derivatives from FoFJK, PRISM(SPDF).
 Compute integral first derivatives, UseDBF=F ICtDFT=           0.
 Calling FoFJK, ICntrl=      2127 FMM=F ISym2X=0 I1Cent= 0 IOpClX= 0 NMat=1 NMatS=1 NMatT=0.
 FoFJK:  IHMeth= 1 ICntrl=    2127 DoSepK=F KAlg= 0 I1Cent=           0 FoldK=F
 IRaf=         0 NMat=       1 IRICut=       1 DoRegI=T DoRafI=F ISym2E= 0 IDoP0=0 IntGTp=1.
 FoFCou: FMM=F IPFlag=           0 FMFlag=      100000 FMFlg1=         800
         NFxFlg=           0 DoJE=F BraDBF=F KetDBF=F FulRan=T
         wScrn=  0.000000 ICntrl=      2127 IOpCl=  0 I1Cent=           0 NGrid=           0
         NMat0=    1 NMatS0=      1 NMatT0=    0 NMatD0=    1 NMtDS0=    0 NMtDT0=    0
 Symmetry not used in FoFCou.
 Leave Link  703 at Fri Mar 14 15:13:00 2025, MaxMem=  8589934592 cpu:              17.8 elap:               2.5
 (Enter /home/enzo/gaussian_versions/gdv.j21/gdv/l716.exe)
 Dipole        =-1.21050218D+00-5.76291448D-01-7.69922310D-01
 ***** Axes restored to original set *****
 -------------------------------------------------------------------
 Center     Atomic                   Forces (Hartrees/Bohr)
 Number     Number              X              Y              Z
 -------------------------------------------------------------------
      1        6           0.000709491   -0.000224255   -0.000026782
      2        6          -0.002055917    0.000988634    0.001657006
      3       16          -0.000540610    0.000035792    0.000287788
      4        6           0.001303749   -0.004541408    0.000991435
      5        8          -0.000486572    0.001857708   -0.001490593
      6        7          -0.000683704    0.001658762   -0.001249691
      7        6          -0.000918963   -0.002287416    0.001747666
      8        6           0.002499496   -0.003088344    0.000758257
      9        8           0.000907279    0.001117306    0.000177595
     10        8          -0.000464018    0.003263387    0.001687394
     11        1          -0.000167218    0.000179657    0.000024308
     12        1           0.000278681   -0.000075955    0.000096869
     13        1          -0.000223031    0.000102018   -0.000316982
     14        1           0.000698751    0.000514531   -0.000406659
     15        1           0.000098285   -0.000109764   -0.000757074
     16        1           0.001058292    0.000926506    0.000453595
     17        1          -0.001134249    0.000308096   -0.000008655
     18        1          -0.000025426   -0.001048259   -0.001721910
     19        1          -0.000854314    0.000423005   -0.001903567
 -------------------------------------------------------------------
 Cartesian Forces:  Max     0.004541408 RMS     0.001312389
 Leave Link  716 at Fri Mar 14 15:13:00 2025, MaxMem=  8589934592 cpu:               0.5 elap:               0.3
 (Enter /home/enzo/gaussian_versions/gdv.j21/gdv/l103.exe)

 GradGradGradGradGradGradGradGradGradGradGradGradGradGradGradGradGradGrad
 Berny optimization.
 Using GEDIIS/GDIIS optimizer.
 FormGI is forming the generalized inverse of G from B-inverse, IUseBI=4.
 Internal  Forces:  Max     0.003896172 RMS     0.000872885
 Search for a local minimum.
 Step number   6 out of a maximum of   93
 All quantities printed in internal units (Hartrees-Bohrs-Radians)
 RMS Force = .87289D-03 SwitMx=.10000D-02 MixMth= 2
 Mixed Optimization -- En-DIIS/RFO-DIIS
 Update second derivatives using D2CorX and points    5    6
 DE= -1.70D-03 DEPred=-1.29D-03 R= 1.32D+00
 TightC=F SS=  1.41D+00  RLast= 4.24D-01 DXNew= 3.1552D+00 1.2724D+00
 Trust test= 1.32D+00 RLast= 4.24D-01 DXMaxT set to 1.88D+00
 ITU=  1  1  1  1  1  0
 Use linear search instead of GDIIS.
     Eigenvalues ---    0.00154   0.00265   0.00451   0.00778   0.00900
     Eigenvalues ---    0.01129   0.01205   0.01282   0.01877   0.04037
     Eigenvalues ---    0.04905   0.05142   0.05319   0.05675   0.05738
     Eigenvalues ---    0.06782   0.07934   0.09978   0.13207   0.15258
     Eigenvalues ---    0.15961   0.16001   0.16020   0.16056   0.16856
     Eigenvalues ---    0.17644   0.19987   0.21308   0.21969   0.22385
     Eigenvalues ---    0.23759   0.24651   0.25075   0.26279   0.26730
     Eigenvalues ---    0.30017   0.31831   0.32579   0.32586   0.32600
     Eigenvalues ---    0.32623   0.32642   0.32816   0.33523   0.37059
     Eigenvalues ---    0.40646   0.41976   0.46472   0.49906   0.79863
     Eigenvalues ---    0.80834
 RFO step:  Lambda=-1.64566747D-03 EMin= 1.54265768D-03
 Quartic linear search produced a step of  1.17442.
 Iteration  1 RMS(Cart)=  0.18026765 RMS(Int)=  0.02151103
 Iteration  2 RMS(Cart)=  0.03516139 RMS(Int)=  0.00057212
 Iteration  3 RMS(Cart)=  0.00075505 RMS(Int)=  0.00023082
 Iteration  4 RMS(Cart)=  0.00000043 RMS(Int)=  0.00023082
 Variable       Old X    -DE/DX   Delta X   Delta X   Delta X     New X
                                 (Linear)    (Quad)   (Total)
    R1        2.89378   0.00035  -0.00439  -0.00039  -0.00478   2.88899
    R2        2.06601  -0.00018   0.00050  -0.00079  -0.00029   2.06573
    R3        2.07480  -0.00024   0.00009  -0.00094  -0.00085   2.07395
    R4        2.06726  -0.00033   0.00048  -0.00162  -0.00114   2.06611
    R5        3.49910  -0.00033   0.00197   0.00161   0.00358   3.50269
    R6        2.90080  -0.00153  -0.00906  -0.00174  -0.01080   2.89000
    R7        2.07021  -0.00004   0.00122  -0.00096   0.00026   2.07047
    R8        2.55458  -0.00073  -0.00203  -0.00273  -0.00476   2.54981
    R9        2.30992  -0.00099   0.00258  -0.00318  -0.00060   2.30932
   R10        2.60306  -0.00050   0.00583  -0.00051   0.00532   2.60838
   R11        2.75153   0.00002  -0.00304  -0.00058  -0.00362   2.74791
   R12        1.91406  -0.00066   0.00153  -0.00175  -0.00022   1.91384
   R13        2.90211  -0.00276   0.00161  -0.00834  -0.00672   2.89539
   R14        2.07199  -0.00030   0.00004  -0.00173  -0.00169   2.07030
   R15        2.06938  -0.00049   0.00050  -0.00135  -0.00085   2.06853
   R16        2.27419  -0.00063   0.00166  -0.00100   0.00066   2.27485
   R17        2.56851  -0.00390  -0.00134  -0.01319  -0.01454   2.55398
   R18        1.84517  -0.00107  -0.00099  -0.00094  -0.00193   1.84324
    A1        1.92710   0.00013   0.00021   0.00174   0.00194   1.92904
    A2        1.92903   0.00018   0.00001   0.00018   0.00018   1.92921
    A3        1.91997   0.00011   0.00192  -0.00083   0.00108   1.92105
    A4        1.89784  -0.00019  -0.00193  -0.00068  -0.00261   1.89523
    A5        1.89985  -0.00003   0.00042   0.00203   0.00245   1.90229
    A6        1.88932  -0.00021  -0.00067  -0.00249  -0.00316   1.88615
    A7        1.97180   0.00005  -0.00380   0.00269  -0.00106   1.97074
    A8        1.92469   0.00060   0.00586   0.00771   0.01351   1.93820
    A9        1.93144  -0.00052   0.00410  -0.00399   0.00002   1.93146
   A10        1.89549  -0.00037  -0.01192  -0.00292  -0.01481   1.88067
   A11        1.81242  -0.00005   0.00740  -0.01181  -0.00440   1.80802
   A12        1.92495   0.00024  -0.00199   0.00749   0.00541   1.93036
   A13        1.65435  -0.00018   0.00454  -0.00361   0.00094   1.65529
   A14        2.12772   0.00035  -0.00652   0.00140  -0.00571   2.12201
   A15        2.01462   0.00016   0.00372   0.00021   0.00334   2.01796
   A16        2.13998  -0.00047   0.00409  -0.00034   0.00314   2.14312
   A17        2.12323  -0.00052   0.00313  -0.00017   0.00235   2.12557
   A18        2.06915  -0.00052  -0.01029  -0.00462  -0.01550   2.05365
   A19        2.04669   0.00108  -0.00544   0.00475  -0.00137   2.04531
   A20        1.95010   0.00242   0.02225   0.00886   0.03113   1.98123
   A21        1.84713   0.00024  -0.00225   0.00375   0.00138   1.84851
   A22        1.97898  -0.00123  -0.01041  -0.00241  -0.01264   1.96634
   A23        1.91117  -0.00136   0.00301  -0.01301  -0.01024   1.90093
   A24        1.89644  -0.00082  -0.01239  -0.00504  -0.01733   1.87911
   A25        1.87747   0.00069  -0.00007   0.00749   0.00731   1.88478
   A26        2.16032  -0.00195  -0.01685  -0.00596  -0.02354   2.13679
   A27        2.00224   0.00091   0.02128  -0.00653   0.01402   2.01626
   A28        2.12055   0.00104  -0.00369   0.01366   0.00924   2.12978
   A29        1.90250  -0.00043   0.01534  -0.01883  -0.00350   1.89900
    D1        0.97634  -0.00009  -0.00322  -0.01164  -0.01485   0.96149
    D2        3.10106  -0.00009  -0.01699  -0.00792  -0.02493   3.07613
    D3       -1.04746   0.00028  -0.01280   0.00410  -0.00869  -1.05615
    D4        3.07692  -0.00013  -0.00549  -0.01124  -0.01673   3.06019
    D5       -1.08155  -0.00013  -0.01927  -0.00752  -0.02680  -1.10835
    D6        1.05312   0.00023  -0.01508   0.00450  -0.01057   1.04255
    D7       -1.12088  -0.00021  -0.00510  -0.01475  -0.01985  -1.14073
    D8        1.00383  -0.00021  -0.01887  -0.01103  -0.02992   0.97392
    D9        3.13850   0.00016  -0.01468   0.00099  -0.01368   3.12482
   D10        1.26636   0.00020  -0.07376  -0.00503  -0.07876   1.18761
   D11       -0.87472  -0.00035  -0.07003  -0.01460  -0.08464  -0.95936
   D12       -2.92331  -0.00043  -0.06615  -0.01589  -0.08206  -3.00536
   D13       -1.07351   0.00085   0.09965   0.11227   0.21187  -0.86164
   D14        2.11164  -0.00006   0.07364   0.08017   0.15396   2.26560
   D15        1.09581   0.00107   0.09067   0.11876   0.20931   1.30511
   D16       -2.00222   0.00016   0.06466   0.08666   0.15139  -1.85083
   D17        3.07119   0.00094   0.09189   0.10706   0.19882  -3.01318
   D18       -0.02684   0.00003   0.06588   0.07496   0.14091   0.11406
   D19       -3.02538   0.00006   0.01037  -0.00393   0.00640  -3.01897
   D20       -0.20719   0.00040  -0.03875  -0.00324  -0.04167  -0.24886
   D21        0.16012  -0.00088  -0.01540  -0.03632  -0.05204   0.10808
   D22        2.97830  -0.00055  -0.06452  -0.03564  -0.10012   2.87819
   D23       -2.43881   0.00057   0.10749   0.11433   0.22167  -2.21713
   D24       -0.35982   0.00040   0.12171   0.10576   0.22749  -0.13233
   D25        1.69408   0.00071   0.11441   0.11596   0.23035   1.92444
   D26        1.02223   0.00051   0.15678   0.11529   0.27203   1.29426
   D27        3.10122   0.00034   0.17100   0.10672   0.27785  -2.90412
   D28       -1.12806   0.00066   0.16370   0.11692   0.28071  -0.84735
   D29       -2.52914  -0.00007  -0.11026  -0.03428  -0.14453  -2.67367
   D30        0.62528  -0.00010  -0.04824  -0.13749  -0.18561   0.43967
   D31        1.71339  -0.00096  -0.12244  -0.03605  -0.15851   1.55489
   D32       -1.41537  -0.00100  -0.06042  -0.13926  -0.19959  -1.61496
   D33       -0.33272  -0.00056  -0.11695  -0.03484  -0.15194  -0.48466
   D34        2.82171  -0.00059  -0.05493  -0.13806  -0.19303   2.62868
   D35        0.03689  -0.00159  -0.10427  -0.00468  -0.10881  -0.07193
   D36       -3.09220  -0.00159  -0.04417  -0.10515  -0.14945   3.04153
         Item               Value     Threshold  Converged?
 Maximum Force            0.003896     0.000450     NO 
 RMS     Force            0.000873     0.000300     NO 
 Maximum Displacement     0.662629     0.001800     NO 
 RMS     Displacement     0.197141     0.001200     NO 
 Predicted change in Energy=-1.855500D-03
 Lowest energy point so far.  Saving SCF results.
 GradGradGradGradGradGradGradGradGradGradGradGradGradGradGradGradGradGrad

 Leave Link  103 at Fri Mar 14 15:13:01 2025, MaxMem=  8589934592 cpu:               0.4 elap:               0.3
 (Enter /home/enzo/gaussian_versions/gdv.j21/gdv/l202.exe)
                          Input orientation:                          
 ---------------------------------------------------------------------
 Center     Atomic      Atomic             Coordinates (Angstroms)
 Number     Number       Type             X           Y           Z
 ---------------------------------------------------------------------
      1          6           0        2.700466    1.383533   -0.900929
      2          6           0        1.717213    0.213033   -0.882537
      3         16           0        2.494241   -1.373490   -0.321475
      4          6           0        0.533358    0.504547    0.040683
      5          8           0        0.696359    0.911635    1.181337
      6          7           0       -0.716237    0.294360   -0.506629
      7          6           0       -1.933010    0.669746    0.195544
      8          6           0       -2.945025   -0.473955    0.319332
      9          8           0       -4.128897   -0.280326    0.419774
     10          8           0       -2.423870   -1.720119    0.274140
     11          1           0        3.574769    1.140129   -1.510268
     12          1           0        2.223465    2.280541   -1.316049
     13          1           0        3.028609    1.613871    0.116254
     14          1           0        1.368760   -0.015185   -1.895915
     15          1           0        2.682242   -0.964600    0.950565
     16          1           0       -0.777032    0.184601   -1.511588
     17          1           0       -1.618301    0.975697    1.199336
     18          1           0       -2.444965    1.517219   -0.271237
     19          1           0       -1.466300   -1.654355    0.100521
 ---------------------------------------------------------------------
                    Distance matrix (angstroms):
                    1          2          3          4          5
     1  C    0.000000
     2  C    1.528789   0.000000
     3  S    2.824797   1.853542   0.000000
     4  C    2.521033   1.529323   2.739205   0.000000
     5  O    2.928304   2.406193   3.273014   1.222040   0.000000
     6  N    3.607718   2.463656   3.622593   1.380296   2.285976
     7  C    4.814649   3.833402   4.903333   2.476741   2.818488
     8  C    6.067196   4.863426   5.550262   3.624123   3.990312
     9  O    7.152125   6.009694   6.753549   4.743033   5.028304
    10  O    6.105102   4.714186   4.966158   3.707943   4.181503
    11  H    1.093136   2.168886   2.983128   3.472692   3.947429
    12  H    1.097487   2.172283   3.796636   2.802024   3.231547
    13  H    1.093340   2.163259   3.066184   2.731773   2.658370
    14  H    2.172522   1.095646   2.364438   2.172195   3.283382
    15  H    2.990333   2.382931   1.349304   2.757532   2.741760
    16  H    3.728718   2.572503   3.813823   2.056461   3.154569
    17  H    4.819668   4.005185   4.974390   2.488795   2.315616
    18  H    5.185542   4.404352   5.723153   3.161204   3.513491
    19  H    5.252962   3.819463   3.992850   2.943310   3.525558
                    6          7          8          9         10
     6  N    0.000000
     7  C    1.454131   0.000000
     8  C    2.498002   1.532172   0.000000
     9  O    3.582560   2.403089   1.203800   0.000000
    10  O    2.753859   2.441020   1.351506   2.236366   0.000000
    11  H    4.487243   5.785040   6.961352   8.067790   6.881047
    12  H    3.638946   4.707001   6.080708   7.065666   6.334959
    13  H    4.019075   5.051269   6.331237   7.410128   6.392961
    14  H    2.524509   3.967999   4.870989   5.971344   4.690414
    15  H    3.906156   4.953957   5.683777   6.865974   5.205838
    16  H    1.012761   2.118006   2.913101   3.896321   3.086885
    17  H    2.046523   1.095558   2.153159   2.913486   2.961816
    18  H    2.130562   1.094620   2.136260   2.558181   3.283023
    19  H    2.174561   2.372403   1.904692   3.013189   0.975402
                   11         12         13         14         15
    11  H    0.000000
    12  H    1.778843   0.000000
    13  H    1.779971   1.773188   0.000000
    14  H    2.519911   2.517364   3.075345   0.000000
    15  H    3.358896   3.984840   2.732134   3.275527   0.000000
    16  H    4.455469   3.665267   4.378993   2.189074   4.398800
    17  H    5.859776   4.773778   4.813949   4.414178   4.724544
    18  H    6.157483   4.844434   5.488124   4.419541   5.825846
    19  H    5.984660   5.577136   5.557495   3.835388   4.290541
                   16         17         18         19
    16  H    0.000000
    17  H    2.946638   0.000000
    18  H    2.469077   1.771780   0.000000
    19  H    2.540816   2.854413   3.339891   0.000000
 Stoichiometry    C5H9NO3S
 Framework group  C1[X(C5H9NO3S)]
 Deg. of freedom    51
 Full point group                 C1      NOp   1
 RotChk:  IX=0 Diff= 8.78D-02
 Largest Abelian subgroup         C1      NOp   1
 Largest concise Abelian subgroup C1      NOp   1
                         Standard orientation:                         
 ---------------------------------------------------------------------
 Center     Atomic      Atomic             Coordinates (Angstroms)
 Number     Number       Type             X           Y           Z
 ---------------------------------------------------------------------
      1          6           0       -2.942977   -1.306598   -0.431325
      2          6           0       -1.890204   -0.205912   -0.563061
      3         16           0       -2.472463    1.430771    0.083361
      4          6           0       -0.611243   -0.576189    0.189256
      5          8           0       -0.640195   -0.969522    1.345903
      6          7           0        0.560838   -0.452588   -0.529193
      7          6           0        1.835757   -0.909113    0.000583
      8          6           0        2.929877    0.163028   -0.030507
      9          8           0        4.100399   -0.110805   -0.093962
     10          8           0        2.492682    1.441789   -0.016309
     11          1           0       -3.875489   -1.004984   -0.915470
     12          1           0       -2.590244   -2.234681   -0.898998
     13          1           0       -3.140427   -1.512504    0.624141
     14          1           0       -1.672300   -0.003503   -1.617569
     15          1           0       -2.507864    1.037540    1.373608
     16          1           0        0.487765   -0.348715   -1.533959
     17          1           0        1.644612   -1.191392    1.041750
     18          1           0        2.219136   -1.790240   -0.523659
     19          1           0        1.518009    1.441280   -0.054007
 ---------------------------------------------------------------------
 Rotational constants (GHZ):           2.3173121           0.5208291           0.4642497
 Leave Link  202 at Fri Mar 14 15:13:01 2025, MaxMem=  8589934592 cpu:               0.1 elap:               0.2
 (Enter /home/enzo/gaussian_versions/gdv.j21/gdv/l301.exe)
 Standard basis: 6-31G(d) (6D, 7F)
 Ernie: Thresh=  0.10000D-02 Tol=  0.10000D-05 Strict=F.
 There are   172 symmetry adapted cartesian basis functions of A   symmetry.
 There are   172 symmetry adapted basis functions of A   symmetry.
   172 basis functions,   340 primitive gaussians,   172 cartesian basis functions
    43 alpha electrons       43 beta electrons
       nuclear repulsion energy       616.5686400838 Hartrees.
 IExCor=      4002 DFT=T Ex+Corr=B3LYP ScaHFX=  0.200000
 ScaDFX=  0.800000  0.720000  1.000000  0.810000  1.000000  0.000000
 ScaDFX=  0.000000  0.000000  0.000000  0.000000  0.000000  0.000000
 IRadAn=      5 IRanWt=     -1 IRanGd=            0 ICorTp=0 IEmpDi=  4
 NAtoms=   19 NActive=   19 NUniq=   19 SFac= 1.00D+00 NAtFMM=   60 NAOKFM=F Big=F
 Integral buffers will be    131072 words long.
 Raffenetti 2 integral format.
 Two-electron integral symmetry is turned on.
 Leave Link  301 at Fri Mar 14 15:13:01 2025, MaxMem=  8589934592 cpu:               0.3 elap:               0.3
 (Enter /home/enzo/gaussian_versions/gdv.j21/gdv/l302.exe)
 NPDir=0 NMtPBC=     1 NCelOv=     1 NCel=       1 NClECP=     1 NCelD=      1
         NCelK=      1 NCelE2=     1 NClLst=     1 CellRange=     0.0.
 One-electron integrals computed using PRISM.
 One-electron integral symmetry used in STVInt
 NBasis=   172 RedAO= T EigKep=  2.64D-03  NBF=   172
 NBsUse=   172 1.00D-06 EigRej= -1.00D+00 NBFU=   172
 Precomputing XC quadrature grid using
 IXCGrd= 4 IRadAn=           5 IRanWt=          -1 IRanGd=           0 AccXCQ= 0.00D+00.
 Generated NRdTot=       0 NPtTot=      406576 NUsed=           0 NTot=          64
 NSgBfM=   171   171   171   171   171 MxSgAt=    19 MxSgA2=    19 SizInc=   0.000
 NMBTot=     3452 MaxBatPerAtom=       85 MaxMicBPerAtom=      199 NBfPt=            51147590.
 Leave Link  302 at Fri Mar 14 15:13:02 2025, MaxMem=  8589934592 cpu:               4.9 elap:               0.9
 (Enter /home/enzo/gaussian_versions/gdv.j21/gdv/l303.exe)
 DipDrv:  MaxL=1.
 Leave Link  303 at Fri Mar 14 15:13:02 2025, MaxMem=  8589934592 cpu:               0.5 elap:               0.2
 (Enter /home/enzo/gaussian_versions/gdv.j21/gdv/l401.exe)
 Initial guess from the checkpoint file:  "/local/home/enzo/scratch/Gau-2337715.chk"
 B after Tr=    -0.000000   -0.000000    0.000000
         Rot=    0.999757   -0.020070   -0.005450    0.007250 Ang=  -2.52 deg.
 AO Guess basis will be translated and rotated to current coordinates.
 JPrj=2 DoOrth=T DoCkMO=T.
 Generating alternative initial guess.
 ExpMin= 1.17D-01 ExpMax= 2.19D+04 ExpMxC= 3.30D+03 IAcc=3 IRadAn=         5 AccDes= 0.00D+00
 Harris functional with IExCor= 4002 and IRadAn=       5 diagonalized for initial guess.
 HarFok:  IExCor=    4002 AccDes= 0.00D+00 IRadAn=         5 IDoV= 1 UseB2=F ITyADJ=14 ICtDFT=  3500011
 FoFCou: FMM=F IPFlag=           0 FMFlag=      100000 FMFlg1=           0
         NFxFlg=           0 DoJE=T BraDBF=F KetDBF=T FulRan=T
         wScrn=  0.000000 ICntrl=       500 IOpCl=  0 I1Cent=   200000004 NGrid=           0
         NMat0=    1 NMatS0=      1 NMatT0=    0 NMatD0=    1 NMtDS0=    0 NMtDT0=    0
 Petite list used in FoFCou.
 Harris En= -874.547958377736    
 Leave Link  401 at Fri Mar 14 15:13:04 2025, MaxMem=  8589934592 cpu:               8.4 elap:               1.4
 (Enter /home/enzo/gaussian_versions/gdv.j21/gdv/l502.exe)
 Integral symmetry usage will be decided dynamically.
 Closed shell SCF:
 Using DIIS extrapolation, IDIIS=  1040.
 NGot=  8589934592 LenX=  8589843591 LenY=  8589813566
 Requested convergence on RMS density matrix=1.00D-08 within 128 cycles.
 Requested convergence on MAX density matrix=1.00D-06.
 Requested convergence on             energy=1.00D-06.
 No special actions if energy rises.
 Fock matrices will be formed incrementally for  20 cycles.
 Integral accuracy reduced to 1.0D-05 until final iterations.

 Cycle   1  Pass 0  IDiag  1:
 FoFJK:  IHMeth= 1 ICntrl=       0 DoSepK=F KAlg= 0 I1Cent=           0 FoldK=F
 IRaf= 900000000 NMat=       1 IRICut=       1 DoRegI=T DoRafI=F ISym2E= 0 IDoP0=0 IntGTp=1.
 FoFCou: FMM=F IPFlag=           0 FMFlag=      100000 FMFlg1=           0
         NFxFlg=           0 DoJE=F BraDBF=F KetDBF=F FulRan=T
         wScrn=  0.000000 ICntrl=         0 IOpCl=  0 I1Cent=           0 NGrid=           0
         NMat0=    1 NMatS0=      1 NMatT0=    0 NMatD0=    1 NMtDS0=    0 NMtDT0=    0
 Symmetry not used in FoFCou.
 E= -874.518840712639    
 DIIS: error= 9.62D-03 at cycle   1 NSaved=   1.
 NSaved= 1 IEnMin= 1 EnMin= -874.518840712639     IErMin= 1 ErrMin= 9.62D-03
 ErrMax= 9.62D-03  0.00D+00 EMaxC= 1.00D-01 BMatC= 3.12D-02 BMatP= 3.12D-02
 IDIUse=3 WtCom= 9.04D-01 WtEn= 9.62D-02
 Coeff-Com:  0.100D+01
 Coeff-En:   0.100D+01
 Coeff:      0.100D+01
 Gap=     1.544 Goal=   None    Shift=    0.000
 GapD=    1.544 DampG=2.000 DampE=1.000 DampFc=2.0000 IDamp=-1.
 RMSDP=1.83D-03 MaxDP=4.33D-02              OVMax= 5.02D-02

 Cycle   2  Pass 0  IDiag  1:
 RMSU=  1.82D-03    CP:  9.97D-01
 E= -874.578611499533     Delta-E=       -0.059770786894 Rises=F Damp=F
 DIIS: error= 1.78D-03 at cycle   2 NSaved=   2.
 NSaved= 2 IEnMin= 2 EnMin= -874.578611499533     IErMin= 2 ErrMin= 1.78D-03
 ErrMax= 1.78D-03  0.00D+00 EMaxC= 1.00D-01 BMatC= 7.34D-04 BMatP= 3.12D-02
 IDIUse=3 WtCom= 9.82D-01 WtEn= 1.78D-02
 Coeff-Com: -0.488D-01 0.105D+01
 Coeff-En:   0.000D+00 0.100D+01
 Coeff:     -0.479D-01 0.105D+01
 Gap=     0.229 Goal=   None    Shift=    0.000
 RMSDP=4.06D-04 MaxDP=9.76D-03 DE=-5.98D-02 OVMax= 1.59D-02

 Cycle   3  Pass 0  IDiag  1:
 RMSU=  3.90D-04    CP:  9.96D-01  1.06D+00
 E= -874.578416418759     Delta-E=        0.000195080774 Rises=F Damp=F
 DIIS: error= 3.08D-03 at cycle   3 NSaved=   3.
 NSaved= 3 IEnMin= 2 EnMin= -874.578611499533     IErMin= 2 ErrMin= 1.78D-03
 ErrMax= 3.08D-03  0.00D+00 EMaxC= 1.00D-01 BMatC= 1.54D-03 BMatP= 7.34D-04
 IDIUse=3 WtCom= 1.53D-01 WtEn= 8.47D-01
 Coeff-Com: -0.474D-01 0.657D+00 0.391D+00
 Coeff-En:   0.000D+00 0.557D+00 0.443D+00
 Coeff:     -0.723D-02 0.572D+00 0.435D+00
 Gap=     0.229 Goal=   None    Shift=    0.000
 RMSDP=2.85D-04 MaxDP=1.06D-02 DE= 1.95D-04 OVMax= 1.63D-02

 Cycle   4  Pass 0  IDiag  1:
 RMSU=  1.43D-04    CP:  9.97D-01  1.08D+00  3.80D-01
 E= -874.579428446300     Delta-E=       -0.001012027541 Rises=F Damp=F
 DIIS: error= 1.40D-03 at cycle   4 NSaved=   4.
 NSaved= 4 IEnMin= 4 EnMin= -874.579428446300     IErMin= 4 ErrMin= 1.40D-03
 ErrMax= 1.40D-03  0.00D+00 EMaxC= 1.00D-01 BMatC= 2.85D-04 BMatP= 7.34D-04
 IDIUse=3 WtCom= 9.86D-01 WtEn= 1.40D-02
 Coeff-Com: -0.197D-01 0.209D+00 0.307D+00 0.504D+00
 Coeff-En:   0.000D+00 0.000D+00 0.188D+00 0.812D+00
 Coeff:     -0.195D-01 0.206D+00 0.305D+00 0.508D+00
 Gap=     0.229 Goal=   None    Shift=    0.000
 RMSDP=9.32D-05 MaxDP=3.87D-03 DE=-1.01D-03 OVMax= 5.39D-03

 Cycle   5  Pass 0  IDiag  1:
 RMSU=  3.81D-05    CP:  9.97D-01  1.09D+00  5.32D-01  5.77D-01
 E= -874.579645094162     Delta-E=       -0.000216647862 Rises=F Damp=F
 DIIS: error= 1.49D-04 at cycle   5 NSaved=   5.
 NSaved= 5 IEnMin= 5 EnMin= -874.579645094162     IErMin= 5 ErrMin= 1.49D-04
 ErrMax= 1.49D-04  0.00D+00 EMaxC= 1.00D-01 BMatC= 8.23D-06 BMatP= 2.85D-04
 IDIUse=3 WtCom= 9.99D-01 WtEn= 1.49D-03
 Coeff-Com: -0.627D-02 0.548D-01 0.130D+00 0.269D+00 0.553D+00
 Coeff-En:   0.000D+00 0.000D+00 0.000D+00 0.000D+00 0.100D+01
 Coeff:     -0.626D-02 0.548D-01 0.129D+00 0.269D+00 0.554D+00
 Gap=     0.229 Goal=   None    Shift=    0.000
 RMSDP=1.63D-05 MaxDP=6.72D-04 DE=-2.17D-04 OVMax= 6.28D-04

 Cycle   6  Pass 0  IDiag  1:
 RMSU=  1.26D-05    CP:  9.97D-01  1.09D+00  5.29D-01  6.34D-01  8.40D-01
 E= -874.579650619132     Delta-E=       -0.000005524970 Rises=F Damp=F
 DIIS: error= 7.31D-05 at cycle   6 NSaved=   6.
 NSaved= 6 IEnMin= 6 EnMin= -874.579650619132     IErMin= 6 ErrMin= 7.31D-05
 ErrMax= 7.31D-05  0.00D+00 EMaxC= 1.00D-01 BMatC= 1.12D-06 BMatP= 8.23D-06
 IDIUse=1 WtCom= 1.00D+00 WtEn= 0.00D+00
 Coeff-Com: -0.306D-03-0.359D-02 0.229D-01 0.669D-01 0.306D+00 0.608D+00
 Coeff:     -0.306D-03-0.359D-02 0.229D-01 0.669D-01 0.306D+00 0.608D+00
 Gap=     0.229 Goal=   None    Shift=    0.000
 RMSDP=6.78D-06 MaxDP=2.49D-04 DE=-5.52D-06 OVMax= 3.81D-04

 Initial convergence to 1.0D-05 achieved.  Increase integral accuracy.
 Cycle   7  Pass 1  IDiag  1:
 E= -874.579626820305     Delta-E=        0.000023798827 Rises=F Damp=F
 DIIS: error= 2.97D-05 at cycle   1 NSaved=   1.
 NSaved= 1 IEnMin= 1 EnMin= -874.579626820305     IErMin= 1 ErrMin= 2.97D-05
 ErrMax= 2.97D-05  0.00D+00 EMaxC= 1.00D-01 BMatC= 1.59D-07 BMatP= 1.59D-07
 IDIUse=1 WtCom= 1.00D+00 WtEn= 0.00D+00
 Coeff-Com:  0.100D+01
 Coeff:      0.100D+01
 Gap=     0.229 Goal=   None    Shift=    0.000
 RMSDP=6.78D-06 MaxDP=2.49D-04 DE= 2.38D-05 OVMax= 3.86D-04

 Cycle   8  Pass 1  IDiag  1:
 RMSU=  6.94D-06    CP:  1.00D+00
 E= -874.579626525564     Delta-E=        0.000000294740 Rises=F Damp=F
 DIIS: error= 6.18D-05 at cycle   2 NSaved=   2.
 NSaved= 2 IEnMin= 1 EnMin= -874.579626820305     IErMin= 1 ErrMin= 2.97D-05
 ErrMax= 6.18D-05  0.00D+00 EMaxC= 1.00D-01 BMatC= 5.61D-07 BMatP= 1.59D-07
 IDIUse=1 WtCom= 1.00D+00 WtEn= 0.00D+00
 Coeff-Com:  0.661D+00 0.339D+00
 Coeff:      0.661D+00 0.339D+00
 Gap=     0.229 Goal=   None    Shift=    0.000
 RMSDP=3.69D-06 MaxDP=1.72D-04 DE= 2.95D-07 OVMax= 2.95D-04

 Cycle   9  Pass 1  IDiag  1:
 RMSU=  2.31D-06    CP:  1.00D+00  5.86D-01
 E= -874.579626947175     Delta-E=       -0.000000421610 Rises=F Damp=F
 DIIS: error= 5.02D-06 at cycle   3 NSaved=   3.
 NSaved= 3 IEnMin= 3 EnMin= -874.579626947175     IErMin= 3 ErrMin= 5.02D-06
 ErrMax= 5.02D-06  0.00D+00 EMaxC= 1.00D-01 BMatC= 8.90D-09 BMatP= 1.59D-07
 IDIUse=1 WtCom= 1.00D+00 WtEn= 0.00D+00
 Coeff-Com:  0.222D+00 0.156D+00 0.623D+00
 Coeff:      0.222D+00 0.156D+00 0.623D+00
 Gap=     0.229 Goal=   None    Shift=    0.000
 RMSDP=6.80D-07 MaxDP=2.06D-05 DE=-4.22D-07 OVMax= 3.04D-05

 Cycle  10  Pass 1  IDiag  1:
 RMSU=  5.98D-07    CP:  1.00D+00  6.13D-01  8.88D-01
 E= -874.579626953294     Delta-E=       -0.000000006119 Rises=F Damp=F
 DIIS: error= 2.11D-06 at cycle   4 NSaved=   4.
 NSaved= 4 IEnMin= 4 EnMin= -874.579626953294     IErMin= 4 ErrMin= 2.11D-06
 ErrMax= 2.11D-06  0.00D+00 EMaxC= 1.00D-01 BMatC= 1.67D-09 BMatP= 8.90D-09
 IDIUse=1 WtCom= 1.00D+00 WtEn= 0.00D+00
 Coeff-Com:  0.131D-01 0.285D-01 0.338D+00 0.621D+00
 Coeff:      0.131D-01 0.285D-01 0.338D+00 0.621D+00
 Gap=     0.229 Goal=   None    Shift=    0.000
 RMSDP=2.66D-07 MaxDP=7.92D-06 DE=-6.12D-09 OVMax= 1.07D-05

 Cycle  11  Pass 1  IDiag  1:
 RMSU=  1.52D-07    CP:  1.00D+00  6.17D-01  9.23D-01  6.68D-01
 E= -874.579626954674     Delta-E=       -0.000000001381 Rises=F Damp=F
 DIIS: error= 6.71D-07 at cycle   5 NSaved=   5.
 NSaved= 5 IEnMin= 5 EnMin= -874.579626954674     IErMin= 5 ErrMin= 6.71D-07
 ErrMax= 6.71D-07  0.00D+00 EMaxC= 1.00D-01 BMatC= 2.04D-10 BMatP= 1.67D-09
 IDIUse=1 WtCom= 1.00D+00 WtEn= 0.00D+00
 Coeff-Com: -0.425D-02 0.882D-02 0.170D+00 0.373D+00 0.452D+00
 Coeff:     -0.425D-02 0.882D-02 0.170D+00 0.373D+00 0.452D+00
 Gap=     0.229 Goal=   None    Shift=    0.000
 RMSDP=8.91D-08 MaxDP=2.80D-06 DE=-1.38D-09 OVMax= 4.74D-06

 Cycle  12  Pass 1  IDiag  1:
 RMSU=  6.24D-08    CP:  1.00D+00  6.18D-01  9.24D-01  7.04D-01  6.11D-01
 E= -874.579626954833     Delta-E=       -0.000000000158 Rises=F Damp=F
 DIIS: error= 3.36D-07 at cycle   6 NSaved=   6.
 NSaved= 6 IEnMin= 6 EnMin= -874.579626954833     IErMin= 6 ErrMin= 3.36D-07
 ErrMax= 3.36D-07  0.00D+00 EMaxC= 1.00D-01 BMatC= 1.74D-11 BMatP= 2.04D-10
 IDIUse=1 WtCom= 1.00D+00 WtEn= 0.00D+00
 Coeff-Com: -0.451D-02 0.116D-02 0.518D-01 0.131D+00 0.258D+00 0.563D+00
 Coeff:     -0.451D-02 0.116D-02 0.518D-01 0.131D+00 0.258D+00 0.563D+00
 Gap=     0.229 Goal=   None    Shift=    0.000
 RMSDP=2.75D-08 MaxDP=1.06D-06 DE=-1.58D-10 OVMax= 1.47D-06

 Cycle  13  Pass 1  IDiag  1:
 RMSU=  2.10D-08    CP:  1.00D+00  6.18D-01  9.25D-01  7.06D-01  7.07D-01
                    CP:  8.53D-01
 E= -874.579626954848     Delta-E=       -0.000000000015 Rises=F Damp=F
 DIIS: error= 1.37D-07 at cycle   7 NSaved=   7.
 NSaved= 7 IEnMin= 7 EnMin= -874.579626954848     IErMin= 7 ErrMin= 1.37D-07
 ErrMax= 1.37D-07  0.00D+00 EMaxC= 1.00D-01 BMatC= 3.43D-12 BMatP= 1.74D-11
 IDIUse=1 WtCom= 1.00D+00 WtEn= 0.00D+00
 Coeff-Com: -0.212D-02-0.693D-03 0.434D-02 0.212D-01 0.908D-01 0.348D+00
 Coeff-Com:  0.538D+00
 Coeff:     -0.212D-02-0.693D-03 0.434D-02 0.212D-01 0.908D-01 0.348D+00
 Coeff:      0.538D+00
 Gap=     0.229 Goal=   None    Shift=    0.000
 RMSDP=1.15D-08 MaxDP=3.83D-07 DE=-1.55D-11 OVMax= 5.63D-07

 Cycle  14  Pass 1  IDiag  1:
 RMSU=  7.62D-09    CP:  1.00D+00  6.19D-01  9.25D-01  7.08D-01  7.13D-01
                    CP:  9.53D-01  7.35D-01
 E= -874.579626954849     Delta-E=       -0.000000000000 Rises=F Damp=F
 DIIS: error= 3.17D-08 at cycle   8 NSaved=   8.
 NSaved= 8 IEnMin= 8 EnMin= -874.579626954849     IErMin= 8 ErrMin= 3.17D-08
 ErrMax= 3.17D-08  0.00D+00 EMaxC= 1.00D-01 BMatC= 3.13D-13 BMatP= 3.43D-12
 IDIUse=1 WtCom= 1.00D+00 WtEn= 0.00D+00
 Coeff-Com: -0.394D-04-0.560D-03-0.881D-02-0.178D-01-0.118D-01 0.383D-01
 Coeff-Com:  0.262D+00 0.739D+00
 Coeff:     -0.394D-04-0.560D-03-0.881D-02-0.178D-01-0.118D-01 0.383D-01
 Coeff:      0.262D+00 0.739D+00
 Gap=     0.229 Goal=   None    Shift=    0.000
 RMSDP=4.67D-09 MaxDP=1.10D-07 DE=-4.55D-13 OVMax= 3.17D-07

 SCF Done:  E(RB3LYP) =  -874.579626955     A.U. after   14 cycles
            NFock= 14  Conv=0.47D-08     -V/T= 2.0064
 KE= 8.690207673651D+02 PE=-3.292187077919D+03 EE= 9.320180435153D+02
 Leave Link  502 at Fri Mar 14 15:13:14 2025, MaxMem=  8589934592 cpu:              82.4 elap:              10.4
 (Enter /home/enzo/gaussian_versions/gdv.j21/gdv/l701.exe)
 ... and contract with generalized density number  0.
 Compute integral first derivatives.
 Leave Link  701 at Fri Mar 14 15:13:15 2025, MaxMem=  8589934592 cpu:               3.6 elap:               0.7
 (Enter /home/enzo/gaussian_versions/gdv.j21/gdv/l702.exe)
 L702 exits ... SP integral derivatives will be done elsewhere.
 Leave Link  702 at Fri Mar 14 15:13:15 2025, MaxMem=  8589934592 cpu:               0.5 elap:               0.2
 (Enter /home/enzo/gaussian_versions/gdv.j21/gdv/l703.exe)
 Integral derivatives from FoFJK, PRISM(SPDF).
 Compute integral first derivatives, UseDBF=F ICtDFT=           0.
 Calling FoFJK, ICntrl=      2127 FMM=F ISym2X=0 I1Cent= 0 IOpClX= 0 NMat=1 NMatS=1 NMatT=0.
 FoFJK:  IHMeth= 1 ICntrl=    2127 DoSepK=F KAlg= 0 I1Cent=           0 FoldK=F
 IRaf=         0 NMat=       1 IRICut=       1 DoRegI=T DoRafI=F ISym2E= 0 IDoP0=0 IntGTp=1.
 FoFCou: FMM=F IPFlag=           0 FMFlag=      100000 FMFlg1=         800
         NFxFlg=           0 DoJE=F BraDBF=F KetDBF=F FulRan=T
         wScrn=  0.000000 ICntrl=      2127 IOpCl=  0 I1Cent=           0 NGrid=           0
         NMat0=    1 NMatS0=      1 NMatT0=    0 NMatD0=    1 NMtDS0=    0 NMtDT0=    0
 Symmetry not used in FoFCou.
 Leave Link  703 at Fri Mar 14 15:13:18 2025, MaxMem=  8589934592 cpu:              15.5 elap:               2.5
 (Enter /home/enzo/gaussian_versions/gdv.j21/gdv/l716.exe)
 Dipole        =-1.45630488D+00-6.29648433D-01-1.02733146D+00
 ***** Axes restored to original set *****
 -------------------------------------------------------------------
 Center     Atomic                   Forces (Hartrees/Bohr)
 Number     Number              X              Y              Z
 -------------------------------------------------------------------
      1        6           0.000549726    0.000400140   -0.000040192
      2        6          -0.000615635   -0.001835619    0.000689505
      3       16          -0.000053250   -0.000988790   -0.000784375
      4        6           0.000574281    0.007839571   -0.000510953
      5        8          -0.000900861   -0.003182011   -0.000098303
      6        7          -0.000489537   -0.001420977   -0.002295348
      7        6           0.000780044    0.000594761    0.003948353
      8        6           0.000792412   -0.001836571   -0.007572698
      9        8          -0.000995692    0.000347846    0.003853455
     10        8          -0.001362257    0.000246688    0.000882775
     11        1          -0.000232567   -0.000231554   -0.000039705
     12        1          -0.000117395   -0.000103857    0.000209416
     13        1          -0.000210112    0.000082466   -0.000159055
     14        1           0.000472579    0.000123237   -0.000240604
     15        1           0.000234721    0.000042032    0.000601582
     16        1           0.000469780   -0.000787189    0.000513578
     17        1          -0.000979804    0.000470617    0.000293670
     18        1           0.000882442   -0.000493264   -0.000520533
     19        1           0.001201125    0.000732473    0.001269432
 -------------------------------------------------------------------
 Cartesian Forces:  Max     0.007839571 RMS     0.001833354
 Leave Link  716 at Fri Mar 14 15:13:18 2025, MaxMem=  8589934592 cpu:               0.2 elap:               0.1
 (Enter /home/enzo/gaussian_versions/gdv.j21/gdv/l103.exe)

 GradGradGradGradGradGradGradGradGradGradGradGradGradGradGradGradGradGrad
 Berny optimization.
 Using GEDIIS/GDIIS optimizer.
 FormGI is forming the generalized inverse of G from B-inverse, IUseBI=4.
 Internal  Forces:  Max     0.002715132 RMS     0.000841474
 Search for a local minimum.
 Step number   7 out of a maximum of   93
 All quantities printed in internal units (Hartrees-Bohrs-Radians)
 RMS Force = .84147D-03 SwitMx=.10000D-02 MixMth= 2
 Mixed Optimization -- En-DIIS/RFO-DIIS
 Swapping is turned off.
 Update second derivatives using D2CorX and points    6    7
 DE= -1.30D-03 DEPred=-1.86D-03 R= 6.98D-01
 TightC=F SS=  1.41D+00  RLast= 9.14D-01 DXNew= 3.1552D+00 2.7418D+00
 Trust test= 6.98D-01 RLast= 9.14D-01 DXMaxT set to 2.74D+00
 ITU=  1  1  1  1  1  1  0
     Eigenvalues ---    0.00112   0.00261   0.00450   0.00771   0.00899
     Eigenvalues ---    0.01205   0.01281   0.01677   0.02957   0.04101
     Eigenvalues ---    0.04822   0.04976   0.05304   0.05661   0.05729
     Eigenvalues ---    0.06730   0.08050   0.10213   0.13245   0.15098
     Eigenvalues ---    0.15971   0.16001   0.16037   0.16088   0.16839
     Eigenvalues ---    0.17726   0.19964   0.21274   0.22119   0.22431
     Eigenvalues ---    0.23808   0.24652   0.25004   0.26288   0.26887
     Eigenvalues ---    0.30013   0.31803   0.32579   0.32591   0.32598
     Eigenvalues ---    0.32633   0.32637   0.32800   0.33500   0.37078
     Eigenvalues ---    0.40638   0.41980   0.46548   0.49411   0.79762
     Eigenvalues ---    0.80981
 En-DIIS/RFO-DIIS/Sim-DIIS IScMMF=       -3 using points:     7    6
 RFO step:  Lambda=-1.84175949D-03.
 NNeg= 0 NGDIIS= 2 SimSw=  2.50D-01 Rises=F DC= -1.30D-03 SmlDif=  1.00D-05
 NRisDI= 0 DoIntr=F SqrtH=F CThrHd= 10.0 CDAdj=  3.0
 RMS Error=  0.5428799251D-01 NUsed= 2 OKEnD=T EnDIS=F
 InvSVX:  RCond= 3.78D-02 Info=           0 Equed=N FErr=  4.77D-15 BErr=  3.39D-17
 DidBck=FF Rises=F RFO-DIIS coefs:    1.63689   -0.63689
 Iteration  1 RMS(Cart)=  0.21362327 RMS(Int)=  0.01781096
 Iteration  2 RMS(Cart)=  0.03048640 RMS(Int)=  0.00094015
 Iteration  3 RMS(Cart)=  0.00049378 RMS(Int)=  0.00088061
 Iteration  4 RMS(Cart)=  0.00000037 RMS(Int)=  0.00088061
 Variable       Old X    -DE/DX   Delta X   Delta X   Delta X     New X
                                 (Linear)    (Quad)   (Total)
    R1        2.88899   0.00011  -0.00305  -0.00129  -0.00433   2.88466
    R2        2.06573  -0.00011  -0.00018   0.00040   0.00022   2.06594
    R3        2.07395  -0.00011  -0.00054   0.00024  -0.00030   2.07365
    R4        2.06611  -0.00019  -0.00073   0.00015  -0.00058   2.06554
    R5        3.50269   0.00083   0.00228   0.00350   0.00578   3.50847
    R6        2.89000   0.00036  -0.00688   0.00284  -0.00403   2.88597
    R7        2.07047   0.00005   0.00016   0.00021   0.00037   2.07084
    R8        2.54981   0.00061  -0.00303   0.00551   0.00248   2.55229
    R9        2.30932  -0.00127  -0.00038  -0.00062  -0.00100   2.30832
   R10        2.60838  -0.00009   0.00339   0.00358   0.00697   2.61535
   R11        2.74791   0.00079  -0.00231   0.00102  -0.00128   2.74662
   R12        1.91384  -0.00045  -0.00014   0.00091   0.00077   1.91461
   R13        2.89539   0.00050  -0.00428   0.00307  -0.00121   2.89417
   R14        2.07030   0.00012  -0.00108   0.00080  -0.00028   2.07003
   R15        2.06853  -0.00057  -0.00054  -0.00048  -0.00102   2.06751
   R16        2.27485   0.00136   0.00042   0.00358   0.00400   2.27885
   R17        2.55398  -0.00103  -0.00926  -0.00125  -0.01051   2.54346
   R18        1.84324   0.00100  -0.00123   0.00465   0.00342   1.84666
    A1        1.92904  -0.00037   0.00124  -0.00086   0.00037   1.92941
    A2        1.92921  -0.00015   0.00012  -0.00189  -0.00178   1.92744
    A3        1.92105   0.00009   0.00069  -0.00038   0.00031   1.92136
    A4        1.89523   0.00027  -0.00166   0.00171   0.00005   1.89528
    A5        1.90229   0.00023   0.00156   0.00210   0.00365   1.90594
    A6        1.88615  -0.00005  -0.00201  -0.00059  -0.00260   1.88355
    A7        1.97074   0.00033  -0.00067   0.00226   0.00164   1.97237
    A8        1.93820  -0.00026   0.00860   0.00303   0.01158   1.94978
    A9        1.93146  -0.00018   0.00001  -0.00185  -0.00195   1.92952
   A10        1.88067   0.00026  -0.00944   0.00068  -0.00875   1.87192
   A11        1.80802  -0.00036  -0.00281  -0.00611  -0.00891   1.79911
   A12        1.93036   0.00023   0.00344   0.00152   0.00485   1.93521
   A13        1.65529   0.00049   0.00060   0.00134   0.00194   1.65722
   A14        2.12201   0.00117  -0.00364   0.00266  -0.00298   2.11903
   A15        2.01796  -0.00047   0.00213  -0.00041  -0.00028   2.01768
   A16        2.14312  -0.00067   0.00200  -0.00039  -0.00039   2.14274
   A17        2.12557  -0.00102   0.00150   0.00029   0.00156   2.12714
   A18        2.05365   0.00022  -0.00987   0.00251  -0.00756   2.04610
   A19        2.04531   0.00095  -0.00088   0.00384   0.00270   2.04801
   A20        1.98123  -0.00091   0.01983  -0.00594   0.01391   1.99514
   A21        1.84851   0.00136   0.00088   0.00740   0.00827   1.85678
   A22        1.96634  -0.00081  -0.00805  -0.00478  -0.01270   1.95364
   A23        1.90093  -0.00039  -0.00652  -0.00007  -0.00679   1.89414
   A24        1.87911   0.00095  -0.01104   0.00296  -0.00802   1.87109
   A25        1.88478  -0.00018   0.00465   0.00082   0.00541   1.89019
   A26        2.13679   0.00034  -0.01499   0.00249  -0.01653   2.12026
   A27        2.01626  -0.00076   0.00893  -0.00443   0.00041   2.01667
   A28        2.12978   0.00049   0.00588   0.00671   0.00841   2.13820
   A29        1.89900  -0.00112  -0.00223  -0.00796  -0.01019   1.88881
    D1        0.96149  -0.00020  -0.00946  -0.00473  -0.01420   0.94729
    D2        3.07613   0.00018  -0.01588  -0.00005  -0.01592   3.06021
    D3       -1.05615   0.00016  -0.00554   0.00271  -0.00283  -1.05898
    D4        3.06019  -0.00020  -0.01066  -0.00439  -0.01505   3.04514
    D5       -1.10835   0.00017  -0.01707   0.00029  -0.01678  -1.12513
    D6        1.04255   0.00016  -0.00673   0.00305  -0.00368   1.03887
    D7       -1.14073  -0.00030  -0.01264  -0.00655  -0.01919  -1.15992
    D8        0.97392   0.00008  -0.01905  -0.00187  -0.02092   0.95300
    D9        3.12482   0.00006  -0.00872   0.00089  -0.00782   3.11699
   D10        1.18761   0.00005  -0.05016  -0.02168  -0.07183   1.11578
   D11       -0.95936  -0.00002  -0.05391  -0.02749  -0.08135  -1.04071
   D12       -3.00536  -0.00022  -0.05226  -0.02655  -0.07886  -3.08423
   D13       -0.86164  -0.00115   0.13494  -0.01869   0.11635  -0.74529
   D14        2.26560   0.00133   0.09805   0.12298   0.22108   2.48668
   D15        1.30511  -0.00073   0.13331  -0.01343   0.11989   1.42500
   D16       -1.85083   0.00175   0.09642   0.12824   0.22462  -1.62621
   D17       -3.01318  -0.00090   0.12663  -0.01951   0.10709  -2.90609
   D18        0.11406   0.00158   0.08974   0.12216   0.21182   0.32589
   D19       -3.01897  -0.00137   0.00408  -0.07909  -0.07506  -3.09403
   D20       -0.24886  -0.00069  -0.02654  -0.05804  -0.08444  -0.33330
   D21        0.10808   0.00115  -0.03314   0.06450   0.03122   0.13930
   D22        2.87819   0.00183  -0.06376   0.08555   0.02184   2.90003
   D23       -2.21713   0.00052   0.14118   0.06535   0.20640  -2.01074
   D24       -0.13233   0.00041   0.14489   0.06674   0.21169   0.07936
   D25        1.92444   0.00059   0.14671   0.06974   0.21642   2.14085
   D26        1.29426  -0.00001   0.17325   0.04466   0.21785   1.51211
   D27       -2.90412  -0.00012   0.17696   0.04605   0.22314  -2.68098
   D28       -0.84735   0.00006   0.17878   0.04905   0.22787  -0.61948
   D29       -2.67367  -0.00089  -0.09205  -0.11819  -0.20986  -2.88353
   D30        0.43967   0.00196  -0.11821   0.06983  -0.04875   0.39091
   D31        1.55489  -0.00176  -0.10095  -0.12376  -0.22426   1.33063
   D32       -1.61496   0.00109  -0.12712   0.06427  -0.06315  -1.67811
   D33       -0.48466  -0.00185  -0.09677  -0.12630  -0.22277  -0.70743
   D34        2.62868   0.00100  -0.12294   0.06173  -0.06166   2.56702
   D35       -0.07193  -0.00012  -0.06930  -0.03044  -0.10036  -0.17229
   D36        3.04153   0.00272  -0.09518   0.15669   0.06213   3.10366
         Item               Value     Threshold  Converged?
 Maximum Force            0.002715     0.000450     NO 
 RMS     Force            0.000841     0.000300     NO 
 Maximum Displacement     0.677684     0.001800     NO 
 RMS     Displacement     0.230392     0.001200     NO 
 Predicted change in Energy=-1.355320D-03
 Lowest energy point so far.  Saving SCF results.
 GradGradGradGradGradGradGradGradGradGradGradGradGradGradGradGradGradGrad

 Leave Link  103 at Fri Mar 14 15:13:19 2025, MaxMem=  8589934592 cpu:               4.4 elap:               0.9
 (Enter /home/enzo/gaussian_versions/gdv.j21/gdv/l202.exe)
                          Input orientation:                          
 ---------------------------------------------------------------------
 Center     Atomic      Atomic             Coordinates (Angstroms)
 Number     Number       Type             X           Y           Z
 ---------------------------------------------------------------------
      1          6           0        2.787896    1.335064   -0.777892
      2          6           0        1.678692    0.297886   -0.933195
      3         16           0        2.225183   -1.420700   -0.491848
      4          6           0        0.470513    0.627498   -0.059146
      5          8           0        0.603927    1.013313    1.092130
      6          7           0       -0.765217    0.353732   -0.619001
      7          6           0       -2.006250    0.667909    0.069220
      8          6           0       -2.844774   -0.556489    0.447787
      9          8           0       -3.999686   -0.451073    0.778389
     10          8           0       -2.168989   -1.716826    0.539961
     11          1           0        3.673162    1.038199   -1.346550
     12          1           0        2.450661    2.313991   -1.141347
     13          1           0        3.056858    1.442071    0.276116
     14          1           0        1.385594    0.202573   -1.984801
     15          1           0        2.464495   -1.137050    0.806779
     16          1           0       -0.805096    0.249191   -1.625972
     17          1           0       -1.725469    1.194921    0.987558
     18          1           0       -2.646542    1.327941   -0.523564
     19          1           0       -1.269110   -1.575268    0.186235
 ---------------------------------------------------------------------
                    Distance matrix (angstroms):
                    1          2          3          4          5
     1  C    0.000000
     2  C    1.526496   0.000000
     3  S    2.827136   1.856603   0.000000
     4  C    2.527352   1.527187   2.731522   0.000000
     5  O    2.893134   2.401853   3.325940   1.221511   0.000000
     6  N    3.689562   2.464655   3.479550   1.383985   2.288575
     7  C    4.913912   3.836737   4.752064   2.480417   2.824655
     8  C    6.066896   4.806122   5.228216   3.556675   3.843566
     9  O    7.189128   5.977829   6.426716   4.674127   4.841086
    10  O    5.968373   4.586273   4.523391   3.580748   3.930346
    11  H    1.093251   2.167219   2.978816   3.476068   3.920202
    12  H    1.097326   2.168858   3.797447   2.817162   3.176572
    13  H    1.093034   2.161235   3.078459   2.732236   2.620416
    14  H    2.169243   1.095841   2.359838   2.173956   3.276555
    15  H    2.954169   2.388312   1.350614   2.799895   2.857830
    16  H    3.848110   2.579053   3.641067   2.055539   3.155520
    17  H    4.848393   4.010271   4.963645   2.497979   2.338804
    18  H    5.440390   4.465026   5.593724   3.228365   3.643489
    19  H    5.085162   3.667610   3.562833   2.817566   3.321094
                    6          7          8          9         10
     6  N    0.000000
     7  C    1.453451   0.000000
     8  C    2.508206   1.531530   0.000000
     9  O    3.614167   2.393497   1.205916   0.000000
    10  O    2.756987   2.436194   1.345943   2.238400   0.000000
    11  H    4.549399   5.864916   6.945946   8.099747   6.729028
    12  H    3.802279   4.902970   6.229497   7.275847   6.357314
    13  H    4.073570   5.126129   6.233215   7.323325   6.112097
    14  H    2.552302   3.992511   4.938590   6.087998   4.763777
    15  H    3.832272   4.877441   5.352967   6.500539   4.677233
    16  H    1.013168   2.119380   3.018258   4.059153   3.227490
    17  H    2.052003   1.095411   2.147471   2.815157   2.979148
    18  H    2.120749   1.094079   2.129295   2.586692   3.260330
    19  H    2.150199   2.364087   1.894475   3.011728   0.977211
                   11         12         13         14         15
    11  H    0.000000
    12  H    1.778837   0.000000
    13  H    1.782131   1.771135   0.000000
    14  H    2.517658   2.510751   3.072658   0.000000
    15  H    3.290807   3.962961   2.698956   3.278953   0.000000
    16  H    4.555810   3.885642   4.467169   2.220373   4.304668
    17  H    5.883693   4.819193   4.841269   4.415698   4.798600
    18  H    6.379648   5.228329   5.760320   4.433936   5.828266
    19  H    5.797042   5.543059   5.275075   3.862845   3.810107
                   16         17         18         19
    16  H    0.000000
    17  H    2.927803   0.000000
    18  H    2.402067   1.774700   0.000000
    19  H    2.613054   2.919645   3.290860   0.000000
 Stoichiometry    C5H9NO3S
 Framework group  C1[X(C5H9NO3S)]
 Deg. of freedom    51
 Full point group                 C1      NOp   1
 RotChk:  IX=0 Diff= 8.68D-02
 Largest Abelian subgroup         C1      NOp   1
 Largest concise Abelian subgroup C1      NOp   1
                         Standard orientation:                         
 ---------------------------------------------------------------------
 Center     Atomic      Atomic             Coordinates (Angstroms)
 Number     Number       Type             X           Y           Z
 ---------------------------------------------------------------------
      1          6           0       -3.076862   -1.179987   -0.139242
      2          6           0       -1.929570   -0.245545   -0.514380
      3         16           0       -2.221252    1.510205    0.014054
      4          6           0       -0.609383   -0.692970    0.109495
      5          8           0       -0.550598   -1.078345    1.267130
      6          7           0        0.513369   -0.525555   -0.682221
      7          6           0        1.830868   -0.958445   -0.247109
      8          6           0        2.834744    0.180765   -0.047062
      9          8           0        4.017475   -0.032346    0.052753
     10          8           0        2.298094    1.396275    0.167664
     11          1           0       -4.025197   -0.797851   -0.526321
     12          1           0       -2.907191   -2.181141   -0.555208
     13          1           0       -3.144068   -1.274350    0.947636
     14          1           0       -1.839387   -0.165036   -1.603532
     15          1           0       -2.227924    1.234446    1.336200
     16          1           0        0.365774   -0.413492   -1.678297
     17          1           0        1.687551   -1.468442    0.711686
     18          1           0        2.280843   -1.666776   -0.949106
     19          1           0        1.337504    1.340663   -0.002965
 ---------------------------------------------------------------------
 Rotational constants (GHZ):           2.2594549           0.5564402           0.4869395
 Leave Link  202 at Fri Mar 14 15:13:19 2025, MaxMem=  8589934592 cpu:               0.1 elap:               0.3
 (Enter /home/enzo/gaussian_versions/gdv.j21/gdv/l301.exe)
 Standard basis: 6-31G(d) (6D, 7F)
 Ernie: Thresh=  0.10000D-02 Tol=  0.10000D-05 Strict=F.
 There are   172 symmetry adapted cartesian basis functions of A   symmetry.
 There are   172 symmetry adapted basis functions of A   symmetry.
   172 basis functions,   340 primitive gaussians,   172 cartesian basis functions
    43 alpha electrons       43 beta electrons
       nuclear repulsion energy       621.5674122274 Hartrees.
 IExCor=      4002 DFT=T Ex+Corr=B3LYP ScaHFX=  0.200000
 ScaDFX=  0.800000  0.720000  1.000000  0.810000  1.000000  0.000000
 ScaDFX=  0.000000  0.000000  0.000000  0.000000  0.000000  0.000000
 IRadAn=      5 IRanWt=     -1 IRanGd=            0 ICorTp=0 IEmpDi=  4
 NAtoms=   19 NActive=   19 NUniq=   19 SFac= 1.00D+00 NAtFMM=   60 NAOKFM=F Big=F
 Integral buffers will be    131072 words long.
 Raffenetti 2 integral format.
 Two-electron integral symmetry is turned on.
 Leave Link  301 at Fri Mar 14 15:13:19 2025, MaxMem=  8589934592 cpu:               0.4 elap:               0.3
 (Enter /home/enzo/gaussian_versions/gdv.j21/gdv/l302.exe)
 NPDir=0 NMtPBC=     1 NCelOv=     1 NCel=       1 NClECP=     1 NCelD=      1
         NCelK=      1 NCelE2=     1 NClLst=     1 CellRange=     0.0.
 One-electron integrals computed using PRISM.
 One-electron integral symmetry used in STVInt
 NBasis=   172 RedAO= T EigKep=  2.69D-03  NBF=   172
 NBsUse=   172 1.00D-06 EigRej= -1.00D+00 NBFU=   172
 Precomputing XC quadrature grid using
 IXCGrd= 4 IRadAn=           5 IRanWt=          -1 IRanGd=           0 AccXCQ= 0.00D+00.
 Generated NRdTot=       0 NPtTot=      406191 NUsed=           0 NTot=          64
 NSgBfM=   171   171   171   171   171 MxSgAt=    19 MxSgA2=    19 SizInc=   0.000
 NMBTot=     3434 MaxBatPerAtom=       85 MaxMicBPerAtom=      201 NBfPt=            51457782.
 Leave Link  302 at Fri Mar 14 15:13:20 2025, MaxMem=  8589934592 cpu:               5.1 elap:               0.9
 (Enter /home/enzo/gaussian_versions/gdv.j21/gdv/l303.exe)
 DipDrv:  MaxL=1.
 Leave Link  303 at Fri Mar 14 15:13:21 2025, MaxMem=  8589934592 cpu:               0.9 elap:               0.3
 (Enter /home/enzo/gaussian_versions/gdv.j21/gdv/l401.exe)
 Initial guess from the checkpoint file:  "/local/home/enzo/scratch/Gau-2337715.chk"
 B after Tr=    -0.000000    0.000000    0.000000
         Rot=    0.999931   -0.005434   -0.005599    0.008778 Ang=  -1.35 deg.
 AO Guess basis will be translated and rotated to current coordinates.
 JPrj=2 DoOrth=T DoCkMO=T.
 Generating alternative initial guess.
 ExpMin= 1.17D-01 ExpMax= 2.19D+04 ExpMxC= 3.30D+03 IAcc=3 IRadAn=         5 AccDes= 0.00D+00
 Harris functional with IExCor= 4002 and IRadAn=       5 diagonalized for initial guess.
 HarFok:  IExCor=    4002 AccDes= 0.00D+00 IRadAn=         5 IDoV= 1 UseB2=F ITyADJ=14 ICtDFT=  3500011
 FoFCou: FMM=F IPFlag=           0 FMFlag=      100000 FMFlg1=           0
         NFxFlg=           0 DoJE=T BraDBF=F KetDBF=T FulRan=T
         wScrn=  0.000000 ICntrl=       500 IOpCl=  0 I1Cent=   200000004 NGrid=           0
         NMat0=    1 NMatS0=      1 NMatT0=    0 NMatD0=    1 NMtDS0=    0 NMtDT0=    0
 Petite list used in FoFCou.
 Harris En= -874.548048148978    
 Leave Link  401 at Fri Mar 14 15:13:22 2025, MaxMem=  8589934592 cpu:               8.6 elap:               1.3
 (Enter /home/enzo/gaussian_versions/gdv.j21/gdv/l502.exe)
 Integral symmetry usage will be decided dynamically.
 Closed shell SCF:
 Using DIIS extrapolation, IDIIS=  1040.
 NGot=  8589934592 LenX=  8589843591 LenY=  8589813566
 Requested convergence on RMS density matrix=1.00D-08 within 128 cycles.
 Requested convergence on MAX density matrix=1.00D-06.
 Requested convergence on             energy=1.00D-06.
 No special actions if energy rises.
 Fock matrices will be formed incrementally for  20 cycles.
 Integral accuracy reduced to 1.0D-05 until final iterations.

 Cycle   1  Pass 0  IDiag  1:
 FoFJK:  IHMeth= 1 ICntrl=       0 DoSepK=F KAlg= 0 I1Cent=           0 FoldK=F
 IRaf= 910000000 NMat=       1 IRICut=       1 DoRegI=T DoRafI=F ISym2E= 0 IDoP0=0 IntGTp=1.
 FoFCou: FMM=F IPFlag=           0 FMFlag=      100000 FMFlg1=           0
         NFxFlg=           0 DoJE=F BraDBF=F KetDBF=F FulRan=T
         wScrn=  0.000000 ICntrl=         0 IOpCl=  0 I1Cent=           0 NGrid=           0
         NMat0=    1 NMatS0=      1 NMatT0=    0 NMatD0=    1 NMtDS0=    0 NMtDT0=    0
 Symmetry not used in FoFCou.
 E= -874.495475080333    
 DIIS: error= 7.98D-03 at cycle   1 NSaved=   1.
 NSaved= 1 IEnMin= 1 EnMin= -874.495475080333     IErMin= 1 ErrMin= 7.98D-03
 ErrMax= 7.98D-03  0.00D+00 EMaxC= 1.00D-01 BMatC= 4.31D-02 BMatP= 4.31D-02
 IDIUse=3 WtCom= 9.20D-01 WtEn= 7.98D-02
 Coeff-Com:  0.100D+01
 Coeff-En:   0.100D+01
 Coeff:      0.100D+01
 Gap=     1.532 Goal=   None    Shift=    0.000
 GapD=    1.532 DampG=2.000 DampE=1.000 DampFc=2.0000 IDamp=-1.
 RMSDP=2.25D-03 MaxDP=5.10D-02              OVMax= 6.93D-02

 Cycle   2  Pass 0  IDiag  1:
 RMSU=  2.25D-03    CP:  9.96D-01
 E= -874.578436117843     Delta-E=       -0.082961037510 Rises=F Damp=F
 DIIS: error= 1.76D-03 at cycle   2 NSaved=   2.
 NSaved= 2 IEnMin= 2 EnMin= -874.578436117843     IErMin= 2 ErrMin= 1.76D-03
 ErrMax= 1.76D-03  0.00D+00 EMaxC= 1.00D-01 BMatC= 8.94D-04 BMatP= 4.31D-02
 IDIUse=3 WtCom= 9.82D-01 WtEn= 1.76D-02
 Coeff-Com: -0.559D-01 0.106D+01
 Coeff-En:   0.000D+00 0.100D+01
 Coeff:     -0.549D-01 0.105D+01
 Gap=     0.227 Goal=   None    Shift=    0.000
 RMSDP=3.94D-04 MaxDP=7.86D-03 DE=-8.30D-02 OVMax= 1.37D-02

 Cycle   3  Pass 0  IDiag  1:
 RMSU=  3.66D-04    CP:  9.95D-01  1.06D+00
 E= -874.578685067624     Delta-E=       -0.000248949781 Rises=F Damp=F
 DIIS: error= 2.44D-03 at cycle   3 NSaved=   3.
 NSaved= 3 IEnMin= 3 EnMin= -874.578685067624     IErMin= 2 ErrMin= 1.76D-03
 ErrMax= 2.44D-03  0.00D+00 EMaxC= 1.00D-01 BMatC= 1.39D-03 BMatP= 8.94D-04
 IDIUse=3 WtCom= 1.68D-01 WtEn= 8.32D-01
 Coeff-Com: -0.471D-01 0.624D+00 0.423D+00
 Coeff-En:   0.000D+00 0.415D+00 0.585D+00
 Coeff:     -0.793D-02 0.451D+00 0.557D+00
 Gap=     0.227 Goal=   None    Shift=    0.000
 RMSDP=3.08D-04 MaxDP=1.07D-02 DE=-2.49D-04 OVMax= 1.56D-02

 Cycle   4  Pass 0  IDiag  1:
 RMSU=  1.84D-04    CP:  9.96D-01  1.09D+00  3.45D-01
 E= -874.579197787678     Delta-E=       -0.000512720053 Rises=F Damp=F
 DIIS: error= 2.08D-03 at cycle   4 NSaved=   4.
 NSaved= 4 IEnMin= 4 EnMin= -874.579197787678     IErMin= 2 ErrMin= 1.76D-03
 ErrMax= 2.08D-03  0.00D+00 EMaxC= 1.00D-01 BMatC= 7.39D-04 BMatP= 8.94D-04
 IDIUse=3 WtCom= 9.79D-01 WtEn= 2.08D-02
 Coeff-Com: -0.180D-01 0.197D+00 0.403D+00 0.417D+00
 Coeff-En:   0.000D+00 0.000D+00 0.375D+00 0.625D+00
 Coeff:     -0.177D-01 0.193D+00 0.403D+00 0.422D+00
 Gap=     0.227 Goal=   None    Shift=    0.000
 RMSDP=1.47D-04 MaxDP=5.53D-03 DE=-5.13D-04 OVMax= 8.09D-03

 Cycle   5  Pass 0  IDiag  1:
 RMSU=  4.98D-05    CP:  9.95D-01  1.09D+00  6.13D-01  4.80D-01
 E= -874.579747421646     Delta-E=       -0.000549633968 Rises=F Damp=F
 DIIS: error= 2.69D-04 at cycle   5 NSaved=   5.
 NSaved= 5 IEnMin= 5 EnMin= -874.579747421646     IErMin= 5 ErrMin= 2.69D-04
 ErrMax= 2.69D-04  0.00D+00 EMaxC= 1.00D-01 BMatC= 2.03D-05 BMatP= 7.39D-04
 IDIUse=3 WtCom= 9.97D-01 WtEn= 2.69D-03
 Coeff-Com: -0.531D-02 0.473D-01 0.202D+00 0.263D+00 0.494D+00
 Coeff-En:   0.000D+00 0.000D+00 0.000D+00 0.000D+00 0.100D+01
 Coeff:     -0.529D-02 0.471D-01 0.201D+00 0.262D+00 0.495D+00
 Gap=     0.227 Goal=   None    Shift=    0.000
 RMSDP=2.48D-05 MaxDP=8.22D-04 DE=-5.50D-04 OVMax= 1.23D-03

 Cycle   6  Pass 0  IDiag  1:
 RMSU=  1.58D-05    CP:  9.96D-01  1.09D+00  6.04D-01  5.60D-01  7.68D-01
 E= -874.579762987455     Delta-E=       -0.000015565809 Rises=F Damp=F
 DIIS: error= 4.68D-05 at cycle   6 NSaved=   6.
 NSaved= 6 IEnMin= 6 EnMin= -874.579762987455     IErMin= 6 ErrMin= 4.68D-05
 ErrMax= 4.68D-05  0.00D+00 EMaxC= 1.00D-01 BMatC= 1.06D-06 BMatP= 2.03D-05
 IDIUse=1 WtCom= 1.00D+00 WtEn= 0.00D+00
 Coeff-Com: -0.150D-04-0.664D-02 0.399D-01 0.655D-01 0.232D+00 0.670D+00
 Coeff:     -0.150D-04-0.664D-02 0.399D-01 0.655D-01 0.232D+00 0.670D+00
 Gap=     0.227 Goal=   None    Shift=    0.000
 RMSDP=7.52D-06 MaxDP=2.15D-04 DE=-1.56D-05 OVMax= 3.07D-04

 Initial convergence to 1.0D-05 achieved.  Increase integral accuracy.
 Cycle   7  Pass 1  IDiag  1:
 E= -874.579752016769     Delta-E=        0.000010970686 Rises=F Damp=F
 DIIS: error= 1.48D-05 at cycle   1 NSaved=   1.
 NSaved= 1 IEnMin= 1 EnMin= -874.579752016769     IErMin= 1 ErrMin= 1.48D-05
 ErrMax= 1.48D-05  0.00D+00 EMaxC= 1.00D-01 BMatC= 1.45D-07 BMatP= 1.45D-07
 IDIUse=1 WtCom= 1.00D+00 WtEn= 0.00D+00
 Coeff-Com:  0.100D+01
 Coeff:      0.100D+01
 Gap=     0.227 Goal=   None    Shift=    0.000
 RMSDP=7.52D-06 MaxDP=2.15D-04 DE= 1.10D-05 OVMax= 1.82D-04

 Cycle   8  Pass 1  IDiag  1:
 RMSU=  6.02D-06    CP:  1.00D+00
 E= -874.579751938505     Delta-E=        0.000000078264 Rises=F Damp=F
 DIIS: error= 2.75D-05 at cycle   2 NSaved=   2.
 NSaved= 2 IEnMin= 1 EnMin= -874.579752016769     IErMin= 1 ErrMin= 1.48D-05
 ErrMax= 2.75D-05  0.00D+00 EMaxC= 1.00D-01 BMatC= 2.72D-07 BMatP= 1.45D-07
 IDIUse=1 WtCom= 1.00D+00 WtEn= 0.00D+00
 Coeff-Com:  0.583D+00 0.417D+00
 Coeff:      0.583D+00 0.417D+00
 Gap=     0.227 Goal=   None    Shift=    0.000
 RMSDP=2.75D-06 MaxDP=1.06D-04 DE= 7.83D-08 OVMax= 1.49D-04

 Cycle   9  Pass 1  IDiag  1:
 RMSU=  1.96D-06    CP:  1.00D+00  6.81D-01
 E= -874.579752155092     Delta-E=       -0.000000216588 Rises=F Damp=F
 DIIS: error= 7.60D-06 at cycle   3 NSaved=   3.
 NSaved= 3 IEnMin= 3 EnMin= -874.579752155092     IErMin= 3 ErrMin= 7.60D-06
 ErrMax= 7.60D-06  0.00D+00 EMaxC= 1.00D-01 BMatC= 1.03D-08 BMatP= 1.45D-07
 IDIUse=1 WtCom= 1.00D+00 WtEn= 0.00D+00
 Coeff-Com:  0.228D+00 0.212D+00 0.560D+00
 Coeff:      0.228D+00 0.212D+00 0.560D+00
 Gap=     0.227 Goal=   None    Shift=    0.000
 RMSDP=7.18D-07 MaxDP=2.49D-05 DE=-2.17D-07 OVMax= 5.17D-05

 Cycle  10  Pass 1  IDiag  1:
 RMSU=  6.74D-07    CP:  1.00D+00  7.07D-01  9.04D-01
 E= -874.579752160991     Delta-E=       -0.000000005899 Rises=F Damp=F
 DIIS: error= 3.60D-06 at cycle   4 NSaved=   4.
 NSaved= 4 IEnMin= 4 EnMin= -874.579752160991     IErMin= 4 ErrMin= 3.60D-06
 ErrMax= 3.60D-06  0.00D+00 EMaxC= 1.00D-01 BMatC= 2.84D-09 BMatP= 1.03D-08
 IDIUse=1 WtCom= 1.00D+00 WtEn= 0.00D+00
 Coeff-Com:  0.152D-01 0.417D-01 0.363D+00 0.580D+00
 Coeff:      0.152D-01 0.417D-01 0.363D+00 0.580D+00
 Gap=     0.227 Goal=   None    Shift=    0.000
 RMSDP=3.29D-07 MaxDP=1.56D-05 DE=-5.90D-09 OVMax= 2.15D-05

 Cycle  11  Pass 1  IDiag  1:
 RMSU=  1.89D-07    CP:  1.00D+00  7.16D-01  9.47D-01  6.32D-01
 E= -874.579752163116     Delta-E=       -0.000000002125 Rises=F Damp=F
 DIIS: error= 1.42D-06 at cycle   5 NSaved=   5.
 NSaved= 5 IEnMin= 5 EnMin= -874.579752163116     IErMin= 5 ErrMin= 1.42D-06
 ErrMax= 1.42D-06  0.00D+00 EMaxC= 1.00D-01 BMatC= 3.72D-10 BMatP= 2.84D-09
 IDIUse=1 WtCom= 1.00D+00 WtEn= 0.00D+00
 Coeff-Com: -0.111D-01 0.707D-02 0.177D+00 0.364D+00 0.464D+00
 Coeff:     -0.111D-01 0.707D-02 0.177D+00 0.364D+00 0.464D+00
 Gap=     0.227 Goal=   None    Shift=    0.000
 RMSDP=9.63D-08 MaxDP=3.56D-06 DE=-2.13D-09 OVMax= 3.84D-06

 Cycle  12  Pass 1  IDiag  1:
 RMSU=  7.60D-08    CP:  1.00D+00  7.18D-01  9.51D-01  6.88D-01  7.70D-01
 E= -874.579752163417     Delta-E=       -0.000000000301 Rises=F Damp=F
 DIIS: error= 1.86D-07 at cycle   6 NSaved=   6.
 NSaved= 6 IEnMin= 6 EnMin= -874.579752163417     IErMin= 6 ErrMin= 1.86D-07
 ErrMax= 1.86D-07  0.00D+00 EMaxC= 1.00D-01 BMatC= 1.08D-11 BMatP= 3.72D-10
 IDIUse=1 WtCom= 1.00D+00 WtEn= 0.00D+00
 Coeff-Com: -0.630D-02-0.337D-02 0.143D-01 0.562D-01 0.167D+00 0.773D+00
 Coeff:     -0.630D-02-0.337D-02 0.143D-01 0.562D-01 0.167D+00 0.773D+00
 Gap=     0.227 Goal=   None    Shift=    0.000
 RMSDP=2.92D-08 MaxDP=7.56D-07 DE=-3.01D-10 OVMax= 2.04D-06

 Cycle  13  Pass 1  IDiag  1:
 RMSU=  2.28D-08    CP:  1.00D+00  7.19D-01  9.53D-01  6.94D-01  8.55D-01
                    CP:  1.04D+00
 E= -874.579752163419     Delta-E=       -0.000000000003 Rises=F Damp=F
 DIIS: error= 1.39D-07 at cycle   7 NSaved=   7.
 NSaved= 7 IEnMin= 7 EnMin= -874.579752163419     IErMin= 7 ErrMin= 1.39D-07
 ErrMax= 1.39D-07  0.00D+00 EMaxC= 1.00D-01 BMatC= 2.84D-12 BMatP= 1.08D-11
 IDIUse=1 WtCom= 1.00D+00 WtEn= 0.00D+00
 Coeff-Com: -0.231D-02-0.240D-02-0.793D-02-0.184D-02 0.505D-01 0.420D+00
 Coeff-Com:  0.544D+00
 Coeff:     -0.231D-02-0.240D-02-0.793D-02-0.184D-02 0.505D-01 0.420D+00
 Coeff:      0.544D+00
 Gap=     0.227 Goal=   None    Shift=    0.000
 RMSDP=1.39D-08 MaxDP=5.35D-07 DE=-2.73D-12 OVMax= 7.88D-07

 Cycle  14  Pass 1  IDiag  1:
 RMSU=  9.58D-09    CP:  1.00D+00  7.20D-01  9.54D-01  6.97D-01  8.69D-01
                    CP:  1.10D+00  6.64D-01
 E= -874.579752163431     Delta-E=       -0.000000000012 Rises=F Damp=F
 DIIS: error= 8.47D-08 at cycle   8 NSaved=   8.
 NSaved= 8 IEnMin= 8 EnMin= -874.579752163431     IErMin= 8 ErrMin= 8.47D-08
 ErrMax= 8.47D-08  0.00D+00 EMaxC= 1.00D-01 BMatC= 9.81D-13 BMatP= 2.84D-12
 IDIUse=1 WtCom= 1.00D+00 WtEn= 0.00D+00
 Coeff-Com: -0.117D-04-0.889D-03-0.960D-02-0.164D-01-0.792D-02 0.947D-01
 Coeff-Com:  0.392D+00 0.548D+00
 Coeff:     -0.117D-04-0.889D-03-0.960D-02-0.164D-01-0.792D-02 0.947D-01
 Coeff:      0.392D+00 0.548D+00
 Gap=     0.227 Goal=   None    Shift=    0.000
 RMSDP=6.68D-09 MaxDP=2.33D-07 DE=-1.18D-11 OVMax= 3.50D-07

 SCF Done:  E(RB3LYP) =  -874.579752163     A.U. after   14 cycles
            NFock= 14  Conv=0.67D-08     -V/T= 2.0064
 KE= 8.690246039960D+02 PE=-3.302234077811D+03 EE= 9.370623094242D+02
 Leave Link  502 at Fri Mar 14 15:13:33 2025, MaxMem=  8589934592 cpu:              86.5 elap:              11.2
 (Enter /home/enzo/gaussian_versions/gdv.j21/gdv/l701.exe)
 ... and contract with generalized density number  0.
 Compute integral first derivatives.
 Leave Link  701 at Fri Mar 14 15:13:34 2025, MaxMem=  8589934592 cpu:               3.3 elap:               0.7
 (Enter /home/enzo/gaussian_versions/gdv.j21/gdv/l702.exe)
 L702 exits ... SP integral derivatives will be done elsewhere.
 Leave Link  702 at Fri Mar 14 15:13:34 2025, MaxMem=  8589934592 cpu:               0.3 elap:               0.4
 (Enter /home/enzo/gaussian_versions/gdv.j21/gdv/l703.exe)
 Integral derivatives from FoFJK, PRISM(SPDF).
 Compute integral first derivatives, UseDBF=F ICtDFT=           0.
 Calling FoFJK, ICntrl=      2127 FMM=F ISym2X=0 I1Cent= 0 IOpClX= 0 NMat=1 NMatS=1 NMatT=0.
 FoFJK:  IHMeth= 1 ICntrl=    2127 DoSepK=F KAlg= 0 I1Cent=           0 FoldK=F
 IRaf=         0 NMat=       1 IRICut=       1 DoRegI=T DoRafI=F ISym2E= 0 IDoP0=0 IntGTp=1.
 FoFCou: FMM=F IPFlag=           0 FMFlag=      100000 FMFlg1=         800
         NFxFlg=           0 DoJE=F BraDBF=F KetDBF=F FulRan=T
         wScrn=  0.000000 ICntrl=      2127 IOpCl=  0 I1Cent=           0 NGrid=           0
         NMat0=    1 NMatS0=      1 NMatT0=    0 NMatD0=    1 NMtDS0=    0 NMtDT0=    0
 Symmetry not used in FoFCou.
 Leave Link  703 at Fri Mar 14 15:13:37 2025, MaxMem=  8589934592 cpu:              15.5 elap:               2.4
 (Enter /home/enzo/gaussian_versions/gdv.j21/gdv/l716.exe)
 Dipole        =-1.62655863D+00-6.70040785D-01-1.26200717D+00
 ***** Axes restored to original set *****
 -------------------------------------------------------------------
 Center     Atomic                   Forces (Hartrees/Bohr)
 Number     Number              X              Y              Z
 -------------------------------------------------------------------
      1        6           0.000711480    0.000373526   -0.000176354
      2        6           0.000092943   -0.000210174   -0.001918143
      3       16           0.000207659   -0.000246447    0.000105980
      4        6          -0.001704047   -0.002575172    0.003196987
      5        8          -0.001613097    0.001396581   -0.001036225
      6        7           0.002559841    0.002239084   -0.004477188
      7        6          -0.000421870    0.002131563   -0.003353404
      8        6           0.001647177    0.002803409    0.014379438
      9        8          -0.000747277   -0.001552485   -0.004579594
     10        8          -0.000689755   -0.001982592   -0.005032768
     11        1          -0.000275176   -0.000083311    0.000128449
     12        1          -0.000185525   -0.000224885    0.000244930
     13        1           0.000008259    0.000164858   -0.000081941
     14        1          -0.000089844    0.000386766   -0.000263431
     15        1           0.000066898   -0.000408217    0.000131641
     16        1           0.000143573   -0.001429321    0.001087205
     17        1          -0.002164677   -0.001299810    0.000956317
     18        1           0.001669290    0.001023675   -0.000156847
     19        1           0.000784150   -0.000507047    0.000844948
 -------------------------------------------------------------------
 Cartesian Forces:  Max     0.014379438 RMS     0.002531124
 Leave Link  716 at Fri Mar 14 15:13:37 2025, MaxMem=  8589934592 cpu:               0.4 elap:               0.3
 (Enter /home/enzo/gaussian_versions/gdv.j21/gdv/l103.exe)

 GradGradGradGradGradGradGradGradGradGradGradGradGradGradGradGradGradGrad
 Berny optimization.
 Using GEDIIS/GDIIS optimizer.
 FormGI is forming the generalized inverse of G from B-inverse, IUseBI=4.
 GSVD:  received Info=                   1 from GESDD.
 Internal  Forces:  Max     0.003355762 RMS     0.001223133
 Search for a local minimum.
 Step number   8 out of a maximum of   93
 All quantities printed in internal units (Hartrees-Bohrs-Radians)
 RMS Force = .12231D-02 SwitMx=.10000D-02 MixMth= 1
 Mixed Optimization -- RFO/linear search
 Update second derivatives using D2CorX and points    7    8
 DE= -1.25D-04 DEPred=-1.36D-03 R= 9.24D-02
 Trust test= 9.24D-02 RLast= 8.19D-01 DXMaxT set to 1.37D+00
 ITU= -1  1  1  1  1  1  1  0
 Use linear search instead of GDIIS.
     Eigenvalues ---    0.00160   0.00271   0.00450   0.00759   0.00899
     Eigenvalues ---    0.01186   0.01277   0.01977   0.03814   0.04469
     Eigenvalues ---    0.04720   0.05107   0.05359   0.05657   0.05741
     Eigenvalues ---    0.06727   0.08161   0.10381   0.13455   0.15073
     Eigenvalues ---    0.15950   0.16000   0.16019   0.16048   0.16951
     Eigenvalues ---    0.17836   0.19915   0.21305   0.22095   0.22392
     Eigenvalues ---    0.23762   0.24603   0.24920   0.26259   0.26727
     Eigenvalues ---    0.30012   0.31892   0.32584   0.32585   0.32598
     Eigenvalues ---    0.32626   0.32637   0.32789   0.33512   0.37057
     Eigenvalues ---    0.40638   0.42169   0.46532   0.49445   0.79706
     Eigenvalues ---    0.80938
 RFO step:  Lambda=-5.38904453D-04 EMin= 1.59599510D-03
 Quartic linear search produced a step of -0.46434.
 Iteration  1 RMS(Cart)=  0.05142743 RMS(Int)=  0.00203769
 Iteration  2 RMS(Cart)=  0.00210189 RMS(Int)=  0.00016998
 Iteration  3 RMS(Cart)=  0.00000969 RMS(Int)=  0.00016985
 Iteration  4 RMS(Cart)=  0.00000000 RMS(Int)=  0.00016985
 Variable       Old X    -DE/DX   Delta X   Delta X   Delta X     New X
                                 (Linear)    (Quad)   (Total)
    R1        2.88466   0.00036   0.00201   0.00018   0.00219   2.88685
    R2        2.06594  -0.00027  -0.00010  -0.00054  -0.00064   2.06530
    R3        2.07365  -0.00022   0.00014  -0.00054  -0.00040   2.07325
    R4        2.06554  -0.00006   0.00027  -0.00028  -0.00001   2.06552
    R5        3.50847   0.00074  -0.00269   0.00404   0.00136   3.50983
    R6        2.88597   0.00152   0.00187   0.00290   0.00478   2.89074
    R7        2.07084   0.00024  -0.00017   0.00054   0.00037   2.07121
    R8        2.55229   0.00005  -0.00115   0.00167   0.00052   2.55281
    R9        2.30832  -0.00071   0.00046  -0.00114  -0.00068   2.30764
   R10        2.61535  -0.00263  -0.00324  -0.00212  -0.00535   2.61000
   R11        2.74662   0.00151   0.00060   0.00266   0.00326   2.74988
   R12        1.91461  -0.00094  -0.00036  -0.00146  -0.00182   1.91279
   R13        2.89417   0.00183   0.00056   0.00581   0.00638   2.90055
   R14        2.07003  -0.00038   0.00013  -0.00020  -0.00007   2.06996
   R15        2.06751  -0.00027   0.00047  -0.00143  -0.00095   2.06656
   R16        2.27885  -0.00068  -0.00186   0.00070  -0.00116   2.27769
   R17        2.54346   0.00191   0.00488   0.00120   0.00608   2.54955
   R18        1.84666   0.00034  -0.00159   0.00178   0.00019   1.84685
    A1        1.92941  -0.00018  -0.00017  -0.00092  -0.00109   1.92832
    A2        1.92744  -0.00030   0.00082  -0.00213  -0.00131   1.92613
    A3        1.92136   0.00026  -0.00014   0.00128   0.00114   1.92250
    A4        1.89528   0.00027  -0.00002   0.00160   0.00158   1.89686
    A5        1.90594   0.00002  -0.00170   0.00146  -0.00023   1.90571
    A6        1.88355  -0.00007   0.00121  -0.00126  -0.00005   1.88350
    A7        1.97237   0.00004  -0.00076   0.00190   0.00113   1.97351
    A8        1.94978  -0.00018  -0.00538   0.00188  -0.00350   1.94628
    A9        1.92952  -0.00006   0.00090  -0.00243  -0.00152   1.92800
   A10        1.87192   0.00030   0.00406   0.00125   0.00532   1.87724
   A11        1.79911  -0.00001   0.00414  -0.00165   0.00249   1.80160
   A12        1.93521  -0.00007  -0.00225  -0.00115  -0.00339   1.93182
   A13        1.65722   0.00109  -0.00090   0.00637   0.00547   1.66270
   A14        2.11903   0.00236   0.00138   0.00590   0.00796   2.12699
   A15        2.01768  -0.00114   0.00013  -0.00442  -0.00361   2.01406
   A16        2.14274  -0.00115   0.00018  -0.00337  -0.00251   2.14022
   A17        2.12714  -0.00204  -0.00073  -0.00261  -0.00368   2.12346
   A18        2.04610   0.00087   0.00351   0.00679   0.00994   2.05604
   A19        2.04801   0.00135  -0.00125   0.01050   0.00890   2.05691
   A20        1.99514  -0.00168  -0.00646  -0.00368  -0.01013   1.98501
   A21        1.85678   0.00269  -0.00384   0.01518   0.01134   1.86811
   A22        1.95364  -0.00111   0.00590  -0.01071  -0.00481   1.94882
   A23        1.89414  -0.00207   0.00315  -0.00824  -0.00502   1.88912
   A24        1.87109   0.00247   0.00372   0.00826   0.01196   1.88305
   A25        1.89019  -0.00038  -0.00251  -0.00099  -0.00349   1.88671
   A26        2.12026   0.00106   0.00767   0.00096   0.00907   2.12933
   A27        2.01667   0.00052  -0.00019   0.00270   0.00295   2.01962
   A28        2.13820  -0.00097  -0.00391  -0.00114  -0.00460   2.13359
   A29        1.88881   0.00152   0.00473   0.00378   0.00851   1.89733
    D1        0.94729  -0.00007   0.00659  -0.00134   0.00525   0.95254
    D2        3.06021   0.00022   0.00739   0.00303   0.01042   3.07063
    D3       -1.05898  -0.00004   0.00131   0.00112   0.00243  -1.05655
    D4        3.04514  -0.00004   0.00699  -0.00133   0.00567   3.05081
    D5       -1.12513   0.00025   0.00779   0.00305   0.01084  -1.11429
    D6        1.03887  -0.00001   0.00171   0.00113   0.00285   1.04172
    D7       -1.15992  -0.00015   0.00891  -0.00341   0.00550  -1.15442
    D8        0.95300   0.00014   0.00971   0.00096   0.01067   0.96367
    D9        3.11699  -0.00012   0.00363  -0.00095   0.00268   3.11968
   D10        1.11578   0.00008   0.03335  -0.03968  -0.00632   1.10946
   D11       -1.04071   0.00006   0.03777  -0.04419  -0.00643  -1.04715
   D12       -3.08423   0.00002   0.03662  -0.04265  -0.00603  -3.09025
   D13       -0.74529   0.00049  -0.05402   0.04143  -0.01259  -0.75789
   D14        2.48668  -0.00035  -0.10266   0.06444  -0.03824   2.44844
   D15        1.42500   0.00063  -0.05567   0.04590  -0.00975   1.41525
   D16       -1.62621  -0.00021  -0.10430   0.06891  -0.03540  -1.66161
   D17       -2.90609   0.00075  -0.04973   0.04407  -0.00564  -2.91172
   D18        0.32589  -0.00010  -0.09836   0.06708  -0.03128   0.29460
   D19       -3.09403  -0.00005   0.03485  -0.04243  -0.00763  -3.10167
   D20       -0.33330   0.00079   0.03921   0.00320   0.04240  -0.29091
   D21        0.13930  -0.00111  -0.01450  -0.01961  -0.03409   0.10520
   D22        2.90003  -0.00027  -0.01014   0.02602   0.01594   2.91596
   D23       -2.01074   0.00111  -0.09584   0.05481  -0.04096  -2.05170
   D24        0.07936  -0.00062  -0.09829   0.05276  -0.04555   0.03381
   D25        2.14085  -0.00004  -0.10049   0.05501  -0.04548   2.09538
   D26        1.51211   0.00037  -0.10116   0.00990  -0.09123   1.42088
   D27       -2.68098  -0.00136  -0.10361   0.00786  -0.09581  -2.77679
   D28       -0.61948  -0.00078  -0.10581   0.01010  -0.09574  -0.71523
   D29       -2.88353   0.00305   0.09745  -0.00403   0.09340  -2.79014
   D30        0.39091  -0.00188   0.02264  -0.02454  -0.00182   0.38909
   D31        1.33063   0.00214   0.10413  -0.01517   0.08889   1.41951
   D32       -1.67811  -0.00278   0.02932  -0.03568  -0.00633  -1.68444
   D33       -0.70743   0.00233   0.10344  -0.01414   0.08925  -0.61818
   D34        2.56702  -0.00259   0.02863  -0.03465  -0.00597   2.56105
   D35       -0.17229   0.00336   0.04660   0.06133   0.10806  -0.06423
   D36        3.10366  -0.00180  -0.02885   0.04041   0.01144   3.11509
         Item               Value     Threshold  Converged?
 Maximum Force            0.003356     0.000450     NO 
 RMS     Force            0.001223     0.000300     NO 
 Maximum Displacement     0.218199     0.001800     NO 
 RMS     Displacement     0.051704     0.001200     NO 
 Predicted change in Energy=-7.802093D-04
 Lowest energy point so far.  Saving SCF results.
 GradGradGradGradGradGradGradGradGradGradGradGradGradGradGradGradGradGrad

 Leave Link  103 at Fri Mar 14 15:13:38 2025, MaxMem=  8589934592 cpu:               1.9 elap:               0.4
 (Enter /home/enzo/gaussian_versions/gdv.j21/gdv/l202.exe)
                          Input orientation:                          
 ---------------------------------------------------------------------
 Center     Atomic      Atomic             Coordinates (Angstroms)
 Number     Number       Type             X           Y           Z
 ---------------------------------------------------------------------
      1          6           0        2.776684    1.337188   -0.806447
      2          6           0        1.678987    0.281026   -0.921844
      3         16           0        2.254566   -1.421336   -0.452463
      4          6           0        0.477502    0.621834   -0.038491
      5          8           0        0.612706    1.027956    1.105185
      6          7           0       -0.759583    0.362703   -0.595318
      7          6           0       -1.994548    0.680468    0.105698
      8          6           0       -2.859164   -0.547770    0.421612
      9          8           0       -4.036430   -0.455193    0.662924
     10          8           0       -2.207989   -1.728882    0.456049
     11          1           0        3.654263    1.041741   -1.386981
     12          1           0        2.417087    2.303878   -1.180430
     13          1           0        3.065230    1.467635    0.239706
     14          1           0        1.369982    0.162026   -1.966667
     15          1           0        2.520310   -1.111673    0.835322
     16          1           0       -0.806706    0.223235   -1.596761
     17          1           0       -1.713356    1.154433    1.052342
     18          1           0       -2.608759    1.387444   -0.458959
     19          1           0       -1.274936   -1.579831    0.206383
 ---------------------------------------------------------------------
                    Distance matrix (angstroms):
                    1          2          3          4          5
     1  C    0.000000
     2  C    1.527657   0.000000
     3  S    2.829729   1.857322   0.000000
     4  C    2.527395   1.529715   2.739320   0.000000
     5  O    2.903922   2.409088   3.334817   1.221152   0.000000
     6  N    3.674150   2.461689   3.505466   1.381153   2.284174
     7  C    4.901831   3.835395   4.773268   2.476945   2.813804
     8  C    6.068277   4.804851   5.260927   3.565531   3.873508
     9  O    7.196542   5.976580   6.461745   4.693352   4.899979
    10  O    5.986790   4.587690   4.564469   3.603096   3.997231
    11  H    1.092910   2.167199   2.983156   3.476572   3.932194
    12  H    1.097116   2.168776   3.799154   2.809855   3.179278
    13  H    1.093027   2.163078   3.079355   2.736624   2.637659
    14  H    2.169315   1.096038   2.362696   2.173892   3.280179
    15  H    2.959401   2.394799   1.350889   2.818095   2.879200
    16  H    3.834863   2.576339   3.658608   2.058221   3.156393
    17  H    4.863020   4.020976   4.964215   2.504684   2.330097
    18  H    5.396876   4.452324   5.616156   3.207485   3.599113
    19  H    5.094159   3.668970   3.593964   2.824594   3.342393
                    6          7          8          9         10
     6  N    0.000000
     7  C    1.455176   0.000000
     8  C    2.504267   1.534904   0.000000
     9  O    3.604144   2.401980   1.205304   0.000000
    10  O    2.752814   2.444028   1.349163   2.237919   0.000000
    11  H    4.535400   5.853859   6.944226   8.098745   6.740854
    12  H    3.768520   4.873613   6.207838   7.256604   6.350791
    13  H    4.067841   5.122396   6.260463   7.369529   6.170200
    14  H    2.540849   3.985416   4.908499   6.043592   4.716668
    15  H    3.870169   4.912032   5.424747   6.591777   4.783472
    16  H    1.012205   2.125652   2.980077   3.999695   3.160441
    17  H    2.061870   1.095375   2.146670   2.852931   2.985588
    18  H    2.118523   1.093576   2.140832   2.586924   3.272513
    19  H    2.163736   2.374222   1.902959   3.016471   0.977312
                   11         12         13         14         15
    11  H    0.000000
    12  H    1.779399   0.000000
    13  H    1.781700   1.770926   0.000000
    14  H    2.515526   2.510404   3.073526   0.000000
    15  H    3.295705   3.967355   2.702688   3.285834   0.000000
    16  H    4.540286   3.859436   4.462401   2.208743   4.331979
    17  H    5.896976   4.833948   4.857300   4.427896   4.806897
    18  H    6.340834   5.159408   5.717404   4.427777   5.850478
    19  H    5.805897   5.535113   5.303319   3.840807   3.875387
                   16         17         18         19
    16  H    0.000000
    17  H    2.950744   0.000000
    18  H    2.428450   1.772025   0.000000
    19  H    2.592608   2.895525   3.320615   0.000000
 Stoichiometry    C5H9NO3S
 Framework group  C1[X(C5H9NO3S)]
 Deg. of freedom    51
 Full point group                 C1      NOp   1
 RotChk:  IX=0 Diff= 2.30D-02
 Largest Abelian subgroup         C1      NOp   1
 Largest concise Abelian subgroup C1      NOp   1
                         Standard orientation:                         
 ---------------------------------------------------------------------
 Center     Atomic      Atomic             Coordinates (Angstroms)
 Number     Number       Type             X           Y           Z
 ---------------------------------------------------------------------
      1          6           0       -3.066378   -1.185292   -0.216829
      2          6           0       -1.917333   -0.227737   -0.527502
      3         16           0       -2.244170    1.510082    0.040659
      4          6           0       -0.611811   -0.688199    0.123356
      5          8           0       -0.574616   -1.100907    1.272051
      6          7           0        0.522895   -0.528957   -0.647791
      7          6           0        1.830433   -0.966205   -0.182284
      8          6           0        2.844257    0.175625   -0.026348
      9          8           0        4.032636   -0.024198   -0.002200
     10          8           0        2.318353    1.408568    0.127007
     11          1           0       -4.004131   -0.803771   -0.628550
     12          1           0       -2.868051   -2.173105   -0.651059
     13          1           0       -3.172272   -1.308255    0.864085
     14          1           0       -1.792183   -0.117994   -1.610828
     15          1           0       -2.300253    1.202376    1.354841
     16          1           0        0.401162   -0.376595   -1.641031
     17          1           0        1.683060   -1.430204    0.798956
     18          1           0        2.267080   -1.714356   -0.849756
     19          1           0        1.346054    1.346435    0.050111
 ---------------------------------------------------------------------
 Rotational constants (GHZ):           2.2489375           0.5527476           0.4831977
 Leave Link  202 at Fri Mar 14 15:13:38 2025, MaxMem=  8589934592 cpu:               0.8 elap:               0.4
 (Enter /home/enzo/gaussian_versions/gdv.j21/gdv/l301.exe)
 Standard basis: 6-31G(d) (6D, 7F)
 Ernie: Thresh=  0.10000D-02 Tol=  0.10000D-05 Strict=F.
 There are   172 symmetry adapted cartesian basis functions of A   symmetry.
 There are   172 symmetry adapted basis functions of A   symmetry.
   172 basis functions,   340 primitive gaussians,   172 cartesian basis functions
    43 alpha electrons       43 beta electrons
       nuclear repulsion energy       620.4964443427 Hartrees.
 IExCor=      4002 DFT=T Ex+Corr=B3LYP ScaHFX=  0.200000
 ScaDFX=  0.800000  0.720000  1.000000  0.810000  1.000000  0.000000
 ScaDFX=  0.000000  0.000000  0.000000  0.000000  0.000000  0.000000
 IRadAn=      5 IRanWt=     -1 IRanGd=            0 ICorTp=0 IEmpDi=  4
 NAtoms=   19 NActive=   19 NUniq=   19 SFac= 1.00D+00 NAtFMM=   60 NAOKFM=F Big=F
 Integral buffers will be    131072 words long.
 Raffenetti 2 integral format.
 Two-electron integral symmetry is turned on.
 Leave Link  301 at Fri Mar 14 15:13:38 2025, MaxMem=  8589934592 cpu:               0.6 elap:               0.3
 (Enter /home/enzo/gaussian_versions/gdv.j21/gdv/l302.exe)
 NPDir=0 NMtPBC=     1 NCelOv=     1 NCel=       1 NClECP=     1 NCelD=      1
         NCelK=      1 NCelE2=     1 NClLst=     1 CellRange=     0.0.
 One-electron integrals computed using PRISM.
 One-electron integral symmetry used in STVInt
 NBasis=   172 RedAO= T EigKep=  2.68D-03  NBF=   172
 NBsUse=   172 1.00D-06 EigRej= -1.00D+00 NBFU=   172
 Precomputing XC quadrature grid using
 IXCGrd= 4 IRadAn=           5 IRanWt=          -1 IRanGd=           0 AccXCQ= 0.00D+00.
 Generated NRdTot=       0 NPtTot=      406309 NUsed=           0 NTot=          64
 NSgBfM=   171   171   171   171   171 MxSgAt=    19 MxSgA2=    19 SizInc=   0.000
 NMBTot=     3439 MaxBatPerAtom=       85 MaxMicBPerAtom=      195 NBfPt=            51393456.
 Leave Link  302 at Fri Mar 14 15:13:39 2025, MaxMem=  8589934592 cpu:               5.2 elap:               1.0
 (Enter /home/enzo/gaussian_versions/gdv.j21/gdv/l303.exe)
 DipDrv:  MaxL=1.
 Leave Link  303 at Fri Mar 14 15:13:40 2025, MaxMem=  8589934592 cpu:               0.7 elap:               0.3
 (Enter /home/enzo/gaussian_versions/gdv.j21/gdv/l401.exe)
 Initial guess from the checkpoint file:  "/local/home/enzo/scratch/Gau-2337715.chk"
 B after Tr=     0.000000   -0.000000   -0.000000
         Rot=    0.999995   -0.002989    0.001248   -0.000645 Ang=  -0.38 deg.
 AO Guess basis will be translated and rotated to current coordinates.
 JPrj=2 DoOrth=T DoCkMO=T.
 Generating alternative initial guess.
 ExpMin= 1.17D-01 ExpMax= 2.19D+04 ExpMxC= 3.30D+03 IAcc=3 IRadAn=         5 AccDes= 0.00D+00
 Harris functional with IExCor= 4002 and IRadAn=       5 diagonalized for initial guess.
 HarFok:  IExCor=    4002 AccDes= 0.00D+00 IRadAn=         5 IDoV= 1 UseB2=F ITyADJ=14 ICtDFT=  3500011
 FoFCou: FMM=F IPFlag=           0 FMFlag=      100000 FMFlg1=           0
         NFxFlg=           0 DoJE=T BraDBF=F KetDBF=T FulRan=T
         wScrn=  0.000000 ICntrl=       500 IOpCl=  0 I1Cent=   200000004 NGrid=           0
         NMat0=    1 NMatS0=      1 NMatT0=    0 NMatD0=    1 NMtDS0=    0 NMtDT0=    0
 Petite list used in FoFCou.
 Harris En= -874.549117743700    
 Leave Link  401 at Fri Mar 14 15:13:41 2025, MaxMem=  8589934592 cpu:               6.5 elap:               1.0
 (Enter /home/enzo/gaussian_versions/gdv.j21/gdv/l502.exe)
 Integral symmetry usage will be decided dynamically.
 Closed shell SCF:
 Using DIIS extrapolation, IDIIS=  1040.
 NGot=  8589934592 LenX=  8589843591 LenY=  8589813566
 Requested convergence on RMS density matrix=1.00D-08 within 128 cycles.
 Requested convergence on MAX density matrix=1.00D-06.
 Requested convergence on             energy=1.00D-06.
 No special actions if energy rises.
 Fock matrices will be formed incrementally for  20 cycles.
 Integral accuracy reduced to 1.0D-05 until final iterations.

 Cycle   1  Pass 0  IDiag  1:
 FoFJK:  IHMeth= 1 ICntrl=       0 DoSepK=F KAlg= 0 I1Cent=           0 FoldK=F
 IRaf= 900000000 NMat=       1 IRICut=       1 DoRegI=T DoRafI=F ISym2E= 0 IDoP0=0 IntGTp=1.
 FoFCou: FMM=F IPFlag=           0 FMFlag=      100000 FMFlg1=           0
         NFxFlg=           0 DoJE=F BraDBF=F KetDBF=F FulRan=T
         wScrn=  0.000000 ICntrl=         0 IOpCl=  0 I1Cent=           0 NGrid=           0
         NMat0=    1 NMatS0=      1 NMatT0=    0 NMatD0=    1 NMtDS0=    0 NMtDT0=    0
 Symmetry not used in FoFCou.
 E= -874.572219532075    
 DIIS: error= 3.85D-03 at cycle   1 NSaved=   1.
 NSaved= 1 IEnMin= 1 EnMin= -874.572219532075     IErMin= 1 ErrMin= 3.85D-03
 ErrMax= 3.85D-03  0.00D+00 EMaxC= 1.00D-01 BMatC= 4.45D-03 BMatP= 4.45D-03
 IDIUse=3 WtCom= 9.62D-01 WtEn= 3.85D-02
 Coeff-Com:  0.100D+01
 Coeff-En:   0.100D+01
 Coeff:      0.100D+01
 Gap=     1.532 Goal=   None    Shift=    0.000
 GapD=    1.532 DampG=2.000 DampE=1.000 DampFc=2.0000 IDamp=-1.
 RMSDP=7.82D-04 MaxDP=2.29D-02              OVMax= 2.47D-02

 Cycle   2  Pass 0  IDiag  1:
 RMSU=  7.81D-04    CP:  9.99D-01
 E= -874.580437870631     Delta-E=       -0.008218338556 Rises=F Damp=F
 DIIS: error= 5.81D-04 at cycle   2 NSaved=   2.
 NSaved= 2 IEnMin= 2 EnMin= -874.580437870631     IErMin= 2 ErrMin= 5.81D-04
 ErrMax= 5.81D-04  0.00D+00 EMaxC= 1.00D-01 BMatC= 8.63D-05 BMatP= 4.45D-03
 IDIUse=3 WtCom= 9.94D-01 WtEn= 5.81D-03
 Coeff-Com: -0.624D-01 0.106D+01
 Coeff-En:   0.000D+00 0.100D+01
 Coeff:     -0.621D-01 0.106D+01
 Gap=     0.229 Goal=   None    Shift=    0.000
 RMSDP=1.33D-04 MaxDP=2.52D-03 DE=-8.22D-03 OVMax= 5.07D-03

 Cycle   3  Pass 0  IDiag  1:
 RMSU=  1.23D-04    CP:  9.99D-01  1.06D+00
 E= -874.580486636860     Delta-E=       -0.000048766229 Rises=F Damp=F
 DIIS: error= 4.98D-04 at cycle   3 NSaved=   3.
 NSaved= 3 IEnMin= 3 EnMin= -874.580486636860     IErMin= 3 ErrMin= 4.98D-04
 ErrMax= 4.98D-04  0.00D+00 EMaxC= 1.00D-01 BMatC= 1.11D-04 BMatP= 8.63D-05
 IDIUse=3 WtCom= 3.09D-01 WtEn= 6.91D-01
 Coeff-Com: -0.467D-01 0.607D+00 0.440D+00
 Coeff-En:   0.000D+00 0.299D+00 0.701D+00
 Coeff:     -0.144D-01 0.394D+00 0.620D+00
 Gap=     0.228 Goal=   None    Shift=    0.000
 RMSDP=1.04D-04 MaxDP=3.43D-03 DE=-4.88D-05 OVMax= 5.59D-03

 Cycle   4  Pass 0  IDiag  1:
 RMSU=  6.52D-05    CP:  9.99D-01  1.08D+00  3.50D-01
 E= -874.580510119606     Delta-E=       -0.000023482746 Rises=F Damp=F
 DIIS: error= 5.54D-04 at cycle   4 NSaved=   4.
 NSaved= 4 IEnMin= 4 EnMin= -874.580510119606     IErMin= 3 ErrMin= 4.98D-04
 ErrMax= 5.54D-04  0.00D+00 EMaxC= 1.00D-01 BMatC= 8.77D-05 BMatP= 8.63D-05
 IDIUse=3 WtCom= 9.94D-01 WtEn= 5.54D-03
 Coeff-Com: -0.180D-01 0.195D+00 0.439D+00 0.384D+00
 Coeff-En:   0.000D+00 0.000D+00 0.442D+00 0.558D+00
 Coeff:     -0.179D-01 0.194D+00 0.439D+00 0.385D+00
 Gap=     0.228 Goal=   None    Shift=    0.000
 RMSDP=4.98D-05 MaxDP=1.96D-03 DE=-2.35D-05 OVMax= 2.88D-03

 Cycle   5  Pass 0  IDiag  1:
 RMSU=  1.56D-05    CP:  9.99D-01  1.08D+00  6.23D-01  4.94D-01
 E= -874.580576959676     Delta-E=       -0.000066840071 Rises=F Damp=F
 DIIS: error= 7.13D-05 at cycle   5 NSaved=   5.
 NSaved= 5 IEnMin= 5 EnMin= -874.580576959676     IErMin= 5 ErrMin= 7.13D-05
 ErrMax= 7.13D-05  0.00D+00 EMaxC= 1.00D-01 BMatC= 1.61D-06 BMatP= 8.63D-05
 IDIUse=1 WtCom= 1.00D+00 WtEn= 0.00D+00
 Coeff-Com: -0.453D-02 0.387D-01 0.206D+00 0.224D+00 0.536D+00
 Coeff:     -0.453D-02 0.387D-01 0.206D+00 0.224D+00 0.536D+00
 Gap=     0.229 Goal=   None    Shift=    0.000
 RMSDP=7.36D-06 MaxDP=2.39D-04 DE=-6.68D-05 OVMax= 2.80D-04

 Initial convergence to 1.0D-05 achieved.  Increase integral accuracy.
 Cycle   6  Pass 1  IDiag  1:
 E= -874.580576814936     Delta-E=        0.000000144741 Rises=F Damp=F
 DIIS: error= 1.97D-05 at cycle   1 NSaved=   1.
 NSaved= 1 IEnMin= 1 EnMin= -874.580576814936     IErMin= 1 ErrMin= 1.97D-05
 ErrMax= 1.97D-05  0.00D+00 EMaxC= 1.00D-01 BMatC= 1.77D-07 BMatP= 1.77D-07
 IDIUse=1 WtCom= 1.00D+00 WtEn= 0.00D+00
 Coeff-Com:  0.100D+01
 Coeff:      0.100D+01
 Gap=     0.228 Goal=   None    Shift=    0.000
 RMSDP=7.36D-06 MaxDP=2.39D-04 DE= 1.45D-07 OVMax= 2.54D-04

 Cycle   7  Pass 1  IDiag  1:
 RMSU=  7.22D-06    CP:  1.00D+00
 E= -874.580576564570     Delta-E=        0.000000250366 Rises=F Damp=F
 DIIS: error= 3.64D-05 at cycle   2 NSaved=   2.
 NSaved= 2 IEnMin= 1 EnMin= -874.580576814936     IErMin= 1 ErrMin= 1.97D-05
 ErrMax= 3.64D-05  0.00D+00 EMaxC= 1.00D-01 BMatC= 5.37D-07 BMatP= 1.77D-07
 IDIUse=1 WtCom= 1.00D+00 WtEn= 0.00D+00
 Coeff-Com:  0.643D+00 0.357D+00
 Coeff:      0.643D+00 0.357D+00
 Gap=     0.228 Goal=   None    Shift=    0.000
 RMSDP=3.91D-06 MaxDP=1.31D-04 DE= 2.50D-07 OVMax= 1.95D-04

 Cycle   8  Pass 1  IDiag  1:
 RMSU=  2.54D-06    CP:  1.00D+00  5.92D-01
 E= -874.580576967473     Delta-E=       -0.000000402903 Rises=F Damp=F
 DIIS: error= 7.36D-06 at cycle   3 NSaved=   3.
 NSaved= 3 IEnMin= 3 EnMin= -874.580576967473     IErMin= 3 ErrMin= 7.36D-06
 ErrMax= 7.36D-06  0.00D+00 EMaxC= 1.00D-01 BMatC= 1.36D-08 BMatP= 1.77D-07
 IDIUse=1 WtCom= 1.00D+00 WtEn= 0.00D+00
 Coeff-Com:  0.254D+00 0.182D+00 0.564D+00
 Coeff:      0.254D+00 0.182D+00 0.564D+00
 Gap=     0.228 Goal=   None    Shift=    0.000
 RMSDP=8.73D-07 MaxDP=2.99D-05 DE=-4.03D-07 OVMax= 4.51D-05

 Cycle   9  Pass 1  IDiag  1:
 RMSU=  7.17D-07    CP:  1.00D+00  6.32D-01  8.42D-01
 E= -874.580576975519     Delta-E=       -0.000000008045 Rises=F Damp=F
 DIIS: error= 2.81D-06 at cycle   4 NSaved=   4.
 NSaved= 4 IEnMin= 4 EnMin= -874.580576975519     IErMin= 4 ErrMin= 2.81D-06
 ErrMax= 2.81D-06  0.00D+00 EMaxC= 1.00D-01 BMatC= 3.90D-09 BMatP= 1.36D-08
 IDIUse=1 WtCom= 1.00D+00 WtEn= 0.00D+00
 Coeff-Com:  0.374D-01 0.476D-01 0.370D+00 0.545D+00
 Coeff:      0.374D-01 0.476D-01 0.370D+00 0.545D+00
 Gap=     0.228 Goal=   None    Shift=    0.000
 RMSDP=3.45D-07 MaxDP=1.17D-05 DE=-8.05D-09 OVMax= 1.68D-05

 Cycle  10  Pass 1  IDiag  1:
 RMSU=  2.32D-07    CP:  1.00D+00  6.25D-01  9.05D-01  7.35D-01
 E= -874.580576978488     Delta-E=       -0.000000002970 Rises=F Damp=F
 DIIS: error= 7.49D-07 at cycle   5 NSaved=   5.
 NSaved= 5 IEnMin= 5 EnMin= -874.580576978488     IErMin= 5 ErrMin= 7.49D-07
 ErrMax= 7.49D-07  0.00D+00 EMaxC= 1.00D-01 BMatC= 1.59D-10 BMatP= 3.90D-09
 IDIUse=1 WtCom= 1.00D+00 WtEn= 0.00D+00
 Coeff-Com: -0.122D-01 0.161D-02 0.999D-01 0.242D+00 0.668D+00
 Coeff:     -0.122D-01 0.161D-02 0.999D-01 0.242D+00 0.668D+00
 Gap=     0.228 Goal=   None    Shift=    0.000
 RMSDP=9.73D-08 MaxDP=2.09D-06 DE=-2.97D-09 OVMax= 3.72D-06

 Cycle  11  Pass 1  IDiag  1:
 RMSU=  7.11D-08    CP:  1.00D+00  6.32D-01  9.12D-01  7.54D-01  8.21D-01
 E= -874.580576978623     Delta-E=       -0.000000000134 Rises=F Damp=F
 DIIS: error= 1.67D-07 at cycle   6 NSaved=   6.
 NSaved= 6 IEnMin= 6 EnMin= -874.580576978623     IErMin= 6 ErrMin= 1.67D-07
 ErrMax= 1.67D-07  0.00D+00 EMaxC= 1.00D-01 BMatC= 9.28D-12 BMatP= 1.59D-10
 IDIUse=1 WtCom= 1.00D+00 WtEn= 0.00D+00
 Coeff-Com: -0.722D-02-0.166D-02 0.246D-01 0.768D-01 0.276D+00 0.632D+00
 Coeff:     -0.722D-02-0.166D-02 0.246D-01 0.768D-01 0.276D+00 0.632D+00
 Gap=     0.228 Goal=   None    Shift=    0.000
 RMSDP=2.53D-08 MaxDP=8.37D-07 DE=-1.34D-10 OVMax= 1.32D-06

 Cycle  12  Pass 1  IDiag  1:
 RMSU=  2.32D-08    CP:  1.00D+00  6.32D-01  9.13D-01  7.56D-01  8.51D-01
                    CP:  1.03D+00
 E= -874.580576978638     Delta-E=       -0.000000000015 Rises=F Damp=F
 DIIS: error= 1.09D-07 at cycle   7 NSaved=   7.
 NSaved= 7 IEnMin= 7 EnMin= -874.580576978638     IErMin= 7 ErrMin= 1.09D-07
 ErrMax= 1.09D-07  0.00D+00 EMaxC= 1.00D-01 BMatC= 4.06D-12 BMatP= 9.28D-12
 IDIUse=1 WtCom= 1.00D+00 WtEn= 0.00D+00
 Coeff-Com: -0.195D-02-0.142D-02-0.589D-02-0.493D-02 0.206D-01 0.408D+00
 Coeff-Com:  0.585D+00
 Coeff:     -0.195D-02-0.142D-02-0.589D-02-0.493D-02 0.206D-01 0.408D+00
 Coeff:      0.585D+00
 Gap=     0.228 Goal=   None    Shift=    0.000
 RMSDP=1.36D-08 MaxDP=5.87D-07 DE=-1.55D-11 OVMax= 8.44D-07

 Cycle  13  Pass 1  IDiag  1:
 RMSU=  8.86D-09    CP:  1.00D+00  6.32D-01  9.14D-01  7.60D-01  8.71D-01
                    CP:  1.10D+00  6.95D-01
 E= -874.580576978642     Delta-E=       -0.000000000004 Rises=F Damp=F
 DIIS: error= 4.37D-08 at cycle   8 NSaved=   8.
 NSaved= 8 IEnMin= 8 EnMin= -874.580576978642     IErMin= 8 ErrMin= 4.37D-08
 ErrMax= 4.37D-08  0.00D+00 EMaxC= 1.00D-01 BMatC= 6.29D-13 BMatP= 4.06D-12
 IDIUse=1 WtCom= 1.00D+00 WtEn= 0.00D+00
 Coeff-Com: -0.177D-03-0.619D-03-0.688D-02-0.133D-01-0.246D-01 0.164D+00
 Coeff-Com:  0.359D+00 0.522D+00
 Coeff:     -0.177D-03-0.619D-03-0.688D-02-0.133D-01-0.246D-01 0.164D+00
 Coeff:      0.359D+00 0.522D+00
 Gap=     0.228 Goal=   None    Shift=    0.000
 RMSDP=5.34D-09 MaxDP=1.69D-07 DE=-4.09D-12 OVMax= 2.84D-07

 SCF Done:  E(RB3LYP) =  -874.580576979     A.U. after   13 cycles
            NFock= 13  Conv=0.53D-08     -V/T= 2.0064
 KE= 8.690077608244D+02 PE=-3.300072667912D+03 EE= 9.359878857663D+02
 Leave Link  502 at Fri Mar 14 15:13:51 2025, MaxMem=  8589934592 cpu:              85.0 elap:              10.8
 (Enter /home/enzo/gaussian_versions/gdv.j21/gdv/l701.exe)
 ... and contract with generalized density number  0.
 Compute integral first derivatives.
 Leave Link  701 at Fri Mar 14 15:13:52 2025, MaxMem=  8589934592 cpu:               1.8 elap:               0.6
 (Enter /home/enzo/gaussian_versions/gdv.j21/gdv/l702.exe)
 L702 exits ... SP integral derivatives will be done elsewhere.
 Leave Link  702 at Fri Mar 14 15:13:52 2025, MaxMem=  8589934592 cpu:               0.1 elap:               0.3
 (Enter /home/enzo/gaussian_versions/gdv.j21/gdv/l703.exe)
 Integral derivatives from FoFJK, PRISM(SPDF).
 Compute integral first derivatives, UseDBF=F ICtDFT=           0.
 Calling FoFJK, ICntrl=      2127 FMM=F ISym2X=0 I1Cent= 0 IOpClX= 0 NMat=1 NMatS=1 NMatT=0.
 FoFJK:  IHMeth= 1 ICntrl=    2127 DoSepK=F KAlg= 0 I1Cent=           0 FoldK=F
 IRaf=         0 NMat=       1 IRICut=       1 DoRegI=T DoRafI=F ISym2E= 0 IDoP0=0 IntGTp=1.
 FoFCou: FMM=F IPFlag=           0 FMFlag=      100000 FMFlg1=         800
         NFxFlg=           0 DoJE=F BraDBF=F KetDBF=F FulRan=T
         wScrn=  0.000000 ICntrl=      2127 IOpCl=  0 I1Cent=           0 NGrid=           0
         NMat0=    1 NMatS0=      1 NMatT0=    0 NMatD0=    1 NMtDS0=    0 NMtDT0=    0
 Symmetry not used in FoFCou.
 Leave Link  703 at Fri Mar 14 15:13:55 2025, MaxMem=  8589934592 cpu:              15.1 elap:               2.3
 (Enter /home/enzo/gaussian_versions/gdv.j21/gdv/l716.exe)
 Dipole        =-1.60543259D+00-6.57011100D-01-1.14716258D+00
 ***** Axes restored to original set *****
 -------------------------------------------------------------------
 Center     Atomic                   Forces (Hartrees/Bohr)
 Number     Number              X              Y              Z
 -------------------------------------------------------------------
      1        6           0.000312164   -0.000221977   -0.000122599
      2        6          -0.000000400    0.000298195   -0.000049648
      3       16          -0.000096894   -0.000004200   -0.000179277
      4        6          -0.000992631   -0.000669267    0.000560382
      5        8           0.000154525    0.000373437   -0.000042393
      6        7           0.001297942    0.001903829   -0.000258172
      7        6           0.000064281   -0.000357009   -0.000846843
      8        6          -0.000469684   -0.000041817    0.001642409
      9        8           0.000537286   -0.000245315   -0.000394272
     10        8           0.000072782    0.000583352   -0.000796751
     11        1          -0.000023518   -0.000017530    0.000003291
     12        1          -0.000090497   -0.000114343    0.000136967
     13        1          -0.000081730    0.000112443   -0.000009676
     14        1           0.000111275    0.000068906   -0.000038261
     15        1          -0.000140640   -0.000029293   -0.000055751
     16        1          -0.000398463   -0.001038593    0.000597668
     17        1           0.000031782   -0.000345869   -0.000287628
     18        1           0.000037657   -0.000115607    0.000090781
     19        1          -0.000325237   -0.000139339    0.000049773
 -------------------------------------------------------------------
 Cartesian Forces:  Max     0.001903829 RMS     0.000511064
 Leave Link  716 at Fri Mar 14 15:13:55 2025, MaxMem=  8589934592 cpu:               0.1 elap:               0.3
 (Enter /home/enzo/gaussian_versions/gdv.j21/gdv/l103.exe)

 GradGradGradGradGradGradGradGradGradGradGradGradGradGradGradGradGradGrad
 Berny optimization.
 Using GEDIIS/GDIIS optimizer.
 FormGI is forming the generalized inverse of G from B-inverse, IUseBI=4.
 GSVD:  received Info=                   1 from GESDD.
 Internal  Forces:  Max     0.000714784 RMS     0.000260390
 Search for a local minimum.
 Step number   9 out of a maximum of   93
 All quantities printed in internal units (Hartrees-Bohrs-Radians)
 RMS Force = .26039D-03 SwitMx=.10000D-02 MixMth= 2
 Mixed Optimization -- En-DIIS/RFO-DIIS
 Update second derivatives using D2CorX and points    8    9
 DE= -8.25D-04 DEPred=-7.80D-04 R= 1.06D+00
 TightC=F SS=  1.41D+00  RLast= 2.79D-01 DXNew= 2.3056D+00 8.3749D-01
 Trust test= 1.06D+00 RLast= 2.79D-01 DXMaxT set to 1.37D+00
 ITU=  1 -1  1  1  1  1  1  1  0
 Use linear search instead of GDIIS.
     Eigenvalues ---    0.00167   0.00285   0.00450   0.00712   0.00898
     Eigenvalues ---    0.01093   0.01277   0.01951   0.03800   0.04257
     Eigenvalues ---    0.04754   0.04993   0.05276   0.05663   0.05739
     Eigenvalues ---    0.06714   0.08122   0.10300   0.13844   0.15217
     Eigenvalues ---    0.15961   0.15998   0.16017   0.16067   0.16925
     Eigenvalues ---    0.17847   0.19962   0.21278   0.22101   0.22384
     Eigenvalues ---    0.23741   0.24641   0.24910   0.26287   0.26900
     Eigenvalues ---    0.30018   0.31895   0.32572   0.32590   0.32600
     Eigenvalues ---    0.32627   0.32647   0.32786   0.33523   0.37161
     Eigenvalues ---    0.40642   0.41973   0.46518   0.49626   0.79703
     Eigenvalues ---    0.80921
 RFO step:  Lambda=-2.34734173D-04 EMin= 1.66811935D-03
 Quartic linear search produced a step of  0.09433.
 Iteration  1 RMS(Cart)=  0.05139423 RMS(Int)=  0.00077107
 Iteration  2 RMS(Cart)=  0.00129662 RMS(Int)=  0.00010644
 Iteration  3 RMS(Cart)=  0.00000070 RMS(Int)=  0.00010644
 Variable       Old X    -DE/DX   Delta X   Delta X   Delta X     New X
                                 (Linear)    (Quad)   (Total)
    R1        2.88685  -0.00008   0.00021  -0.00094  -0.00073   2.88612
    R2        2.06530  -0.00002  -0.00006   0.00004  -0.00002   2.06528
    R3        2.07325  -0.00012  -0.00004  -0.00041  -0.00045   2.07280
    R4        2.06552  -0.00002  -0.00000   0.00004   0.00004   2.06556
    R5        3.50983  -0.00010   0.00013   0.00022   0.00035   3.51018
    R6        2.89074   0.00015   0.00045  -0.00057  -0.00012   2.89062
    R7        2.07121  -0.00000   0.00004   0.00027   0.00031   2.07152
    R8        2.55281  -0.00009   0.00005  -0.00003   0.00002   2.55283
    R9        2.30764   0.00010  -0.00006   0.00042   0.00036   2.30800
   R10        2.61000  -0.00071  -0.00050  -0.00075  -0.00125   2.60875
   R11        2.74988  -0.00036   0.00031  -0.00116  -0.00086   2.74903
   R12        1.91279  -0.00043  -0.00017  -0.00094  -0.00111   1.91168
   R13        2.90055   0.00008   0.00060   0.00101   0.00161   2.90216
   R14        2.06996  -0.00039  -0.00001  -0.00120  -0.00121   2.06875
   R15        2.06656  -0.00014  -0.00009  -0.00063  -0.00072   2.06583
   R16        2.27769  -0.00062  -0.00011  -0.00012  -0.00023   2.27747
   R17        2.54955  -0.00053   0.00057  -0.00144  -0.00087   2.54868
   R18        1.84685  -0.00034   0.00002  -0.00041  -0.00039   1.84646
    A1        1.92832   0.00002  -0.00010   0.00054   0.00044   1.92875
    A2        1.92613  -0.00017  -0.00012  -0.00193  -0.00205   1.92408
    A3        1.92250   0.00005   0.00011   0.00069   0.00080   1.92330
    A4        1.89686   0.00010   0.00015   0.00087   0.00101   1.89787
    A5        1.90571   0.00003  -0.00002   0.00126   0.00123   1.90695
    A6        1.88350  -0.00004  -0.00000  -0.00144  -0.00144   1.88205
    A7        1.97351   0.00015   0.00011   0.00061   0.00072   1.97422
    A8        1.94628   0.00013  -0.00033   0.00285   0.00252   1.94880
    A9        1.92800  -0.00007  -0.00014  -0.00031  -0.00046   1.92754
   A10        1.87724  -0.00017   0.00050  -0.00233  -0.00183   1.87541
   A11        1.80160  -0.00011   0.00023  -0.00187  -0.00164   1.79997
   A12        1.93182   0.00005  -0.00032   0.00067   0.00035   1.93217
   A13        1.66270  -0.00006   0.00052   0.00102   0.00154   1.66424
   A14        2.12699   0.00010   0.00075   0.00003   0.00078   2.12777
   A15        2.01406  -0.00050  -0.00034  -0.00223  -0.00258   2.01148
   A16        2.14022   0.00041  -0.00024   0.00203   0.00178   2.14201
   A17        2.12346   0.00001  -0.00035   0.00338   0.00252   2.12598
   A18        2.05604   0.00041   0.00094   0.00763   0.00805   2.06410
   A19        2.05691  -0.00025   0.00084   0.00410   0.00441   2.06132
   A20        1.98501   0.00019  -0.00096   0.00360   0.00265   1.98766
   A21        1.86811  -0.00035   0.00107  -0.00209  -0.00102   1.86709
   A22        1.94882   0.00022  -0.00045  -0.00025  -0.00070   1.94812
   A23        1.88912  -0.00003  -0.00047  -0.00175  -0.00222   1.88690
   A24        1.88305  -0.00015   0.00113  -0.00078   0.00035   1.88340
   A25        1.88671   0.00011  -0.00033   0.00116   0.00083   1.88753
   A26        2.12933   0.00033   0.00086  -0.00131  -0.00065   2.12868
   A27        2.01962  -0.00028   0.00028   0.00194   0.00203   2.02165
   A28        2.13359  -0.00004  -0.00043  -0.00027  -0.00089   2.13270
   A29        1.89733   0.00015   0.00080   0.00359   0.00439   1.90172
    D1        0.95254  -0.00001   0.00050  -0.00152  -0.00102   0.95152
    D2        3.07063  -0.00003   0.00098  -0.00202  -0.00103   3.06959
    D3       -1.05655   0.00008   0.00023   0.00065   0.00088  -1.05567
    D4        3.05081   0.00002   0.00053  -0.00134  -0.00081   3.05000
    D5       -1.11429   0.00000   0.00102  -0.00184  -0.00082  -1.11511
    D6        1.04172   0.00011   0.00027   0.00083   0.00109   1.04281
    D7       -1.15442  -0.00009   0.00052  -0.00389  -0.00337  -1.15779
    D8        0.96367  -0.00011   0.00101  -0.00439  -0.00338   0.96028
    D9        3.11968  -0.00000   0.00025  -0.00173  -0.00147   3.11820
   D10        1.10946   0.00018  -0.00060   0.02929   0.02869   1.13815
   D11       -1.04715   0.00004  -0.00061   0.02694   0.02633  -1.02082
   D12       -3.09025   0.00010  -0.00057   0.02806   0.02749  -3.06276
   D13       -0.75789   0.00023  -0.00119   0.05484   0.05366  -0.70423
   D14        2.44844   0.00022  -0.00361   0.05755   0.05394   2.50238
   D15        1.41525   0.00038  -0.00092   0.05585   0.05493   1.47018
   D16       -1.66161   0.00037  -0.00334   0.05856   0.05522  -1.60639
   D17       -2.91172   0.00018  -0.00053   0.05273   0.05220  -2.85953
   D18        0.29460   0.00018  -0.00295   0.05544   0.05248   0.34709
   D19       -3.10167  -0.00023  -0.00072  -0.02904  -0.02982  -3.13149
   D20       -0.29091   0.00030   0.00400   0.02358   0.02763  -0.26327
   D21        0.10520  -0.00022  -0.00322  -0.02622  -0.02949   0.07572
   D22        2.91596   0.00031   0.00150   0.02640   0.02796   2.94393
   D23       -2.05170   0.00032  -0.00386   0.03919   0.03533  -2.01637
   D24        0.03381   0.00016  -0.00430   0.03774   0.03345   0.06726
   D25        2.09538   0.00020  -0.00429   0.03772   0.03343   2.12881
   D26        1.42088  -0.00033  -0.00861  -0.01409  -0.02270   1.39819
   D27       -2.77679  -0.00049  -0.00904  -0.01554  -0.02458  -2.80137
   D28       -0.71523  -0.00045  -0.00903  -0.01556  -0.02459  -0.73982
   D29       -2.79014  -0.00013   0.00881  -0.03357  -0.02475  -2.81488
   D30        0.38909  -0.00068  -0.00017  -0.04384  -0.04402   0.34507
   D31        1.41951   0.00021   0.00838  -0.03197  -0.02357   1.39594
   D32       -1.68444  -0.00034  -0.00060  -0.04224  -0.04285  -1.72729
   D33       -0.61818   0.00018   0.00842  -0.03199  -0.02356  -0.64174
   D34        2.56105  -0.00037  -0.00056  -0.04226  -0.04283   2.51821
   D35       -0.06423   0.00023   0.01019   0.00039   0.01055  -0.05368
   D36        3.11509  -0.00032   0.00108  -0.00989  -0.00878   3.10631
         Item               Value     Threshold  Converged?
 Maximum Force            0.000715     0.000450     NO 
 RMS     Force            0.000260     0.000300     YES
 Maximum Displacement     0.200529     0.001800     NO 
 RMS     Displacement     0.051403     0.001200     NO 
 Predicted change in Energy=-1.296985D-04
 Lowest energy point so far.  Saving SCF results.
 GradGradGradGradGradGradGradGradGradGradGradGradGradGradGradGradGradGrad

 Leave Link  103 at Fri Mar 14 15:13:56 2025, MaxMem=  8589934592 cpu:               1.4 elap:               0.4
 (Enter /home/enzo/gaussian_versions/gdv.j21/gdv/l202.exe)
                          Input orientation:                          
 ---------------------------------------------------------------------
 Center     Atomic      Atomic             Coordinates (Angstroms)
 Number     Number       Type             X           Y           Z
 ---------------------------------------------------------------------
      1          6           0        2.797649    1.324483   -0.787436
      2          6           0        1.671040    0.303267   -0.930347
      3         16           0        2.189886   -1.422637   -0.480477
      4          6           0        0.468468    0.663341   -0.056274
      5          8           0        0.601385    1.100061    1.076548
      6          7           0       -0.765554    0.384121   -0.608525
      7          6           0       -2.004637    0.680074    0.093832
      8          6           0       -2.826881   -0.565443    0.455973
      9          8           0       -3.998699   -0.498976    0.729643
     10          8           0       -2.150801   -1.732372    0.469765
     11          1           0        3.673200    1.011617   -1.361855
     12          1           0        2.469142    2.305467   -1.151987
     13          1           0        3.076444    1.434183    0.263748
     14          1           0        1.372006    0.207621   -1.980626
     15          1           0        2.414194   -1.150928    0.823667
     16          1           0       -0.814145    0.192845   -1.600703
     17          1           0       -1.731280    1.189523    1.023449
     18          1           0       -2.645955    1.349559   -0.485452
     19          1           0       -1.229616   -1.568925    0.187915
 ---------------------------------------------------------------------
                    Distance matrix (angstroms):
                    1          2          3          4          5
     1  C    0.000000
     2  C    1.527270   0.000000
     3  S    2.830242   1.857506   0.000000
     4  C    2.529188   1.529653   2.737615   0.000000
     5  O    2.889356   2.409704   3.363282   1.221342   0.000000
     6  N    3.689539   2.459084   3.466323   1.380490   2.284855
     7  C    4.924819   3.834257   4.727076   2.477712   2.816642
     8  C    6.062443   4.786213   5.174908   3.554100   3.861609
     9  O    7.198394   5.961971   6.373078   4.682331   4.882421
    10  O    5.950804   4.550890   4.454262   3.588415   3.995671
    11  H    1.092900   2.167165   2.983729   3.477951   3.922968
    12  H    1.096878   2.166771   3.798377   2.810669   3.147680
    13  H    1.093046   2.163330   3.082414   2.738275   2.626442
    14  H    2.168765   1.096200   2.361592   2.174211   3.276679
    15  H    2.978314   2.396566   1.350900   2.802092   2.901237
    16  H    3.871312   2.576376   3.590110   2.061970   3.161398
    17  H    4.879417   4.022256   4.945777   2.506303   2.334984
    18  H    5.452031   4.464203   5.574088   3.217875   3.612107
    19  H    5.053907   3.628969   3.487282   2.815338   3.356445
                    6          7          8          9         10
     6  N    0.000000
     7  C    1.454724   0.000000
     8  C    2.506770   1.535755   0.000000
     9  O    3.608848   2.402228   1.205185   0.000000
    10  O    2.749756   2.445932   1.348702   2.236857   0.000000
    11  H    4.545744   5.870841   6.931282   8.094089   6.693526
    12  H    3.801339   4.920230   6.235024   7.296465   6.346502
    13  H    4.077307   5.139546   6.235759   7.349273   6.115030
    14  H    2.546169   3.991028   4.915821   6.057170   4.709369
    15  H    3.810295   4.838522   5.286479   6.446634   4.615463
    16  H    1.011615   2.127466   2.975907   4.006309   3.127290
    17  H    2.060251   1.094737   2.145291   2.842277   3.003337
    18  H    2.117340   1.093193   2.141553   2.592962   3.264340
    19  H    2.159643   2.380653   1.905279   3.017629   0.977106
                   11         12         13         14         15
    11  H    0.000000
    12  H    1.779844   0.000000
    13  H    1.782489   1.769818   0.000000
    14  H    2.514911   2.508248   3.073561   0.000000
    15  H    3.322379   3.981569   2.726698   3.285707   0.000000
    16  H    4.567680   3.929948   4.489296   2.218968   4.255052
    17  H    5.910137   4.860185   4.873521   4.429332   4.764722
    18  H    6.388584   5.246165   5.771855   4.436618   5.794078
    19  H    5.753137   5.521509   5.250386   3.824542   3.722399
                   16         17         18         19
    16  H    0.000000
    17  H    2.953079   0.000000
    18  H    2.436658   1.771729   0.000000
    19  H    2.544721   2.925546   3.313155   0.000000
 Stoichiometry    C5H9NO3S
 Framework group  C1[X(C5H9NO3S)]
 Deg. of freedom    51
 Full point group                 C1      NOp   1
 RotChk:  IX=0 Diff= 2.74D-02
 Largest Abelian subgroup         C1      NOp   1
 Largest concise Abelian subgroup C1      NOp   1
                         Standard orientation:                         
 ---------------------------------------------------------------------
 Center     Atomic      Atomic             Coordinates (Angstroms)
 Number     Number       Type             X           Y           Z
 ---------------------------------------------------------------------
      1          6           0       -3.097324   -1.135186   -0.177652
      2          6           0       -1.923219   -0.220339   -0.519830
      3         16           0       -2.174467    1.531024    0.045793
      4          6           0       -0.618067   -0.720426    0.101726
      5          8           0       -0.575934   -1.179639    1.232666
      6          7           0        0.510093   -0.540557   -0.673294
      7          6           0        1.824637   -0.974641   -0.226343
      8          6           0        2.819413    0.175450   -0.011272
      9          8           0        4.009502   -0.009897    0.031202
     10          8           0        2.276670    1.399718    0.148713
     11          1           0       -4.030797   -0.722667   -0.568662
     12          1           0       -2.942358   -2.130229   -0.612411
     13          1           0       -3.180941   -1.252605    0.905848
     14          1           0       -1.821045   -0.118837   -1.606528
     15          1           0       -2.172816    1.238977    1.364746
     16          1           0        0.388080   -0.322248   -1.653508
     17          1           0        1.683836   -1.486343    0.731146
     18          1           0        2.275129   -1.682117   -0.927488
     19          1           0        1.307188    1.332987    0.046798
 ---------------------------------------------------------------------
 Rotational constants (GHZ):           2.2237103           0.5627490           0.4886056
 Leave Link  202 at Fri Mar 14 15:13:56 2025, MaxMem=  8589934592 cpu:               0.2 elap:               0.2
 (Enter /home/enzo/gaussian_versions/gdv.j21/gdv/l301.exe)
 Standard basis: 6-31G(d) (6D, 7F)
 Ernie: Thresh=  0.10000D-02 Tol=  0.10000D-05 Strict=F.
 There are   172 symmetry adapted cartesian basis functions of A   symmetry.
 There are   172 symmetry adapted basis functions of A   symmetry.
   172 basis functions,   340 primitive gaussians,   172 cartesian basis functions
    43 alpha electrons       43 beta electrons
       nuclear repulsion energy       621.7053177510 Hartrees.
 IExCor=      4002 DFT=T Ex+Corr=B3LYP ScaHFX=  0.200000
 ScaDFX=  0.800000  0.720000  1.000000  0.810000  1.000000  0.000000
 ScaDFX=  0.000000  0.000000  0.000000  0.000000  0.000000  0.000000
 IRadAn=      5 IRanWt=     -1 IRanGd=            0 ICorTp=0 IEmpDi=  4
 NAtoms=   19 NActive=   19 NUniq=   19 SFac= 1.00D+00 NAtFMM=   60 NAOKFM=F Big=F
 Integral buffers will be    131072 words long.
 Raffenetti 2 integral format.
 Two-electron integral symmetry is turned on.
 Leave Link  301 at Fri Mar 14 15:13:56 2025, MaxMem=  8589934592 cpu:               0.6 elap:               0.4
 (Enter /home/enzo/gaussian_versions/gdv.j21/gdv/l302.exe)
 NPDir=0 NMtPBC=     1 NCelOv=     1 NCel=       1 NClECP=     1 NCelD=      1
         NCelK=      1 NCelE2=     1 NClLst=     1 CellRange=     0.0.
 One-electron integrals computed using PRISM.
 One-electron integral symmetry used in STVInt
 NBasis=   172 RedAO= T EigKep=  2.70D-03  NBF=   172
 NBsUse=   172 1.00D-06 EigRej= -1.00D+00 NBFU=   172
 Precomputing XC quadrature grid using
 IXCGrd= 4 IRadAn=           5 IRanWt=          -1 IRanGd=           0 AccXCQ= 0.00D+00.
 Generated NRdTot=       0 NPtTot=      406342 NUsed=           0 NTot=          64
 NSgBfM=   171   171   171   171   171 MxSgAt=    19 MxSgA2=    19 SizInc=   0.000
 NMBTot=     3433 MaxBatPerAtom=       85 MaxMicBPerAtom=      194 NBfPt=            51544449.
 Leave Link  302 at Fri Mar 14 15:13:57 2025, MaxMem=  8589934592 cpu:               6.6 elap:               1.2
 (Enter /home/enzo/gaussian_versions/gdv.j21/gdv/l303.exe)
 DipDrv:  MaxL=1.
 Leave Link  303 at Fri Mar 14 15:13:58 2025, MaxMem=  8589934592 cpu:               0.2 elap:               0.2
 (Enter /home/enzo/gaussian_versions/gdv.j21/gdv/l401.exe)
 Initial guess from the checkpoint file:  "/local/home/enzo/scratch/Gau-2337715.chk"
 B after Tr=     0.000000   -0.000000    0.000000
         Rot=    0.999965   -0.007636   -0.000814    0.003313 Ang=  -0.96 deg.
 AO Guess basis will be translated and rotated to current coordinates.
 JPrj=2 DoOrth=T DoCkMO=T.
 Generating alternative initial guess.
 ExpMin= 1.17D-01 ExpMax= 2.19D+04 ExpMxC= 3.30D+03 IAcc=3 IRadAn=         5 AccDes= 0.00D+00
 Harris functional with IExCor= 4002 and IRadAn=       5 diagonalized for initial guess.
 HarFok:  IExCor=    4002 AccDes= 0.00D+00 IRadAn=         5 IDoV= 1 UseB2=F ITyADJ=14 ICtDFT=  3500011
 FoFCou: FMM=F IPFlag=           0 FMFlag=      100000 FMFlg1=           0
         NFxFlg=           0 DoJE=T BraDBF=F KetDBF=T FulRan=T
         wScrn=  0.000000 ICntrl=       500 IOpCl=  0 I1Cent=   200000004 NGrid=           0
         NMat0=    1 NMatS0=      1 NMatT0=    0 NMatD0=    1 NMtDS0=    0 NMtDT0=    0
 Petite list used in FoFCou.
 Harris En= -874.549487177700    
 Leave Link  401 at Fri Mar 14 15:13:59 2025, MaxMem=  8589934592 cpu:               7.3 elap:               1.1
 (Enter /home/enzo/gaussian_versions/gdv.j21/gdv/l502.exe)
 Integral symmetry usage will be decided dynamically.
 Closed shell SCF:
 Using DIIS extrapolation, IDIIS=  1040.
 NGot=  8589934592 LenX=  8589843591 LenY=  8589813566
 Requested convergence on RMS density matrix=1.00D-08 within 128 cycles.
 Requested convergence on MAX density matrix=1.00D-06.
 Requested convergence on             energy=1.00D-06.
 No special actions if energy rises.
 Fock matrices will be formed incrementally for  20 cycles.
 Integral accuracy reduced to 1.0D-05 until final iterations.

 Cycle   1  Pass 0  IDiag  1:
 FoFJK:  IHMeth= 1 ICntrl=       0 DoSepK=F KAlg= 0 I1Cent=           0 FoldK=F
 IRaf= 900000000 NMat=       1 IRICut=       1 DoRegI=T DoRafI=F ISym2E= 0 IDoP0=0 IntGTp=1.
 FoFCou: FMM=F IPFlag=           0 FMFlag=      100000 FMFlg1=           0
         NFxFlg=           0 DoJE=F BraDBF=F KetDBF=F FulRan=T
         wScrn=  0.000000 ICntrl=         0 IOpCl=  0 I1Cent=           0 NGrid=           0
         NMat0=    1 NMatS0=      1 NMatT0=    0 NMatD0=    1 NMtDS0=    0 NMtDT0=    0
 Symmetry not used in FoFCou.
 E= -874.577104935061    
 DIIS: error= 1.56D-03 at cycle   1 NSaved=   1.
 NSaved= 1 IEnMin= 1 EnMin= -874.577104935061     IErMin= 1 ErrMin= 1.56D-03
 ErrMax= 1.56D-03  0.00D+00 EMaxC= 1.00D-01 BMatC= 1.84D-03 BMatP= 1.84D-03
 IDIUse=3 WtCom= 9.84D-01 WtEn= 1.56D-02
 Coeff-Com:  0.100D+01
 Coeff-En:   0.100D+01
 Coeff:      0.100D+01
 Gap=     1.531 Goal=   None    Shift=    0.000
 GapD=    1.531 DampG=2.000 DampE=1.000 DampFc=2.0000 IDamp=-1.
 RMSDP=4.61D-04 MaxDP=9.38D-03              OVMax= 1.69D-02

 Cycle   2  Pass 0  IDiag  1:
 RMSU=  4.61D-04    CP:  1.00D+00
 E= -874.580714842126     Delta-E=       -0.003609907065 Rises=F Damp=F
 DIIS: error= 2.98D-04 at cycle   2 NSaved=   2.
 NSaved= 2 IEnMin= 2 EnMin= -874.580714842126     IErMin= 2 ErrMin= 2.98D-04
 ErrMax= 2.98D-04  0.00D+00 EMaxC= 1.00D-01 BMatC= 3.14D-05 BMatP= 1.84D-03
 IDIUse=3 WtCom= 9.97D-01 WtEn= 2.98D-03
 Coeff-Com: -0.578D-01 0.106D+01
 Coeff-En:   0.000D+00 0.100D+01
 Coeff:     -0.576D-01 0.106D+01
 Gap=     0.229 Goal=   None    Shift=    0.000
 RMSDP=9.50D-05 MaxDP=3.19D-03 DE=-3.61D-03 OVMax= 3.33D-03

 Cycle   3  Pass 0  IDiag  1:
 RMSU=  8.76D-05    CP:  1.00D+00  1.08D+00
 E= -874.580739194505     Delta-E=       -0.000024352379 Rises=F Damp=F
 DIIS: error= 3.12D-04 at cycle   3 NSaved=   3.
 NSaved= 3 IEnMin= 3 EnMin= -874.580739194505     IErMin= 2 ErrMin= 2.98D-04
 ErrMax= 3.12D-04  0.00D+00 EMaxC= 1.00D-01 BMatC= 3.80D-05 BMatP= 3.14D-05
 IDIUse=3 WtCom= 3.61D-01 WtEn= 6.39D-01
 Coeff-Com: -0.436D-01 0.595D+00 0.449D+00
 Coeff-En:   0.000D+00 0.217D+00 0.783D+00
 Coeff:     -0.158D-01 0.353D+00 0.662D+00
 Gap=     0.229 Goal=   None    Shift=    0.000
 RMSDP=7.06D-05 MaxDP=2.00D-03 DE=-2.44D-05 OVMax= 3.09D-03

 Cycle   4  Pass 0  IDiag  1:
 RMSU=  4.65D-05    CP:  1.00D+00  1.10D+00  4.13D-01
 E= -874.580736186229     Delta-E=        0.000003008276 Rises=F Damp=F
 DIIS: error= 3.74D-04 at cycle   4 NSaved=   4.
 NSaved= 4 IEnMin= 3 EnMin= -874.580739194505     IErMin= 2 ErrMin= 2.98D-04
 ErrMax= 3.74D-04  0.00D+00 EMaxC= 1.00D-01 BMatC= 4.54D-05 BMatP= 3.14D-05
 IDIUse=3 WtCom= 3.41D-01 WtEn= 6.59D-01
 Coeff-Com: -0.185D-01 0.206D+00 0.474D+00 0.339D+00
 Coeff-En:   0.000D+00 0.000D+00 0.517D+00 0.483D+00
 Coeff:     -0.632D-02 0.701D-01 0.503D+00 0.434D+00
 Gap=     0.229 Goal=   None    Shift=    0.000
 RMSDP=3.65D-05 MaxDP=1.19D-03 DE= 3.01D-06 OVMax= 1.81D-03

 Cycle   5  Pass 0  IDiag  1:
 RMSU=  1.42D-05    CP:  1.00D+00  1.10D+00  6.24D-01  4.02D-01
 E= -874.580770540265     Delta-E=       -0.000034354035 Rises=F Damp=F
 DIIS: error= 4.23D-05 at cycle   5 NSaved=   5.
 NSaved= 5 IEnMin= 5 EnMin= -874.580770540265     IErMin= 5 ErrMin= 4.23D-05
 ErrMax= 4.23D-05  0.00D+00 EMaxC= 1.00D-01 BMatC= 9.95D-07 BMatP= 3.14D-05
 IDIUse=1 WtCom= 1.00D+00 WtEn= 0.00D+00
 Coeff-Com: -0.382D-02 0.298D-01 0.234D+00 0.230D+00 0.510D+00
 Coeff:     -0.382D-02 0.298D-01 0.234D+00 0.230D+00 0.510D+00
 Gap=     0.229 Goal=   None    Shift=    0.000
 RMSDP=7.71D-06 MaxDP=2.05D-04 DE=-3.44D-05 OVMax= 2.22D-04

 Initial convergence to 1.0D-05 achieved.  Increase integral accuracy.
 Cycle   6  Pass 1  IDiag  1:
 E= -874.580747110402     Delta-E=        0.000023429863 Rises=F Damp=F
 DIIS: error= 8.47D-06 at cycle   1 NSaved=   1.
 NSaved= 1 IEnMin= 1 EnMin= -874.580747110402     IErMin= 1 ErrMin= 8.47D-06
 ErrMax= 8.47D-06  0.00D+00 EMaxC= 1.00D-01 BMatC= 5.66D-08 BMatP= 5.66D-08
 IDIUse=1 WtCom= 1.00D+00 WtEn= 0.00D+00
 Coeff-Com:  0.100D+01
 Coeff:      0.100D+01
 Gap=     0.229 Goal=   None    Shift=    0.000
 RMSDP=7.71D-06 MaxDP=2.05D-04 DE= 2.34D-05 OVMax= 1.31D-04

 Cycle   7  Pass 1  IDiag  1:
 RMSU=  5.19D-06    CP:  1.00D+00
 E= -874.580747082603     Delta-E=        0.000000027799 Rises=F Damp=F
 DIIS: error= 1.07D-05 at cycle   2 NSaved=   2.
 NSaved= 2 IEnMin= 1 EnMin= -874.580747110402     IErMin= 1 ErrMin= 8.47D-06
 ErrMax= 1.07D-05  0.00D+00 EMaxC= 1.00D-01 BMatC= 9.25D-08 BMatP= 5.66D-08
 IDIUse=1 WtCom= 1.00D+00 WtEn= 0.00D+00
 Coeff-Com:  0.568D+00 0.432D+00
 Coeff:      0.568D+00 0.432D+00
 Gap=     0.229 Goal=   None    Shift=    0.000
 RMSDP=2.05D-06 MaxDP=6.85D-05 DE= 2.78D-08 OVMax= 7.42D-05

 Cycle   8  Pass 1  IDiag  1:
 RMSU=  1.61D-06    CP:  1.00D+00  7.56D-01
 E= -874.580747163935     Delta-E=       -0.000000081332 Rises=F Damp=F
 DIIS: error= 4.33D-06 at cycle   3 NSaved=   3.
 NSaved= 3 IEnMin= 3 EnMin= -874.580747163935     IErMin= 3 ErrMin= 4.33D-06
 ErrMax= 4.33D-06  0.00D+00 EMaxC= 1.00D-01 BMatC= 5.25D-09 BMatP= 5.66D-08
 IDIUse=1 WtCom= 1.00D+00 WtEn= 0.00D+00
 Coeff-Com:  0.160D+00 0.213D+00 0.627D+00
 Coeff:      0.160D+00 0.213D+00 0.627D+00
 Gap=     0.229 Goal=   None    Shift=    0.000
 RMSDP=5.92D-07 MaxDP=2.32D-05 DE=-8.13D-08 OVMax= 3.32D-05

 Cycle   9  Pass 1  IDiag  1:
 RMSU=  5.35D-07    CP:  1.00D+00  7.71D-01  8.55D-01
 E= -874.580747166068     Delta-E=       -0.000000002134 Rises=F Damp=F
 DIIS: error= 2.97D-06 at cycle   4 NSaved=   4.
 NSaved= 4 IEnMin= 4 EnMin= -874.580747166068     IErMin= 4 ErrMin= 2.97D-06
 ErrMax= 2.97D-06  0.00D+00 EMaxC= 1.00D-01 BMatC= 2.51D-09 BMatP= 5.25D-09
 IDIUse=1 WtCom= 1.00D+00 WtEn= 0.00D+00
 Coeff-Com:  0.637D-02 0.722D-01 0.448D+00 0.473D+00
 Coeff:      0.637D-02 0.722D-01 0.448D+00 0.473D+00
 Gap=     0.229 Goal=   None    Shift=    0.000
 RMSDP=3.02D-07 MaxDP=1.16D-05 DE=-2.13D-09 OVMax= 1.51D-05

 Cycle  10  Pass 1  IDiag  1:
 RMSU=  1.28D-07    CP:  1.00D+00  7.81D-01  8.88D-01  5.07D-01
 E= -874.580747168041     Delta-E=       -0.000000001973 Rises=F Damp=F
 DIIS: error= 3.83D-07 at cycle   5 NSaved=   5.
 NSaved= 5 IEnMin= 5 EnMin= -874.580747168041     IErMin= 5 ErrMin= 3.83D-07
 ErrMax= 3.83D-07  0.00D+00 EMaxC= 1.00D-01 BMatC= 8.06D-11 BMatP= 2.51D-09
 IDIUse=1 WtCom= 1.00D+00 WtEn= 0.00D+00
 Coeff-Com: -0.419D-02 0.293D-01 0.214D+00 0.263D+00 0.499D+00
 Coeff:     -0.419D-02 0.293D-01 0.214D+00 0.263D+00 0.499D+00
 Gap=     0.229 Goal=   None    Shift=    0.000
 RMSDP=5.80D-08 MaxDP=1.67D-06 DE=-1.97D-09 OVMax= 1.76D-06

 Cycle  11  Pass 1  IDiag  1:
 RMSU=  3.54D-08    CP:  1.00D+00  7.85D-01  8.84D-01  5.21D-01  6.97D-01
 E= -874.580747168102     Delta-E=       -0.000000000060 Rises=F Damp=F
 DIIS: error= 1.11D-07 at cycle   6 NSaved=   6.
 NSaved= 6 IEnMin= 6 EnMin= -874.580747168102     IErMin= 6 ErrMin= 1.11D-07
 ErrMax= 1.11D-07  0.00D+00 EMaxC= 1.00D-01 BMatC= 4.59D-12 BMatP= 8.06D-11
 IDIUse=1 WtCom= 1.00D+00 WtEn= 0.00D+00
 Coeff-Com: -0.255D-02 0.968D-02 0.759D-01 0.100D+00 0.254D+00 0.563D+00
 Coeff:     -0.255D-02 0.968D-02 0.759D-01 0.100D+00 0.254D+00 0.563D+00
 Gap=     0.229 Goal=   None    Shift=    0.000
 RMSDP=1.52D-08 MaxDP=4.80D-07 DE=-6.03D-11 OVMax= 6.88D-07

 Cycle  12  Pass 1  IDiag  1:
 RMSU=  1.33D-08    CP:  1.00D+00  7.85D-01  8.87D-01  5.26D-01  6.90D-01
                    CP:  8.67D-01
 E= -874.580747168111     Delta-E=       -0.000000000010 Rises=F Damp=F
 DIIS: error= 5.02D-08 at cycle   7 NSaved=   7.
 NSaved= 7 IEnMin= 7 EnMin= -874.580747168111     IErMin= 7 ErrMin= 5.02D-08
 ErrMax= 5.02D-08  0.00D+00 EMaxC= 1.00D-01 BMatC= 5.54D-13 BMatP= 4.59D-12
 IDIUse=1 WtCom= 1.00D+00 WtEn= 0.00D+00
 Coeff-Com: -0.909D-03 0.163D-02 0.148D-01 0.220D-01 0.745D-01 0.288D+00
 Coeff-Com:  0.599D+00
 Coeff:     -0.909D-03 0.163D-02 0.148D-01 0.220D-01 0.745D-01 0.288D+00
 Coeff:      0.599D+00
 Gap=     0.229 Goal=   None    Shift=    0.000
 RMSDP=5.59D-09 MaxDP=2.26D-07 DE=-9.78D-12 OVMax= 3.68D-07

 SCF Done:  E(RB3LYP) =  -874.580747168     A.U. after   12 cycles
            NFock= 12  Conv=0.56D-08     -V/T= 2.0064
 KE= 8.690093130733D+02 PE=-3.302480200152D+03 EE= 9.371848221596D+02
 Leave Link  502 at Fri Mar 14 15:14:08 2025, MaxMem=  8589934592 cpu:              69.9 elap:               9.2
 (Enter /home/enzo/gaussian_versions/gdv.j21/gdv/l701.exe)
 ... and contract with generalized density number  0.
 Compute integral first derivatives.
 Leave Link  701 at Fri Mar 14 15:14:09 2025, MaxMem=  8589934592 cpu:               4.1 elap:               0.8
 (Enter /home/enzo/gaussian_versions/gdv.j21/gdv/l702.exe)
 L702 exits ... SP integral derivatives will be done elsewhere.
 Leave Link  702 at Fri Mar 14 15:14:09 2025, MaxMem=  8589934592 cpu:               0.1 elap:               0.3
 (Enter /home/enzo/gaussian_versions/gdv.j21/gdv/l703.exe)
 Integral derivatives from FoFJK, PRISM(SPDF).
 Compute integral first derivatives, UseDBF=F ICtDFT=           0.
 Calling FoFJK, ICntrl=      2127 FMM=F ISym2X=0 I1Cent= 0 IOpClX= 0 NMat=1 NMatS=1 NMatT=0.
 FoFJK:  IHMeth= 1 ICntrl=    2127 DoSepK=F KAlg= 0 I1Cent=           0 FoldK=F
 IRaf=         0 NMat=       1 IRICut=       1 DoRegI=T DoRafI=F ISym2E= 0 IDoP0=0 IntGTp=1.
 FoFCou: FMM=F IPFlag=           0 FMFlag=      100000 FMFlg1=         800
         NFxFlg=           0 DoJE=F BraDBF=F KetDBF=F FulRan=T
         wScrn=  0.000000 ICntrl=      2127 IOpCl=  0 I1Cent=           0 NGrid=           0
         NMat0=    1 NMatS0=      1 NMatT0=    0 NMatD0=    1 NMtDS0=    0 NMtDT0=    0
 Symmetry not used in FoFCou.
 Leave Link  703 at Fri Mar 14 15:14:12 2025, MaxMem=  8589934592 cpu:              15.4 elap:               2.3
 (Enter /home/enzo/gaussian_versions/gdv.j21/gdv/l716.exe)
 Dipole        =-1.60734844D+00-5.95951335D-01-1.17475921D+00
 ***** Axes restored to original set *****
 -------------------------------------------------------------------
 Center     Atomic                   Forces (Hartrees/Bohr)
 Number     Number              X              Y              Z
 -------------------------------------------------------------------
      1        6           0.000079593   -0.000158183    0.000059368
      2        6           0.000451799    0.000349551   -0.000120820
      3       16          -0.000209686   -0.000420999    0.000042375
      4        6          -0.001154847   -0.000496236   -0.000148390
      5        8          -0.000126822    0.000023159   -0.000324232
      6        7           0.000680572    0.001653700    0.000760760
      7        6           0.000613766   -0.000701327   -0.000150936
      8        6          -0.000735235   -0.000294256   -0.000826484
      9        8           0.000570218    0.000094306    0.000454804
     10        8           0.000002068    0.000078418   -0.000206557
     11        1          -0.000047380   -0.000004731    0.000033923
     12        1          -0.000027666   -0.000007043    0.000036302
     13        1          -0.000032403    0.000006058   -0.000101876
     14        1          -0.000022285    0.000165767    0.000067305
     15        1           0.000171250    0.000076188   -0.000069855
     16        1          -0.000086525   -0.000622897    0.000211050
     17        1           0.000043708    0.000071178   -0.000103339
     18        1          -0.000145433    0.000000685    0.000027068
     19        1          -0.000024693    0.000186664    0.000359536
 -------------------------------------------------------------------
 Cartesian Forces:  Max     0.001653700 RMS     0.000410909
 Leave Link  716 at Fri Mar 14 15:14:12 2025, MaxMem=  8589934592 cpu:               0.2 elap:               0.2
 (Enter /home/enzo/gaussian_versions/gdv.j21/gdv/l103.exe)

 GradGradGradGradGradGradGradGradGradGradGradGradGradGradGradGradGradGrad
 Berny optimization.
 Using GEDIIS/GDIIS optimizer.
 FormGI is forming the generalized inverse of G from B-inverse, IUseBI=4.
 GSVD:  received Info=                   1 from GESDD.
 Internal  Forces:  Max     0.001125612 RMS     0.000220914
 Search for a local minimum.
 Step number  10 out of a maximum of   93
 All quantities printed in internal units (Hartrees-Bohrs-Radians)
 RMS Force = .22091D-03 SwitMx=.10000D-02 MixMth= 2
 Mixed Optimization -- En-DIIS/RFO-DIIS
 Swapping is turned off.
 Update second derivatives using D2CorX and points    8    9   10
 DE= -1.70D-04 DEPred=-1.30D-04 R= 1.31D+00
 TightC=F SS=  1.41D+00  RLast= 1.89D-01 DXNew= 2.3056D+00 5.6798D-01
 Trust test= 1.31D+00 RLast= 1.89D-01 DXMaxT set to 1.37D+00
 ITU=  1  1 -1  1  1  1  1  1  1  0
     Eigenvalues ---    0.00131   0.00335   0.00437   0.00463   0.00863
     Eigenvalues ---    0.00993   0.01281   0.01916   0.03824   0.04689
     Eigenvalues ---    0.04790   0.05216   0.05614   0.05701   0.05758
     Eigenvalues ---    0.06797   0.08222   0.10341   0.14089   0.15334
     Eigenvalues ---    0.15968   0.15994   0.16017   0.16066   0.17118
     Eigenvalues ---    0.17867   0.19983   0.21260   0.22368   0.22424
     Eigenvalues ---    0.23665   0.24762   0.24894   0.26377   0.26909
     Eigenvalues ---    0.30020   0.31863   0.32585   0.32589   0.32614
     Eigenvalues ---    0.32627   0.32678   0.32800   0.33563   0.37329
     Eigenvalues ---    0.40775   0.41782   0.46494   0.49528   0.79756
     Eigenvalues ---    0.80808
 En-DIIS/RFO-DIIS/Sim-DIIS IScMMF=       -3 using points:    10    9
 RFO step:  Lambda=-2.68307654D-04.
 NNeg= 0 NGDIIS= 2 SimSw=  2.50D-03 Rises=F DC= -1.70D-04 SmlDif=  1.00D-05
 NRisDI= 0 DoIntr=F SqrtH=F CThrHd= 10.0 CDAdj=  3.0
 RMS Error=  0.3772793125D-01 NUsed= 2 OKEnD=T EnDIS=F
 InvSVX:  RCond= 7.00D-03 Info=           0 Equed=N FErr=  1.13D-14 BErr=  4.71D-17
 DidBck=FF Rises=F RFO-DIIS coefs:    2.40080   -1.40080
 Iteration  1 RMS(Cart)=  0.09271263 RMS(Int)=  0.00281810
 Iteration  2 RMS(Cart)=  0.00437652 RMS(Int)=  0.00046870
 Iteration  3 RMS(Cart)=  0.00000860 RMS(Int)=  0.00046865
 Iteration  4 RMS(Cart)=  0.00000000 RMS(Int)=  0.00046865
 Variable       Old X    -DE/DX   Delta X   Delta X   Delta X     New X
                                 (Linear)    (Quad)   (Total)
    R1        2.88612  -0.00013  -0.00102  -0.00060  -0.00163   2.88449
    R2        2.06528  -0.00005  -0.00003  -0.00054  -0.00057   2.06472
    R3        2.07280  -0.00001  -0.00063  -0.00017  -0.00080   2.07200
    R4        2.06556  -0.00010   0.00005  -0.00071  -0.00066   2.06490
    R5        3.51018   0.00030   0.00049   0.00328   0.00376   3.51394
    R6        2.89062   0.00032  -0.00017   0.00268   0.00252   2.89314
    R7        2.07152  -0.00007   0.00043  -0.00054  -0.00011   2.07141
    R8        2.55283  -0.00003   0.00003  -0.00044  -0.00041   2.55242
    R9        2.30800  -0.00031   0.00050  -0.00149  -0.00099   2.30701
   R10        2.60875  -0.00113  -0.00175  -0.00441  -0.00616   2.60259
   R11        2.74903  -0.00061  -0.00120  -0.00152  -0.00272   2.74631
   R12        1.91168  -0.00009  -0.00156  -0.00040  -0.00196   1.90971
   R13        2.90216  -0.00000   0.00225   0.00168   0.00393   2.90608
   R14        2.06875  -0.00004  -0.00169   0.00000  -0.00169   2.06707
   R15        2.06583   0.00007  -0.00101   0.00029  -0.00073   2.06511
   R16        2.27747  -0.00045  -0.00032  -0.00129  -0.00161   2.27586
   R17        2.54868  -0.00024  -0.00122  -0.00019  -0.00141   2.54727
   R18        1.84646  -0.00010  -0.00055  -0.00004  -0.00059   1.84588
    A1        1.92875  -0.00001   0.00061  -0.00022   0.00038   1.92914
    A2        1.92408  -0.00003  -0.00287  -0.00014  -0.00301   1.92107
    A3        1.92330   0.00001   0.00112  -0.00011   0.00101   1.92431
    A4        1.89787   0.00003   0.00142   0.00052   0.00195   1.89982
    A5        1.90695   0.00001   0.00173  -0.00001   0.00172   1.90866
    A6        1.88205  -0.00001  -0.00202  -0.00003  -0.00206   1.87999
    A7        1.97422  -0.00000   0.00100   0.00110   0.00210   1.97632
    A8        1.94880   0.00023   0.00353   0.00197   0.00549   1.95429
    A9        1.92754  -0.00000  -0.00064   0.00072   0.00008   1.92762
   A10        1.87541  -0.00009  -0.00257  -0.00040  -0.00298   1.87243
   A11        1.79997   0.00002  -0.00229  -0.00034  -0.00264   1.79733
   A12        1.93217  -0.00017   0.00049  -0.00338  -0.00290   1.92927
   A13        1.66424  -0.00009   0.00216   0.00065   0.00281   1.66705
   A14        2.12777   0.00016   0.00109   0.00180   0.00289   2.13065
   A15        2.01148  -0.00010  -0.00362  -0.00128  -0.00490   2.00658
   A16        2.14201  -0.00007   0.00250  -0.00044   0.00206   2.14406
   A17        2.12598   0.00040   0.00353   0.00350   0.00460   2.13058
   A18        2.06410  -0.00007   0.01128   0.00145   0.01029   2.07439
   A19        2.06132  -0.00022   0.00617   0.00195   0.00565   2.06697
   A20        1.98766  -0.00002   0.00371  -0.00119   0.00252   1.99017
   A21        1.86709  -0.00012  -0.00144   0.00276   0.00133   1.86842
   A22        1.94812   0.00016  -0.00099  -0.00034  -0.00133   1.94679
   A23        1.88690   0.00015  -0.00311  -0.00069  -0.00381   1.88309
   A24        1.88340  -0.00014   0.00048   0.00049   0.00097   1.88437
   A25        1.88753  -0.00003   0.00116  -0.00107   0.00009   1.88762
   A26        2.12868   0.00009  -0.00091   0.00036  -0.00070   2.12799
   A27        2.02165  -0.00027   0.00284  -0.00292  -0.00022   2.02142
   A28        2.13270   0.00018  -0.00125   0.00247   0.00107   2.13377
   A29        1.90172  -0.00027   0.00615  -0.00451   0.00164   1.90335
    D1        0.95152  -0.00001  -0.00143  -0.00001  -0.00145   0.95007
    D2        3.06959   0.00004  -0.00145   0.00172   0.00027   3.06987
    D3       -1.05567  -0.00003   0.00123  -0.00073   0.00050  -1.05517
    D4        3.05000   0.00001  -0.00113   0.00041  -0.00073   3.04927
    D5       -1.11511   0.00005  -0.00114   0.00214   0.00100  -1.11411
    D6        1.04281  -0.00001   0.00153  -0.00030   0.00123   1.04404
    D7       -1.15779  -0.00002  -0.00472   0.00021  -0.00452  -1.16231
    D8        0.96028   0.00003  -0.00474   0.00194  -0.00279   0.95749
    D9        3.11820  -0.00003  -0.00206  -0.00050  -0.00256   3.11564
   D10        1.13815  -0.00009   0.04019  -0.12948  -0.08929   1.04885
   D11       -1.02082  -0.00031   0.03689  -0.13242  -0.09553  -1.11634
   D12       -3.06276  -0.00009   0.03851  -0.12827  -0.08977   3.13065
   D13       -0.70423   0.00010   0.07516   0.02325   0.09842  -0.60581
   D14        2.50238   0.00016   0.07556   0.02204   0.09760   2.59999
   D15        1.47018   0.00018   0.07695   0.02564   0.10258   1.57276
   D16       -1.60639   0.00024   0.07735   0.02443   0.10177  -1.50463
   D17       -2.85953   0.00007   0.07312   0.02337   0.09649  -2.76304
   D18        0.34709   0.00013   0.07352   0.02215   0.09568   0.44276
   D19       -3.13149  -0.00021  -0.04177  -0.01797  -0.05994   3.09176
   D20       -0.26327   0.00020   0.03871   0.01139   0.05029  -0.21298
   D21        0.07572  -0.00016  -0.04131  -0.01928  -0.06079   0.01493
   D22        2.94393   0.00025   0.03917   0.01007   0.04944   2.99337
   D23       -2.01637   0.00014   0.04949   0.03114   0.08061  -1.93576
   D24        0.06726   0.00023   0.04686   0.03145   0.07828   0.14554
   D25        2.12881   0.00022   0.04683   0.03165   0.07846   2.20726
   D26        1.39819  -0.00029  -0.03179   0.00190  -0.02987   1.36832
   D27       -2.80137  -0.00020  -0.03443   0.00221  -0.03220  -2.83356
   D28       -0.73982  -0.00021  -0.03445   0.00241  -0.03202  -0.77184
   D29       -2.81488  -0.00026  -0.03466  -0.00670  -0.04137  -2.85626
   D30        0.34507   0.00007  -0.06167  -0.00100  -0.06267   0.28240
   D31        1.39594  -0.00020  -0.03302  -0.00897  -0.04199   1.35395
   D32       -1.72729   0.00014  -0.06002  -0.00326  -0.06328  -1.79058
   D33       -0.64174  -0.00017  -0.03300  -0.00760  -0.04060  -0.68234
   D34        2.51821   0.00016  -0.06000  -0.00190  -0.06189   2.45632
   D35       -0.05368   0.00015   0.01478   0.03534   0.05012  -0.00356
   D36        3.10631   0.00049  -0.01230   0.04108   0.02877   3.13509
         Item               Value     Threshold  Converged?
 Maximum Force            0.001126     0.000450     NO 
 RMS     Force            0.000221     0.000300     YES
 Maximum Displacement     0.267649     0.001800     NO 
 RMS     Displacement     0.092893     0.001200     NO 
 Predicted change in Energy=-1.521918D-04
 Lowest energy point so far.  Saving SCF results.
 GradGradGradGradGradGradGradGradGradGradGradGradGradGradGradGradGradGrad

 Leave Link  103 at Fri Mar 14 15:14:12 2025, MaxMem=  8589934592 cpu:               0.8 elap:               0.3
 (Enter /home/enzo/gaussian_versions/gdv.j21/gdv/l202.exe)
                          Input orientation:                          
 ---------------------------------------------------------------------
 Center     Atomic      Atomic             Coordinates (Angstroms)
 Number     Number       Type             X           Y           Z
 ---------------------------------------------------------------------
      1          6           0        2.825234    1.285135   -0.737470
      2          6           0        1.645963    0.338050   -0.943073
      3         16           0        2.048252   -1.432391   -0.541283
      4          6           0        0.437484    0.734557   -0.090856
      5          8           0        0.560544    1.219567    1.022707
      6          7           0       -0.787454    0.429814   -0.641690
      7          6           0       -2.034057    0.682303    0.061353
      8          6           0       -2.769766   -0.591830    0.508845
      9          8           0       -3.928606   -0.576329    0.836365
     10          8           0       -2.037633   -1.723629    0.507502
     11          1           0        3.696394    0.939982   -1.299364
     12          1           0        2.561443    2.293735   -1.077102
     13          1           0        3.079861    1.347473    0.323314
     14          1           0        1.370950    0.293546   -2.003222
     15          1           0        2.369458   -1.202610    0.750370
     16          1           0       -0.830258    0.152946   -1.612655
     17          1           0       -1.786064    1.259287    0.956944
     18          1           0       -2.723875    1.274516   -0.544998
     19          1           0       -1.132023   -1.517242    0.205174
 ---------------------------------------------------------------------
                    Distance matrix (angstroms):
                    1          2          3          4          5
     1  C    0.000000
     2  C    1.526408   0.000000
     3  S    2.833220   1.859498   0.000000
     4  C    2.534284   1.530984   2.737356   0.000000
     5  O    2.869031   2.412363   3.419389   1.220820   0.000000
     6  N    3.713793   2.453726   3.393982   1.377229   2.282766
     7  C    4.961273   3.830134   4.636846   2.476775   2.818653
     8  C    6.031610   4.740401   5.002260   3.522130   3.825725
     9  O    7.180276   5.922694   6.193028   4.651979   4.838640
    10  O    5.852358   4.463583   4.228384   3.539339   3.959592
    11  H    1.092600   2.166456   2.986505   3.481836   3.911999
    12  H    1.096453   2.163509   3.799274   2.813347   3.092998
    13  H    1.092696   2.163039   3.088590   2.743968   2.617722
    14  H    2.168021   1.096143   2.361114   2.173245   3.266576
    15  H    2.934327   2.401005   1.350681   2.862307   3.035339
    16  H    3.925611   2.571823   3.456436   2.064295   3.164987
    17  H    4.912817   4.029584   4.918515   2.513442   2.347865
    18  H    5.552455   4.486748   5.486397   3.239134   3.639797
    19  H    4.939815   3.532391   3.267804   2.760722   3.320130
                    6          7          8          9         10
     6  N    0.000000
     7  C    1.453285   0.000000
     8  C    2.509392   1.537834   0.000000
     9  O    3.614389   2.402939   1.204334   0.000000
    10  O    2.742427   2.446951   1.347957   2.236119   0.000000
    11  H    4.560449   5.895423   6.886747   8.062330   6.575611
    12  H    3.857318   5.001141   6.266060   7.349787   6.308859
    13  H    4.090166   5.163645   6.165505   7.285798   5.971126
    14  H    2.555592   4.000959   4.923404   6.074968   4.689475
    15  H    3.816901   4.839275   5.181024   6.329711   4.444424
    16  H    1.010575   2.128768   2.969368   4.016130   3.078044
    17  H    2.059339   1.093844   2.143618   2.823918   3.027057
    18  H    2.114851   1.092807   2.143815   2.604836   3.250778
    19  H    2.151031   2.381669   1.905467   3.017383   0.976795
                   11         12         13         14         15
    11  H    0.000000
    12  H    1.780494   0.000000
    13  H    1.783044   1.767862   0.000000
    14  H    2.514156   2.505140   3.073095   0.000000
    15  H    3.248517   3.949803   2.681413   3.289037   0.000000
    16  H    4.605231   4.046411   4.523705   2.240007   4.202333
    17  H    5.937190   4.910015   4.907799   4.434183   4.834457
    18  H    6.473085   5.408931   5.868785   4.456042   5.810006
    19  H    5.622739   5.459805   5.095146   3.797478   3.557612
                   16         17         18         19
    16  H    0.000000
    17  H    2.956416   0.000000
    18  H    2.446139   1.770748   0.000000
    19  H    2.486985   2.949922   3.300101   0.000000
 Stoichiometry    C5H9NO3S
 Framework group  C1[X(C5H9NO3S)]
 Deg. of freedom    51
 Full point group                 C1      NOp   1
 RotChk:  IX=0 Diff= 4.18D-02
 Largest Abelian subgroup         C1      NOp   1
 Largest concise Abelian subgroup C1      NOp   1
                         Standard orientation:                         
 ---------------------------------------------------------------------
 Center     Atomic      Atomic             Coordinates (Angstroms)
 Number     Number       Type             X           Y           Z
 ---------------------------------------------------------------------
      1          6           0       -3.138637   -1.044745   -0.083500
      2          6           0       -1.929103   -0.213033   -0.502075
      3         16           0       -2.040128    1.564229    0.033414
      4          6           0       -0.622728   -0.777405    0.062530
      5          8           0       -0.566779   -1.308265    1.160464
      6          7           0        0.488465   -0.569223   -0.724026
      7          6           0        1.817186   -0.986179   -0.308473
      8          6           0        2.766605    0.179458    0.015298
      9          8           0        3.958978    0.027647    0.090278
     10          8           0        2.180660    1.378395    0.205580
     11          1           0       -4.062946   -0.581890   -0.437326
     12          1           0       -3.064574   -2.054629   -0.504048
     13          1           0       -3.174392   -1.139442    1.004497
     14          1           0       -1.875387   -0.138166   -1.594338
     15          1           0       -2.111657    1.297228    1.355508
     16          1           0        0.360713   -0.244806   -1.672548
     17          1           0        1.696492   -1.583565    0.599854
     18          1           0        2.296800   -1.611196   -1.065804
     19          1           0        1.214942    1.282578    0.094506
 ---------------------------------------------------------------------
 Rotational constants (GHZ):           2.1782747           0.5841575           0.5009185
 Leave Link  202 at Fri Mar 14 15:14:12 2025, MaxMem=  8589934592 cpu:               0.4 elap:               0.2
 (Enter /home/enzo/gaussian_versions/gdv.j21/gdv/l301.exe)
 Standard basis: 6-31G(d) (6D, 7F)
 Ernie: Thresh=  0.10000D-02 Tol=  0.10000D-05 Strict=F.
 There are   172 symmetry adapted cartesian basis functions of A   symmetry.
 There are   172 symmetry adapted basis functions of A   symmetry.
   172 basis functions,   340 primitive gaussians,   172 cartesian basis functions
    43 alpha electrons       43 beta electrons
       nuclear repulsion energy       624.4495617505 Hartrees.
 IExCor=      4002 DFT=T Ex+Corr=B3LYP ScaHFX=  0.200000
 ScaDFX=  0.800000  0.720000  1.000000  0.810000  1.000000  0.000000
 ScaDFX=  0.000000  0.000000  0.000000  0.000000  0.000000  0.000000
 IRadAn=      5 IRanWt=     -1 IRanGd=            0 ICorTp=0 IEmpDi=  4
 NAtoms=   19 NActive=   19 NUniq=   19 SFac= 1.00D+00 NAtFMM=   60 NAOKFM=F Big=F
 Integral buffers will be    131072 words long.
 Raffenetti 2 integral format.
 Two-electron integral symmetry is turned on.
 Leave Link  301 at Fri Mar 14 15:14:13 2025, MaxMem=  8589934592 cpu:               0.2 elap:               0.2
 (Enter /home/enzo/gaussian_versions/gdv.j21/gdv/l302.exe)
 NPDir=0 NMtPBC=     1 NCelOv=     1 NCel=       1 NClECP=     1 NCelD=      1
         NCelK=      1 NCelE2=     1 NClLst=     1 CellRange=     0.0.
 One-electron integrals computed using PRISM.
 One-electron integral symmetry used in STVInt
 NBasis=   172 RedAO= T EigKep=  2.77D-03  NBF=   172
 NBsUse=   172 1.00D-06 EigRej= -1.00D+00 NBFU=   172
 Precomputing XC quadrature grid using
 IXCGrd= 4 IRadAn=           5 IRanWt=          -1 IRanGd=           0 AccXCQ= 0.00D+00.
 Generated NRdTot=       0 NPtTot=      406283 NUsed=           0 NTot=          64
 NSgBfM=   171   171   171   171   171 MxSgAt=    19 MxSgA2=    19 SizInc=   0.000
 NMBTot=     3405 MaxBatPerAtom=       85 MaxMicBPerAtom=      194 NBfPt=            51734681.
 Leave Link  302 at Fri Mar 14 15:14:13 2025, MaxMem=  8589934592 cpu:               2.9 elap:               0.6
 (Enter /home/enzo/gaussian_versions/gdv.j21/gdv/l303.exe)
 DipDrv:  MaxL=1.
 Leave Link  303 at Fri Mar 14 15:14:14 2025, MaxMem=  8589934592 cpu:               0.4 elap:               0.4
 (Enter /home/enzo/gaussian_versions/gdv.j21/gdv/l401.exe)
 Initial guess from the checkpoint file:  "/local/home/enzo/scratch/Gau-2337715.chk"
 B after Tr=    -0.000000    0.000000    0.000000
         Rot=    0.999931   -0.010602   -0.000983    0.004994 Ang=  -1.35 deg.
 AO Guess basis will be translated and rotated to current coordinates.
 JPrj=2 DoOrth=T DoCkMO=T.
 Generating alternative initial guess.
 ExpMin= 1.17D-01 ExpMax= 2.19D+04 ExpMxC= 3.30D+03 IAcc=3 IRadAn=         5 AccDes= 0.00D+00
 Harris functional with IExCor= 4002 and IRadAn=       5 diagonalized for initial guess.
 HarFok:  IExCor=    4002 AccDes= 0.00D+00 IRadAn=         5 IDoV= 1 UseB2=F ITyADJ=14 ICtDFT=  3500011
 FoFCou: FMM=F IPFlag=           0 FMFlag=      100000 FMFlg1=           0
         NFxFlg=           0 DoJE=T BraDBF=F KetDBF=T FulRan=T
         wScrn=  0.000000 ICntrl=       500 IOpCl=  0 I1Cent=   200000004 NGrid=           0
         NMat0=    1 NMatS0=      1 NMatT0=    0 NMatD0=    1 NMtDS0=    0 NMtDT0=    0
 Petite list used in FoFCou.
 Harris En= -874.549898657454    
 Leave Link  401 at Fri Mar 14 15:14:15 2025, MaxMem=  8589934592 cpu:               9.3 elap:               1.3
 (Enter /home/enzo/gaussian_versions/gdv.j21/gdv/l502.exe)
 Integral symmetry usage will be decided dynamically.
 Closed shell SCF:
 Using DIIS extrapolation, IDIIS=  1040.
 NGot=  8589934592 LenX=  8589843591 LenY=  8589813566
 Requested convergence on RMS density matrix=1.00D-08 within 128 cycles.
 Requested convergence on MAX density matrix=1.00D-06.
 Requested convergence on             energy=1.00D-06.
 No special actions if energy rises.
 Fock matrices will be formed incrementally for  20 cycles.
 Integral accuracy reduced to 1.0D-05 until final iterations.

 Cycle   1  Pass 0  IDiag  1:
 FoFJK:  IHMeth= 1 ICntrl=       0 DoSepK=F KAlg= 0 I1Cent=           0 FoldK=F
 IRaf= 910000000 NMat=       1 IRICut=       1 DoRegI=T DoRafI=F ISym2E= 0 IDoP0=0 IntGTp=1.
 FoFCou: FMM=F IPFlag=           0 FMFlag=      100000 FMFlg1=           0
         NFxFlg=           0 DoJE=F BraDBF=F KetDBF=F FulRan=T
         wScrn=  0.000000 ICntrl=         0 IOpCl=  0 I1Cent=           0 NGrid=           0
         NMat0=    1 NMatS0=      1 NMatT0=    0 NMatD0=    1 NMtDS0=    0 NMtDT0=    0
 Symmetry not used in FoFCou.
 E= -874.568385653031    
 DIIS: error= 2.96D-03 at cycle   1 NSaved=   1.
 NSaved= 1 IEnMin= 1 EnMin= -874.568385653031     IErMin= 1 ErrMin= 2.96D-03
 ErrMax= 2.96D-03  0.00D+00 EMaxC= 1.00D-01 BMatC= 6.50D-03 BMatP= 6.50D-03
 IDIUse=3 WtCom= 9.70D-01 WtEn= 2.96D-02
 Coeff-Com:  0.100D+01
 Coeff-En:   0.100D+01
 Coeff:      0.100D+01
 Gap=     1.521 Goal=   None    Shift=    0.000
 GapD=    1.521 DampG=2.000 DampE=1.000 DampFc=2.0000 IDamp=-1.
 RMSDP=8.60D-04 MaxDP=1.81D-02              OVMax= 2.39D-02

 Cycle   2  Pass 0  IDiag  1:
 RMSU=  8.60D-04    CP:  9.99D-01
 E= -874.580714784672     Delta-E=       -0.012329131641 Rises=F Damp=F
 DIIS: error= 4.62D-04 at cycle   2 NSaved=   2.
 NSaved= 2 IEnMin= 2 EnMin= -874.580714784672     IErMin= 2 ErrMin= 4.62D-04
 ErrMax= 4.62D-04  0.00D+00 EMaxC= 1.00D-01 BMatC= 1.21D-04 BMatP= 6.50D-03
 IDIUse=3 WtCom= 9.95D-01 WtEn= 4.62D-03
 Coeff-Com: -0.578D-01 0.106D+01
 Coeff-En:   0.000D+00 0.100D+01
 Coeff:     -0.576D-01 0.106D+01
 Gap=     0.230 Goal=   None    Shift=    0.000
 RMSDP=1.57D-04 MaxDP=3.46D-03 DE=-1.23D-02 OVMax= 5.06D-03

 Cycle   3  Pass 0  IDiag  1:
 RMSU=  1.52D-04    CP:  9.99D-01  1.05D+00
 E= -874.580742139796     Delta-E=       -0.000027355124 Rises=F Damp=F
 DIIS: error= 8.39D-04 at cycle   3 NSaved=   3.
 NSaved= 3 IEnMin= 3 EnMin= -874.580742139796     IErMin= 2 ErrMin= 4.62D-04
 ErrMax= 8.39D-04  0.00D+00 EMaxC= 1.00D-01 BMatC= 1.85D-04 BMatP= 1.21D-04
 IDIUse=3 WtCom= 2.57D-01 WtEn= 7.43D-01
 Coeff-Com: -0.457D-01 0.626D+00 0.419D+00
 Coeff-En:   0.000D+00 0.435D+00 0.565D+00
 Coeff:     -0.117D-01 0.484D+00 0.528D+00
 Gap=     0.230 Goal=   None    Shift=    0.000
 RMSDP=1.23D-04 MaxDP=3.78D-03 DE=-2.74D-05 OVMax= 5.50D-03

 Cycle   4  Pass 0  IDiag  1:
 RMSU=  6.90D-05    CP:  9.99D-01  1.08D+00  3.52D-01
 E= -874.580822915479     Delta-E=       -0.000080775684 Rises=F Damp=F
 DIIS: error= 6.35D-04 at cycle   4 NSaved=   4.
 NSaved= 4 IEnMin= 4 EnMin= -874.580822915479     IErMin= 2 ErrMin= 4.62D-04
 ErrMax= 6.35D-04  0.00D+00 EMaxC= 1.00D-01 BMatC= 9.31D-05 BMatP= 1.21D-04
 IDIUse=3 WtCom= 9.94D-01 WtEn= 6.35D-03
 Coeff-Com: -0.181D-01 0.208D+00 0.393D+00 0.417D+00
 Coeff-En:   0.000D+00 0.000D+00 0.356D+00 0.644D+00
 Coeff:     -0.180D-01 0.207D+00 0.393D+00 0.418D+00
 Gap=     0.230 Goal=   None    Shift=    0.000
 RMSDP=5.06D-05 MaxDP=1.69D-03 DE=-8.08D-05 OVMax= 2.55D-03

 Cycle   5  Pass 0  IDiag  1:
 RMSU=  2.02D-05    CP:  9.99D-01  1.08D+00  5.38D-01  4.71D-01
 E= -874.580893691991     Delta-E=       -0.000070776512 Rises=F Damp=F
 DIIS: error= 4.50D-05 at cycle   5 NSaved=   5.
 NSaved= 5 IEnMin= 5 EnMin= -874.580893691991     IErMin= 5 ErrMin= 4.50D-05
 ErrMax= 4.50D-05  0.00D+00 EMaxC= 1.00D-01 BMatC= 1.06D-06 BMatP= 9.31D-05
 IDIUse=1 WtCom= 1.00D+00 WtEn= 0.00D+00
 Coeff-Com: -0.470D-02 0.453D-01 0.156D+00 0.204D+00 0.600D+00
 Coeff:     -0.470D-02 0.453D-01 0.156D+00 0.204D+00 0.600D+00
 Gap=     0.230 Goal=   None    Shift=    0.000
 RMSDP=8.31D-06 MaxDP=2.97D-04 DE=-7.08D-05 OVMax= 2.75D-04

 Initial convergence to 1.0D-05 achieved.  Increase integral accuracy.
 Cycle   6  Pass 1  IDiag  1:
 E= -874.580869106125     Delta-E=        0.000024585866 Rises=F Damp=F
 DIIS: error= 1.30D-05 at cycle   1 NSaved=   1.
 NSaved= 1 IEnMin= 1 EnMin= -874.580869106125     IErMin= 1 ErrMin= 1.30D-05
 ErrMax= 1.30D-05  0.00D+00 EMaxC= 1.00D-01 BMatC= 1.29D-07 BMatP= 1.29D-07
 IDIUse=1 WtCom= 1.00D+00 WtEn= 0.00D+00
 Coeff-Com:  0.100D+01
 Coeff:      0.100D+01
 Gap=     0.230 Goal=   None    Shift=    0.000
 RMSDP=8.31D-06 MaxDP=2.97D-04 DE= 2.46D-05 OVMax= 1.75D-04

 Cycle   7  Pass 1  IDiag  1:
 RMSU=  6.29D-06    CP:  1.00D+00
 E= -874.580868992860     Delta-E=        0.000000113265 Rises=F Damp=F
 DIIS: error= 2.05D-05 at cycle   2 NSaved=   2.
 NSaved= 2 IEnMin= 1 EnMin= -874.580869106125     IErMin= 1 ErrMin= 1.30D-05
 ErrMax= 2.05D-05  0.00D+00 EMaxC= 1.00D-01 BMatC= 2.69D-07 BMatP= 1.29D-07
 IDIUse=1 WtCom= 1.00D+00 WtEn= 0.00D+00
 Coeff-Com:  0.596D+00 0.404D+00
 Coeff:      0.596D+00 0.404D+00
 Gap=     0.230 Goal=   None    Shift=    0.000
 RMSDP=3.13D-06 MaxDP=1.08D-04 DE= 1.13D-07 OVMax= 1.35D-04

 Cycle   8  Pass 1  IDiag  1:
 RMSU=  1.95D-06    CP:  1.00D+00  6.12D-01
 E= -874.580869222708     Delta-E=       -0.000000229848 Rises=F Damp=F
 DIIS: error= 6.75D-06 at cycle   3 NSaved=   3.
 NSaved= 3 IEnMin= 3 EnMin= -874.580869222708     IErMin= 3 ErrMin= 6.75D-06
 ErrMax= 6.75D-06  0.00D+00 EMaxC= 1.00D-01 BMatC= 9.55D-09 BMatP= 1.29D-07
 IDIUse=1 WtCom= 1.00D+00 WtEn= 0.00D+00
 Coeff-Com:  0.242D+00 0.210D+00 0.548D+00
 Coeff:      0.242D+00 0.210D+00 0.548D+00
 Gap=     0.230 Goal=   None    Shift=    0.000
 RMSDP=7.85D-07 MaxDP=3.00D-05 DE=-2.30D-07 OVMax= 4.17D-05

 Cycle   9  Pass 1  IDiag  1:
 RMSU=  7.14D-07    CP:  1.00D+00  6.33D-01  8.50D-01
 E= -874.580869227822     Delta-E=       -0.000000005114 Rises=F Damp=F
 DIIS: error= 3.79D-06 at cycle   4 NSaved=   4.
 NSaved= 4 IEnMin= 4 EnMin= -874.580869227822     IErMin= 4 ErrMin= 3.79D-06
 ErrMax= 3.79D-06  0.00D+00 EMaxC= 1.00D-01 BMatC= 3.25D-09 BMatP= 9.55D-09
 IDIUse=1 WtCom= 1.00D+00 WtEn= 0.00D+00
 Coeff-Com:  0.298D-01 0.541D-01 0.384D+00 0.532D+00
 Coeff:      0.298D-01 0.541D-01 0.384D+00 0.532D+00
 Gap=     0.230 Goal=   None    Shift=    0.000
 RMSDP=3.42D-07 MaxDP=1.27D-05 DE=-5.11D-09 OVMax= 1.65D-05

 Cycle  10  Pass 1  IDiag  1:
 RMSU=  2.13D-07    CP:  1.00D+00  6.31D-01  9.01D-01  6.53D-01
 E= -874.580869230243     Delta-E=       -0.000000002420 Rises=F Damp=F
 DIIS: error= 5.80D-07 at cycle   5 NSaved=   5.
 NSaved= 5 IEnMin= 5 EnMin= -874.580869230243     IErMin= 5 ErrMin= 5.80D-07
 ErrMax= 5.80D-07  0.00D+00 EMaxC= 1.00D-01 BMatC= 1.55D-10 BMatP= 3.25D-09
 IDIUse=1 WtCom= 1.00D+00 WtEn= 0.00D+00
 Coeff-Com: -0.425D-02 0.115D-01 0.156D+00 0.282D+00 0.555D+00
 Coeff:     -0.425D-02 0.115D-01 0.156D+00 0.282D+00 0.555D+00
 Gap=     0.230 Goal=   None    Shift=    0.000
 RMSDP=9.05D-08 MaxDP=2.80D-06 DE=-2.42D-09 OVMax= 2.64D-06

 Cycle  11  Pass 1  IDiag  1:
 RMSU=  5.51D-08    CP:  1.00D+00  6.37D-01  9.00D-01  6.57D-01  7.12D-01
 E= -874.580869230366     Delta-E=       -0.000000000123 Rises=F Damp=F
 DIIS: error= 1.99D-07 at cycle   6 NSaved=   6.
 NSaved= 6 IEnMin= 6 EnMin= -874.580869230366     IErMin= 6 ErrMin= 1.99D-07
 ErrMax= 1.99D-07  0.00D+00 EMaxC= 1.00D-01 BMatC= 1.38D-11 BMatP= 1.55D-10
 IDIUse=1 WtCom= 1.00D+00 WtEn= 0.00D+00
 Coeff-Com: -0.477D-02 0.217D-02 0.565D-01 0.114D+00 0.300D+00 0.532D+00
 Coeff:     -0.477D-02 0.217D-02 0.565D-01 0.114D+00 0.300D+00 0.532D+00
 Gap=     0.230 Goal=   None    Shift=    0.000
 RMSDP=2.54D-08 MaxDP=7.96D-07 DE=-1.23D-10 OVMax= 1.03D-06

 Cycle  12  Pass 1  IDiag  1:
 RMSU=  2.31D-08    CP:  1.00D+00  6.37D-01  9.02D-01  6.60D-01  7.00D-01
                    CP:  8.47D-01
 E= -874.580869230384     Delta-E=       -0.000000000018 Rises=F Damp=F
 DIIS: error= 6.66D-08 at cycle   7 NSaved=   7.
 NSaved= 7 IEnMin= 7 EnMin= -874.580869230384     IErMin= 7 ErrMin= 6.66D-08
 ErrMax= 6.66D-08  0.00D+00 EMaxC= 1.00D-01 BMatC= 1.07D-12 BMatP= 1.38D-11
 IDIUse=1 WtCom= 1.00D+00 WtEn= 0.00D+00
 Coeff-Com: -0.155D-02-0.735D-03 0.228D-02 0.930D-02 0.486D-01 0.226D+00
 Coeff-Com:  0.716D+00
 Coeff:     -0.155D-02-0.735D-03 0.228D-02 0.930D-02 0.486D-01 0.226D+00
 Coeff:      0.716D+00
 Gap=     0.230 Goal=   None    Shift=    0.000
 RMSDP=9.24D-09 MaxDP=3.93D-07 DE=-1.82D-11 OVMax= 5.21D-07

 SCF Done:  E(RB3LYP) =  -874.580869230     A.U. after   12 cycles
            NFock= 12  Conv=0.92D-08     -V/T= 2.0064
 KE= 8.690227715261D+02 PE=-3.307974428864D+03 EE= 9.399212263570D+02
 Leave Link  502 at Fri Mar 14 15:14:24 2025, MaxMem=  8589934592 cpu:              71.3 elap:               9.2
 (Enter /home/enzo/gaussian_versions/gdv.j21/gdv/l701.exe)
 ... and contract with generalized density number  0.
 Compute integral first derivatives.
 Leave Link  701 at Fri Mar 14 15:14:25 2025, MaxMem=  8589934592 cpu:               2.5 elap:               0.6
 (Enter /home/enzo/gaussian_versions/gdv.j21/gdv/l702.exe)
 L702 exits ... SP integral derivatives will be done elsewhere.
 Leave Link  702 at Fri Mar 14 15:14:25 2025, MaxMem=  8589934592 cpu:               0.2 elap:               0.2
 (Enter /home/enzo/gaussian_versions/gdv.j21/gdv/l703.exe)
 Integral derivatives from FoFJK, PRISM(SPDF).
 Compute integral first derivatives, UseDBF=F ICtDFT=           0.
 Calling FoFJK, ICntrl=      2127 FMM=F ISym2X=0 I1Cent= 0 IOpClX= 0 NMat=1 NMatS=1 NMatT=0.
 FoFJK:  IHMeth= 1 ICntrl=    2127 DoSepK=F KAlg= 0 I1Cent=           0 FoldK=F
 IRaf=         0 NMat=       1 IRICut=       1 DoRegI=T DoRafI=F ISym2E= 0 IDoP0=0 IntGTp=1.
 FoFCou: FMM=F IPFlag=           0 FMFlag=      100000 FMFlg1=         800
         NFxFlg=           0 DoJE=F BraDBF=F KetDBF=F FulRan=T
         wScrn=  0.000000 ICntrl=      2127 IOpCl=  0 I1Cent=           0 NGrid=           0
         NMat0=    1 NMatS0=      1 NMatT0=    0 NMatD0=    1 NMtDS0=    0 NMtDT0=    0
 Symmetry not used in FoFCou.
 Leave Link  703 at Fri Mar 14 15:14:27 2025, MaxMem=  8589934592 cpu:              16.6 elap:               2.4
 (Enter /home/enzo/gaussian_versions/gdv.j21/gdv/l716.exe)
 Dipole        =-1.66948360D+00-5.13280281D-01-1.19570195D+00
 ***** Axes restored to original set *****
 -------------------------------------------------------------------
 Center     Atomic                   Forces (Hartrees/Bohr)
 Number     Number              X              Y              Z
 -------------------------------------------------------------------
      1        6          -0.000492321   -0.000408011   -0.000115881
      2        6           0.000231534   -0.000050365    0.000222776
      3       16           0.000499563   -0.000201593   -0.000180872
      4        6           0.000402971    0.000002361   -0.001096267
      5        8          -0.000050711    0.000149152    0.000590708
      6        7          -0.001076749    0.001496428    0.001204395
      7        6           0.000778784   -0.000921636    0.000893605
      8        6           0.000006992   -0.000171549   -0.003339783
      9        8          -0.000636804    0.000313995    0.001189310
     10        8           0.000013637   -0.000186648    0.001125733
     11        1           0.000111554    0.000011466   -0.000092797
     12        1           0.000089761    0.000040798    0.000001754
     13        1           0.000037538    0.000053962    0.000124143
     14        1          -0.000095763    0.000206799   -0.000089939
     15        1          -0.000172257   -0.000027543    0.000187776
     16        1           0.000101555   -0.000463038   -0.000483626
     17        1           0.000158019    0.000585860    0.000046364
     18        1          -0.000308691   -0.000007500   -0.000089523
     19        1           0.000401386   -0.000422938   -0.000097875
 -------------------------------------------------------------------
 Cartesian Forces:  Max     0.003339783 RMS     0.000669582
 Leave Link  716 at Fri Mar 14 15:14:28 2025, MaxMem=  8589934592 cpu:               0.2 elap:               0.3
 (Enter /home/enzo/gaussian_versions/gdv.j21/gdv/l103.exe)

 GradGradGradGradGradGradGradGradGradGradGradGradGradGradGradGradGradGrad
 Berny optimization.
 Using GEDIIS/GDIIS optimizer.
 FormGI is forming the generalized inverse of G from B-inverse, IUseBI=4.
 Internal  Forces:  Max     0.001247279 RMS     0.000376192
 Search for a local minimum.
 Step number  11 out of a maximum of   93
 All quantities printed in internal units (Hartrees-Bohrs-Radians)
 RMS Force = .37619D-03 SwitMx=.10000D-02 MixMth= 2
 Mixed Optimization -- En-DIIS/RFO-DIIS
 Swapping is turned off.
 Update second derivatives using D2CorX and points    8    9   10   11
 DE= -1.22D-04 DEPred=-1.52D-04 R= 8.02D-01
 TightC=F SS=  1.41D+00  RLast= 3.72D-01 DXNew= 2.3056D+00 1.1160D+00
 Trust test= 8.02D-01 RLast= 3.72D-01 DXMaxT set to 1.37D+00
 ITU=  1  1  1 -1  1  1  1  1  1  1  0
     Eigenvalues ---    0.00137   0.00269   0.00449   0.00453   0.00865
     Eigenvalues ---    0.00967   0.01282   0.02035   0.03837   0.04560
     Eigenvalues ---    0.04747   0.05203   0.05646   0.05758   0.05853
     Eigenvalues ---    0.06996   0.08234   0.10352   0.13776   0.15682
     Eigenvalues ---    0.15991   0.16009   0.16030   0.16068   0.17046
     Eigenvalues ---    0.18058   0.19974   0.21486   0.22303   0.22613
     Eigenvalues ---    0.24089   0.24858   0.25034   0.26731   0.27015
     Eigenvalues ---    0.30066   0.31848   0.32581   0.32598   0.32620
     Eigenvalues ---    0.32627   0.32718   0.32898   0.33632   0.37261
     Eigenvalues ---    0.40837   0.41874   0.46506   0.50016   0.80049
     Eigenvalues ---    0.81274
 En-DIIS/RFO-DIIS/Sim-DIIS IScMMF=       -3 using points:    11   10    9
 RFO step:  Lambda=-1.17121516D-04.
 NNeg= 0 NGDIIS= 3 SimSw=  2.50D-01 Rises=F DC= -1.22D-04 SmlDif=  1.00D-05
 NRisDI= 0 DoIntr=F SqrtH=F CThrHd= 10.0 CDAdj=  3.0
 RMS Error=  0.1542763512D-01 NUsed= 3 OKEnD=T EnDIS=F
 InvSVX:  RCond= 2.59D-03 Info=           0 Equed=N FErr=  2.94D-14 BErr=  1.38D-17
 DidBck=FF Rises=F RFO-DIIS coefs:    0.85908    0.72809   -0.58717
 Iteration  1 RMS(Cart)=  0.02077026 RMS(Int)=  0.00030369
 Iteration  2 RMS(Cart)=  0.00024660 RMS(Int)=  0.00024358
 Iteration  3 RMS(Cart)=  0.00000004 RMS(Int)=  0.00024358
 Variable       Old X    -DE/DX   Delta X   Delta X   Delta X     New X
                                 (Linear)    (Quad)   (Total)
    R1        2.88449  -0.00039  -0.00020  -0.00065  -0.00085   2.88365
    R2        2.06472   0.00013   0.00007   0.00017   0.00024   2.06495
    R3        2.07200   0.00002  -0.00015   0.00015   0.00000   2.07200
    R4        2.06490   0.00013   0.00011   0.00007   0.00018   2.06508
    R5        3.51394   0.00029  -0.00033   0.00116   0.00084   3.51478
    R6        2.89314   0.00023  -0.00042   0.00047   0.00005   2.89319
    R7        2.07141   0.00010   0.00019   0.00016   0.00035   2.07176
    R8        2.55242   0.00013   0.00007   0.00050   0.00057   2.55298
    R9        2.30701   0.00059   0.00035   0.00021   0.00056   2.30758
   R10        2.60259   0.00027   0.00013  -0.00067  -0.00054   2.60204
   R11        2.74631  -0.00063  -0.00012  -0.00099  -0.00111   2.74520
   R12        1.90971   0.00059  -0.00038   0.00106   0.00068   1.91039
   R13        2.90608   0.00016   0.00039  -0.00106  -0.00067   2.90541
   R14        2.06707   0.00038  -0.00047   0.00095   0.00048   2.06755
   R15        2.06511   0.00024  -0.00032   0.00073   0.00041   2.06551
   R16        2.27586   0.00094   0.00009   0.00086   0.00095   2.27681
   R17        2.54727   0.00074  -0.00031   0.00066   0.00035   2.54762
   R18        1.84588   0.00031  -0.00015   0.00065   0.00050   1.84638
    A1        1.92914   0.00002   0.00020  -0.00021  -0.00001   1.92913
    A2        1.92107   0.00012  -0.00078   0.00090   0.00012   1.92119
    A3        1.92431   0.00003   0.00033   0.00013   0.00045   1.92476
    A4        1.89982  -0.00009   0.00032  -0.00058  -0.00026   1.89956
    A5        1.90866  -0.00002   0.00048  -0.00023   0.00025   1.90892
    A6        1.87999  -0.00007  -0.00056  -0.00002  -0.00058   1.87941
    A7        1.97632  -0.00030   0.00012  -0.00085  -0.00073   1.97560
    A8        1.95429  -0.00012   0.00070  -0.00024   0.00047   1.95476
    A9        1.92762   0.00003  -0.00028  -0.00118  -0.00147   1.92615
   A10        1.87243   0.00039  -0.00066   0.00242   0.00176   1.87419
   A11        1.79733   0.00008  -0.00059   0.00118   0.00059   1.79792
   A12        1.92927  -0.00005   0.00062  -0.00118  -0.00057   1.92869
   A13        1.66705   0.00004   0.00051  -0.00029   0.00022   1.66727
   A14        2.13065  -0.00005   0.00005   0.00059   0.00063   2.13129
   A15        2.00658   0.00037  -0.00083   0.00168   0.00085   2.00743
   A16        2.14406  -0.00032   0.00076  -0.00245  -0.00169   2.14237
   A17        2.13058   0.00068   0.00083   0.00227   0.00184   2.13242
   A18        2.07439  -0.00043   0.00328  -0.00176   0.00025   2.07464
   A19        2.06697  -0.00021   0.00179   0.00145   0.00196   2.06893
   A20        1.99017   0.00072   0.00120   0.00145   0.00265   1.99282
   A21        1.86842  -0.00030  -0.00079   0.00281   0.00202   1.87045
   A22        1.94679  -0.00014  -0.00023  -0.00217  -0.00240   1.94439
   A23        1.88309   0.00027  -0.00077   0.00107   0.00030   1.88339
   A24        1.88437  -0.00054   0.00007  -0.00208  -0.00201   1.88236
   A25        1.88762  -0.00002   0.00047  -0.00105  -0.00058   1.88704
   A26        2.12799  -0.00077  -0.00028  -0.00213  -0.00253   2.12546
   A27        2.02142   0.00125   0.00122   0.00246   0.00357   2.02499
   A28        2.13377  -0.00048  -0.00067  -0.00028  -0.00107   2.13270
   A29        1.90335   0.00092   0.00235   0.00201   0.00436   1.90771
    D1        0.95007  -0.00008  -0.00040   0.00018  -0.00021   0.94985
    D2        3.06987   0.00012  -0.00065   0.00256   0.00192   3.07179
    D3       -1.05517  -0.00001   0.00044  -0.00001   0.00044  -1.05473
    D4        3.04927  -0.00010  -0.00037  -0.00009  -0.00046   3.04881
    D5       -1.11411   0.00010  -0.00062   0.00229   0.00167  -1.11244
    D6        1.04404  -0.00003   0.00047  -0.00028   0.00019   1.04423
    D7       -1.16231  -0.00009  -0.00134   0.00052  -0.00082  -1.16313
    D8        0.95749   0.00010  -0.00159   0.00290   0.00131   0.95880
    D9        3.11564  -0.00002  -0.00050   0.00033  -0.00017   3.11547
   D10        1.04885   0.00018   0.02943  -0.00126   0.02817   1.07702
   D11       -1.11634   0.00026   0.02892  -0.00216   0.02677  -1.08957
   D12        3.13065   0.00011   0.02879  -0.00238   0.02641  -3.12612
   D13       -0.60581   0.00002   0.01764  -0.00413   0.01351  -0.59230
   D14        2.59999   0.00013   0.01792  -0.00090   0.01702   2.61701
   D15        1.57276  -0.00017   0.01780  -0.00365   0.01415   1.58691
   D16       -1.50463  -0.00006   0.01808  -0.00042   0.01766  -1.48697
   D17       -2.76304   0.00010   0.01705  -0.00156   0.01549  -2.74755
   D18        0.44276   0.00022   0.01733   0.00167   0.01900   0.46176
   D19        3.09176  -0.00015  -0.00906  -0.00914  -0.01829   3.07347
   D20       -0.21298   0.00008   0.00914   0.00512   0.01435  -0.19864
   D21        0.01493  -0.00005  -0.00875  -0.00601  -0.01486   0.00007
   D22        2.99337   0.00018   0.00945   0.00824   0.01778   3.01115
   D23       -1.93576  -0.00018   0.00938   0.00360   0.01297  -1.92279
   D24        0.14554   0.00038   0.00861   0.00773   0.01633   0.16187
   D25        2.20726   0.00010   0.00857   0.00697   0.01553   2.22279
   D26        1.36832  -0.00039  -0.00912  -0.01031  -0.01942   1.34890
   D27       -2.83356   0.00018  -0.00989  -0.00618  -0.01605  -2.84962
   D28       -0.77184  -0.00011  -0.00993  -0.00694  -0.01686  -0.78870
   D29       -2.85626  -0.00038  -0.00870   0.00114  -0.00756  -2.86381
   D30        0.28240   0.00068  -0.01702   0.02156   0.00454   0.28694
   D31        1.35395  -0.00063  -0.00792  -0.00402  -0.01194   1.34202
   D32       -1.79058   0.00043  -0.01624   0.01640   0.00016  -1.79042
   D33       -0.68234  -0.00046  -0.00811  -0.00226  -0.01036  -0.69270
   D34        2.45632   0.00059  -0.01643   0.01816   0.00173   2.45805
   D35       -0.00356  -0.00058  -0.00087  -0.00911  -0.00998  -0.01354
   D36        3.13509   0.00048  -0.00921   0.01138   0.00217   3.13725
         Item               Value     Threshold  Converged?
 Maximum Force            0.001247     0.000450     NO 
 RMS     Force            0.000376     0.000300     NO 
 Maximum Displacement     0.111535     0.001800     NO 
 RMS     Displacement     0.020804     0.001200     NO 
 Predicted change in Energy=-5.312070D-05
 Lowest energy point so far.  Saving SCF results.
 GradGradGradGradGradGradGradGradGradGradGradGradGradGradGradGradGradGrad

 Leave Link  103 at Fri Mar 14 15:14:28 2025, MaxMem=  8589934592 cpu:               2.9 elap:               0.6
 (Enter /home/enzo/gaussian_versions/gdv.j21/gdv/l202.exe)
                          Input orientation:                          
 ---------------------------------------------------------------------
 Center     Atomic      Atomic             Coordinates (Angstroms)
 Number     Number       Type             X           Y           Z
 ---------------------------------------------------------------------
      1          6           0        2.831853    1.280085   -0.731338
      2          6           0        1.644299    0.346580   -0.947756
      3         16           0        2.028402   -1.430447   -0.555301
      4          6           0        0.434992    0.751065   -0.100428
      5          8           0        0.556165    1.242330    1.010922
      6          7           0       -0.789734    0.442891   -0.649105
      7          6           0       -2.036210    0.680970    0.057963
      8          6           0       -2.755807   -0.598821    0.514197
      9          8           0       -3.911919   -0.590194    0.853260
     10          8           0       -2.013402   -1.724104    0.521857
     11          1           0        3.701956    0.929567   -1.291791
     12          1           0        2.579935    2.293389   -1.065951
     13          1           0        3.082576    1.334036    0.330935
     14          1           0        1.374793    0.312144   -2.009884
     15          1           0        2.310437   -1.217709    0.748672
     16          1           0       -0.831188    0.145551   -1.614434
     17          1           0       -1.794835    1.267323    0.949582
     18          1           0       -2.735708    1.259894   -0.550516
     19          1           0       -1.110760   -1.517670    0.209975
 ---------------------------------------------------------------------
                    Distance matrix (angstroms):
                    1          2          3          4          5
     1  C    0.000000
     2  C    1.525960   0.000000
     3  S    2.832579   1.859941   0.000000
     4  C    2.534335   1.531010   2.739499   0.000000
     5  O    2.866297   2.413052   3.429909   1.221116   0.000000
     6  N    3.718004   2.454177   3.385275   1.376943   2.281718
     7  C    4.967895   3.830069   4.621174   2.477265   2.818451
     8  C    6.025246   4.732020   4.972332   3.518687   3.821745
     9  O    7.175470   5.915468   6.162588   4.648025   4.831850
    10  O    5.837135   4.452670   4.193171   3.536712   3.954945
    11  H    1.092725   2.166146   2.985442   3.481991   3.911050
    12  H    1.096455   2.163204   3.798935   2.812788   3.084440
    13  H    1.092793   2.163044   3.088537   2.745110   2.617928
    14  H    2.166705   1.096328   2.362125   2.172993   3.265068
    15  H    2.949793   2.401793   1.350980   2.848567   3.032827
    16  H    3.935085   2.571557   3.432607   2.064479   3.165465
    17  H    4.922591   4.034265   4.915260   2.518169   2.351933
    18  H    5.570533   4.491814   5.471261   3.242657   3.643463
    19  H    4.925211   3.522231   3.232274   2.762762   3.322312
                    6          7          8          9         10
     6  N    0.000000
     7  C    1.452697   0.000000
     8  C    2.510753   1.537477   0.000000
     9  O    3.615578   2.401383   1.204837   0.000000
    10  O    2.750342   2.449510   1.348141   2.236056   0.000000
    11  H    4.563462   5.900016   6.877519   8.054938   6.557180
    12  H    3.866881   5.017157   6.271514   7.358165   6.305563
    13  H    4.092603   5.167492   6.152742   7.273132   5.946230
    14  H    2.560077   4.005867   4.925718   6.079567   4.694239
    15  H    3.784499   4.793266   5.109288   6.254792   4.359296
    16  H    1.010935   2.129710   2.964679   4.015189   3.075221
    17  H    2.060513   1.094100   2.143716   2.818101   3.029745
    18  H    2.112824   1.093022   2.142158   2.603246   3.252069
    19  H    2.164458   2.390311   1.908668   3.020020   0.977061
                   11         12         13         14         15
    11  H    0.000000
    12  H    1.780434   0.000000
    13  H    1.783386   1.767568   0.000000
    14  H    2.512480   2.503739   3.072493   0.000000
    15  H    3.272707   3.961476   2.698537   3.290214   0.000000
    16  H    4.611744   4.068145   4.529294   2.247329   4.160836
    17  H    5.945801   4.924814   4.916941   4.440422   4.803020
    18  H    6.488615   5.439654   5.885140   4.463653   5.769747
    19  H    5.604151   5.456499   5.072566   3.801837   3.476313
                   16         17         18         19
    16  H    0.000000
    17  H    2.959927   0.000000
    18  H    2.449668   1.770760   0.000000
    19  H    2.484539   2.961615   3.306609   0.000000
 Stoichiometry    C5H9NO3S
 Framework group  C1[X(C5H9NO3S)]
 Deg. of freedom    51
 Full point group                 C1      NOp   1
 RotChk:  IX=0 Diff= 7.66D-03
 Largest Abelian subgroup         C1      NOp   1
 Largest concise Abelian subgroup C1      NOp   1
                         Standard orientation:                         
 ---------------------------------------------------------------------
 Center     Atomic      Atomic             Coordinates (Angstroms)
 Number     Number       Type             X           Y           Z
 ---------------------------------------------------------------------
      1          6           0       -3.145985   -1.026740   -0.063793
      2          6           0       -1.931239   -0.211812   -0.498348
      3         16           0       -2.018020    1.569940    0.028160
      4          6           0       -0.625600   -0.789152    0.054805
      5          8           0       -0.566378   -1.328571    1.148718
      6          7           0        0.483789   -0.579706   -0.733458
      7          6           0        1.815171   -0.987606   -0.319490
      8          6           0        2.756416    0.181174    0.014945
      9          8           0        3.949145    0.031860    0.097025
     10          8           0        2.166227    1.375691    0.220589
     11          1           0       -4.068251   -0.555130   -0.411728
     12          1           0       -3.087819   -2.039764   -0.479260
     13          1           0       -3.172695   -1.115574    1.025056
     14          1           0       -1.888499   -0.144327   -1.591762
     15          1           0       -2.042622    1.312739    1.354203
     16          1           0        0.355563   -0.232926   -1.674358
     17          1           0        1.700660   -1.596107    0.582546
     18          1           0        2.300276   -1.600394   -1.083597
     19          1           0        1.200651    1.283364    0.103175
 ---------------------------------------------------------------------
 Rotational constants (GHZ):           2.1682922           0.5878595           0.5029778
 Leave Link  202 at Fri Mar 14 15:14:29 2025, MaxMem=  8589934592 cpu:               0.1 elap:               0.2
 (Enter /home/enzo/gaussian_versions/gdv.j21/gdv/l301.exe)
 Standard basis: 6-31G(d) (6D, 7F)
 Ernie: Thresh=  0.10000D-02 Tol=  0.10000D-05 Strict=F.
 There are   172 symmetry adapted cartesian basis functions of A   symmetry.
 There are   172 symmetry adapted basis functions of A   symmetry.
   172 basis functions,   340 primitive gaussians,   172 cartesian basis functions
    43 alpha electrons       43 beta electrons
       nuclear repulsion energy       624.8132329191 Hartrees.
 IExCor=      4002 DFT=T Ex+Corr=B3LYP ScaHFX=  0.200000
 ScaDFX=  0.800000  0.720000  1.000000  0.810000  1.000000  0.000000
 ScaDFX=  0.000000  0.000000  0.000000  0.000000  0.000000  0.000000
 IRadAn=      5 IRanWt=     -1 IRanGd=            0 ICorTp=0 IEmpDi=  4
 NAtoms=   19 NActive=   19 NUniq=   19 SFac= 1.00D+00 NAtFMM=   60 NAOKFM=F Big=F
 Integral buffers will be    131072 words long.
 Raffenetti 2 integral format.
 Two-electron integral symmetry is turned on.
 Leave Link  301 at Fri Mar 14 15:14:29 2025, MaxMem=  8589934592 cpu:               0.8 elap:               0.4
 (Enter /home/enzo/gaussian_versions/gdv.j21/gdv/l302.exe)
 NPDir=0 NMtPBC=     1 NCelOv=     1 NCel=       1 NClECP=     1 NCelD=      1
         NCelK=      1 NCelE2=     1 NClLst=     1 CellRange=     0.0.
 One-electron integrals computed using PRISM.
 One-electron integral symmetry used in STVInt
 NBasis=   172 RedAO= T EigKep=  2.78D-03  NBF=   172
 NBsUse=   172 1.00D-06 EigRej= -1.00D+00 NBFU=   172
 Precomputing XC quadrature grid using
 IXCGrd= 4 IRadAn=           5 IRanWt=          -1 IRanGd=           0 AccXCQ= 0.00D+00.
 Generated NRdTot=       0 NPtTot=      406245 NUsed=           0 NTot=          64
 NSgBfM=   171   171   171   171   171 MxSgAt=    19 MxSgA2=    19 SizInc=   0.000
 NMBTot=     3403 MaxBatPerAtom=       85 MaxMicBPerAtom=      195 NBfPt=            51752622.
 Leave Link  302 at Fri Mar 14 15:14:31 2025, MaxMem=  8589934592 cpu:              10.1 elap:               1.6
 (Enter /home/enzo/gaussian_versions/gdv.j21/gdv/l303.exe)
 DipDrv:  MaxL=1.
 Leave Link  303 at Fri Mar 14 15:14:31 2025, MaxMem=  8589934592 cpu:               1.0 elap:               0.5
 (Enter /home/enzo/gaussian_versions/gdv.j21/gdv/l401.exe)
 Initial guess from the checkpoint file:  "/local/home/enzo/scratch/Gau-2337715.chk"
 B after Tr=    -0.000000   -0.000000   -0.000000
         Rot=    0.999999   -0.001152   -0.000332    0.001082 Ang=  -0.19 deg.
 AO Guess basis will be translated and rotated to current coordinates.
 JPrj=2 DoOrth=T DoCkMO=T.
 Generating alternative initial guess.
 ExpMin= 1.17D-01 ExpMax= 2.19D+04 ExpMxC= 3.30D+03 IAcc=3 IRadAn=         5 AccDes= 0.00D+00
 Harris functional with IExCor= 4002 and IRadAn=       5 diagonalized for initial guess.
 HarFok:  IExCor=    4002 AccDes= 0.00D+00 IRadAn=         5 IDoV= 1 UseB2=F ITyADJ=14 ICtDFT=  3500011
 FoFCou: FMM=F IPFlag=           0 FMFlag=      100000 FMFlg1=           0
         NFxFlg=           0 DoJE=T BraDBF=F KetDBF=T FulRan=T
         wScrn=  0.000000 ICntrl=       500 IOpCl=  0 I1Cent=   200000004 NGrid=           0
         NMat0=    1 NMatS0=      1 NMatT0=    0 NMatD0=    1 NMtDS0=    0 NMtDT0=    0
 Petite list used in FoFCou.
 Harris En= -874.550071172870    
 Leave Link  401 at Fri Mar 14 15:14:33 2025, MaxMem=  8589934592 cpu:              10.0 elap:               1.5
 (Enter /home/enzo/gaussian_versions/gdv.j21/gdv/l502.exe)
 Integral symmetry usage will be decided dynamically.
 Closed shell SCF:
 Using DIIS extrapolation, IDIIS=  1040.
 NGot=  8589934592 LenX=  8589843591 LenY=  8589813566
 Requested convergence on RMS density matrix=1.00D-08 within 128 cycles.
 Requested convergence on MAX density matrix=1.00D-06.
 Requested convergence on             energy=1.00D-06.
 No special actions if energy rises.
 Fock matrices will be formed incrementally for  20 cycles.
 Integral accuracy reduced to 1.0D-05 until final iterations.

 Cycle   1  Pass 0  IDiag  1:
 FoFJK:  IHMeth= 1 ICntrl=       0 DoSepK=F KAlg= 0 I1Cent=           0 FoldK=F
 IRaf= 910000000 NMat=       1 IRICut=       1 DoRegI=T DoRafI=F ISym2E= 0 IDoP0=0 IntGTp=1.
 FoFCou: FMM=F IPFlag=           0 FMFlag=      100000 FMFlg1=           0
         NFxFlg=           0 DoJE=F BraDBF=F KetDBF=F FulRan=T
         wScrn=  0.000000 ICntrl=         0 IOpCl=  0 I1Cent=           0 NGrid=           0
         NMat0=    1 NMatS0=      1 NMatT0=    0 NMatD0=    1 NMtDS0=    0 NMtDT0=    0
 Symmetry not used in FoFCou.
 E= -874.580335919009    
 DIIS: error= 7.62D-04 at cycle   1 NSaved=   1.
 NSaved= 1 IEnMin= 1 EnMin= -874.580335919009     IErMin= 1 ErrMin= 7.62D-04
 ErrMax= 7.62D-04  0.00D+00 EMaxC= 1.00D-01 BMatC= 2.85D-04 BMatP= 2.85D-04
 IDIUse=3 WtCom= 9.92D-01 WtEn= 7.62D-03
 Coeff-Com:  0.100D+01
 Coeff-En:   0.100D+01
 Coeff:      0.100D+01
 Gap=     1.521 Goal=   None    Shift=    0.000
 RMSDP=2.04D-04 MaxDP=7.34D-03              OVMax= 9.00D-03

 Cycle   2  Pass 0  IDiag  1:
 RMSU=  2.04D-04    CP:  1.00D+00
 E= -874.580930157494     Delta-E=       -0.000594238486 Rises=F Damp=F
 DIIS: error= 1.29D-04 at cycle   2 NSaved=   2.
 NSaved= 2 IEnMin= 2 EnMin= -874.580930157494     IErMin= 2 ErrMin= 1.29D-04
 ErrMax= 1.29D-04  0.00D+00 EMaxC= 1.00D-01 BMatC= 5.87D-06 BMatP= 2.85D-04
 IDIUse=3 WtCom= 9.99D-01 WtEn= 1.29D-03
 Coeff-Com: -0.552D-01 0.106D+01
 Coeff-En:   0.000D+00 0.100D+01
 Coeff:     -0.552D-01 0.106D+01
 Gap=     0.230 Goal=   None    Shift=    0.000
 RMSDP=4.38D-05 MaxDP=1.79D-03 DE=-5.94D-04 OVMax= 1.71D-03

 Cycle   3  Pass 0  IDiag  1:
 RMSU=  3.79D-05    CP:  1.00D+00  1.11D+00
 E= -874.580931533226     Delta-E=       -0.000001375732 Rises=F Damp=F
 DIIS: error= 2.65D-04 at cycle   3 NSaved=   3.
 NSaved= 3 IEnMin= 3 EnMin= -874.580931533226     IErMin= 2 ErrMin= 1.29D-04
 ErrMax= 2.65D-04  0.00D+00 EMaxC= 1.00D-01 BMatC= 1.19D-05 BMatP= 5.87D-06
 IDIUse=3 WtCom= 3.81D-01 WtEn= 6.19D-01
 Coeff-Com: -0.500D-01 0.660D+00 0.390D+00
 Coeff-En:   0.000D+00 0.445D+00 0.555D+00
 Coeff:     -0.190D-01 0.527D+00 0.492D+00
 Gap=     0.230 Goal=   None    Shift=    0.000
 RMSDP=2.53D-05 MaxDP=9.84D-04 DE=-1.38D-06 OVMax= 1.80D-03

 Cycle   4  Pass 0  IDiag  1:
 RMSU=  1.69D-05    CP:  1.00D+00  1.12D+00  5.13D-01
 E= -874.580938187212     Delta-E=       -0.000006653985 Rises=F Damp=F
 DIIS: error= 1.62D-04 at cycle   4 NSaved=   4.
 NSaved= 4 IEnMin= 4 EnMin= -874.580938187212     IErMin= 2 ErrMin= 1.29D-04
 ErrMax= 1.62D-04  0.00D+00 EMaxC= 1.00D-01 BMatC= 3.63D-06 BMatP= 5.87D-06
 IDIUse=3 WtCom= 9.98D-01 WtEn= 1.62D-03
 Coeff-Com: -0.195D-01 0.206D+00 0.351D+00 0.463D+00
 Coeff-En:   0.000D+00 0.000D+00 0.268D+00 0.732D+00
 Coeff:     -0.195D-01 0.205D+00 0.351D+00 0.464D+00
 Gap=     0.230 Goal=   None    Shift=    0.000
 RMSDP=9.60D-06 MaxDP=4.30D-04 DE=-6.65D-06 OVMax= 7.30D-04

 Initial convergence to 1.0D-05 achieved.  Increase integral accuracy.
 Cycle   5  Pass 1  IDiag  1:
 E= -874.580925630453     Delta-E=        0.000012556759 Rises=F Damp=F
 DIIS: error= 1.28D-05 at cycle   1 NSaved=   1.
 NSaved= 1 IEnMin= 1 EnMin= -874.580925630453     IErMin= 1 ErrMin= 1.28D-05
 ErrMax= 1.28D-05  0.00D+00 EMaxC= 1.00D-01 BMatC= 1.13D-07 BMatP= 1.13D-07
 IDIUse=1 WtCom= 1.00D+00 WtEn= 0.00D+00
 Coeff-Com:  0.100D+01
 Coeff:      0.100D+01
 Gap=     0.230 Goal=   None    Shift=    0.000
 RMSDP=9.60D-06 MaxDP=4.30D-04 DE= 1.26D-05 OVMax= 1.75D-04

 Cycle   6  Pass 1  IDiag  1:
 RMSU=  5.82D-06    CP:  1.00D+00
 E= -874.580925464692     Delta-E=        0.000000165761 Rises=F Damp=F
 DIIS: error= 2.69D-05 at cycle   2 NSaved=   2.
 NSaved= 2 IEnMin= 1 EnMin= -874.580925630453     IErMin= 1 ErrMin= 1.28D-05
 ErrMax= 2.69D-05  0.00D+00 EMaxC= 1.00D-01 BMatC= 3.24D-07 BMatP= 1.13D-07
 IDIUse=1 WtCom= 1.00D+00 WtEn= 0.00D+00
 Coeff-Com:  0.635D+00 0.365D+00
 Coeff:      0.635D+00 0.365D+00
 Gap=     0.230 Goal=   None    Shift=    0.000
 RMSDP=3.22D-06 MaxDP=1.05D-04 DE= 1.66D-07 OVMax= 1.52D-04

 Cycle   7  Pass 1  IDiag  1:
 RMSU=  2.24D-06    CP:  1.00D+00  6.06D-01
 E= -874.580925724860     Delta-E=       -0.000000260168 Rises=F Damp=F
 DIIS: error= 6.63D-06 at cycle   3 NSaved=   3.
 NSaved= 3 IEnMin= 3 EnMin= -874.580925724860     IErMin= 3 ErrMin= 6.63D-06
 ErrMax= 6.63D-06  0.00D+00 EMaxC= 1.00D-01 BMatC= 1.00D-08 BMatP= 1.13D-07
 IDIUse=1 WtCom= 1.00D+00 WtEn= 0.00D+00
 Coeff-Com:  0.272D+00 0.198D+00 0.529D+00
 Coeff:      0.272D+00 0.198D+00 0.529D+00
 Gap=     0.230 Goal=   None    Shift=    0.000
 RMSDP=7.54D-07 MaxDP=2.12D-05 DE=-2.60D-07 OVMax= 3.81D-05

 Cycle   8  Pass 1  IDiag  1:
 RMSU=  6.76D-07    CP:  1.00D+00  6.17D-01  8.56D-01
 E= -874.580925731228     Delta-E=       -0.000000006368 Rises=F Damp=F
 DIIS: error= 2.32D-06 at cycle   4 NSaved=   4.
 NSaved= 4 IEnMin= 4 EnMin= -874.580925731228     IErMin= 4 ErrMin= 2.32D-06
 ErrMax= 2.32D-06  0.00D+00 EMaxC= 1.00D-01 BMatC= 2.11D-09 BMatP= 1.00D-08
 IDIUse=1 WtCom= 1.00D+00 WtEn= 0.00D+00
 Coeff-Com:  0.873D-02 0.328D-01 0.336D+00 0.622D+00
 Coeff:      0.873D-02 0.328D-01 0.336D+00 0.622D+00
 Gap=     0.230 Goal=   None    Shift=    0.000
 RMSDP=2.48D-07 MaxDP=8.04D-06 DE=-6.37D-09 OVMax= 9.66D-06

 Cycle   9  Pass 1  IDiag  1:
 RMSU=  1.43D-07    CP:  1.00D+00  6.26D-01  8.96D-01  7.43D-01
 E= -874.580925732845     Delta-E=       -0.000000001618 Rises=F Damp=F
 DIIS: error= 4.99D-07 at cycle   5 NSaved=   5.
 NSaved= 5 IEnMin= 5 EnMin= -874.580925732845     IErMin= 5 ErrMin= 4.99D-07
 ErrMax= 4.99D-07  0.00D+00 EMaxC= 1.00D-01 BMatC= 1.04D-10 BMatP= 2.11D-09
 IDIUse=1 WtCom= 1.00D+00 WtEn= 0.00D+00
 Coeff-Com: -0.642D-02 0.949D-02 0.162D+00 0.336D+00 0.499D+00
 Coeff:     -0.642D-02 0.949D-02 0.162D+00 0.336D+00 0.499D+00
 Gap=     0.230 Goal=   None    Shift=    0.000
 RMSDP=6.96D-08 MaxDP=2.22D-06 DE=-1.62D-09 OVMax= 2.10D-06

 Cycle  10  Pass 1  IDiag  1:
 RMSU=  5.19D-08    CP:  1.00D+00  6.30D-01  8.99D-01  7.24D-01  7.22D-01
 E= -874.580925732922     Delta-E=       -0.000000000077 Rises=F Damp=F
 DIIS: error= 1.37D-07 at cycle   6 NSaved=   6.
 NSaved= 6 IEnMin= 6 EnMin= -874.580925732922     IErMin= 6 ErrMin= 1.37D-07
 ErrMax= 1.37D-07  0.00D+00 EMaxC= 1.00D-01 BMatC= 7.59D-12 BMatP= 1.04D-10
 IDIUse=1 WtCom= 1.00D+00 WtEn= 0.00D+00
 Coeff-Com: -0.385D-02 0.278D-02 0.626D-01 0.134D+00 0.268D+00 0.536D+00
 Coeff:     -0.385D-02 0.278D-02 0.626D-01 0.134D+00 0.268D+00 0.536D+00
 Gap=     0.230 Goal=   None    Shift=    0.000
 RMSDP=2.16D-08 MaxDP=5.51D-07 DE=-7.69D-11 OVMax= 8.23D-07

 Cycle  11  Pass 1  IDiag  1:
 RMSU=  1.99D-08    CP:  1.00D+00  6.30D-01  9.02D-01  7.24D-01  7.47D-01
                    CP:  9.19D-01
 E= -874.580925732918     Delta-E=        0.000000000005 Rises=F Damp=F
 DIIS: error= 6.54D-08 at cycle   7 NSaved=   7.
 NSaved= 7 IEnMin= 6 EnMin= -874.580925732922     IErMin= 7 ErrMin= 6.54D-08
 ErrMax= 6.54D-08  0.00D+00 EMaxC= 1.00D-01 BMatC= 1.38D-12 BMatP= 7.59D-12
 IDIUse=1 WtCom= 1.00D+00 WtEn= 0.00D+00
 Coeff-Com: -0.810D-03-0.516D-03 0.314D-03 0.280D-02 0.446D-01 0.313D+00
 Coeff-Com:  0.641D+00
 Coeff:     -0.810D-03-0.516D-03 0.314D-03 0.280D-02 0.446D-01 0.313D+00
 Coeff:      0.641D+00
 Gap=     0.230 Goal=   None    Shift=    0.000
 RMSDP=1.01D-08 MaxDP=2.54D-07 DE= 4.55D-12 OVMax= 5.03D-07

 Cycle  12  Pass 1  IDiag  1:
 RMSU=  7.31D-09    CP:  1.00D+00  6.30D-01  9.02D-01  7.29D-01  7.66D-01
                    CP:  1.01D+00  8.68D-01
 E= -874.580925732929     Delta-E=       -0.000000000012 Rises=F Damp=F
 DIIS: error= 3.89D-08 at cycle   8 NSaved=   8.
 NSaved= 8 IEnMin= 8 EnMin= -874.580925732929     IErMin= 8 ErrMin= 3.89D-08
 ErrMax= 3.89D-08  0.00D+00 EMaxC= 1.00D-01 BMatC= 4.02D-13 BMatP= 1.38D-12
 IDIUse=1 WtCom= 1.00D+00 WtEn= 0.00D+00
 Coeff-Com:  0.171D-03-0.845D-03-0.115D-01-0.231D-01-0.209D-01 0.110D+00
 Coeff-Com:  0.431D+00 0.515D+00
 Coeff:      0.171D-03-0.845D-03-0.115D-01-0.231D-01-0.209D-01 0.110D+00
 Coeff:      0.431D+00 0.515D+00
 Gap=     0.230 Goal=   None    Shift=    0.000
 RMSDP=4.43D-09 MaxDP=1.02D-07 DE=-1.18D-11 OVMax= 1.71D-07

 SCF Done:  E(RB3LYP) =  -874.580925733     A.U. after   12 cycles
            NFock= 12  Conv=0.44D-08     -V/T= 2.0064
 KE= 8.690165007638D+02 PE=-3.308691466643D+03 EE= 9.402808072275D+02
 Leave Link  502 at Fri Mar 14 15:14:43 2025, MaxMem=  8589934592 cpu:              80.8 elap:              10.1
 (Enter /home/enzo/gaussian_versions/gdv.j21/gdv/l701.exe)
 ... and contract with generalized density number  0.
 Compute integral first derivatives.
 Leave Link  701 at Fri Mar 14 15:14:43 2025, MaxMem=  8589934592 cpu:               2.4 elap:               0.5
 (Enter /home/enzo/gaussian_versions/gdv.j21/gdv/l702.exe)
 L702 exits ... SP integral derivatives will be done elsewhere.
 Leave Link  702 at Fri Mar 14 15:14:44 2025, MaxMem=  8589934592 cpu:               0.3 elap:               0.3
 (Enter /home/enzo/gaussian_versions/gdv.j21/gdv/l703.exe)
 Integral derivatives from FoFJK, PRISM(SPDF).
 Compute integral first derivatives, UseDBF=F ICtDFT=           0.
 Calling FoFJK, ICntrl=      2127 FMM=F ISym2X=0 I1Cent= 0 IOpClX= 0 NMat=1 NMatS=1 NMatT=0.
 FoFJK:  IHMeth= 1 ICntrl=    2127 DoSepK=F KAlg= 0 I1Cent=           0 FoldK=F
 IRaf=         0 NMat=       1 IRICut=       1 DoRegI=T DoRafI=F ISym2E= 0 IDoP0=0 IntGTp=1.
 FoFCou: FMM=F IPFlag=           0 FMFlag=      100000 FMFlg1=         800
         NFxFlg=           0 DoJE=F BraDBF=F KetDBF=F FulRan=T
         wScrn=  0.000000 ICntrl=      2127 IOpCl=  0 I1Cent=           0 NGrid=           0
         NMat0=    1 NMatS0=      1 NMatT0=    0 NMatD0=    1 NMtDS0=    0 NMtDT0=    0
 Symmetry not used in FoFCou.
 Leave Link  703 at Fri Mar 14 15:14:46 2025, MaxMem=  8589934592 cpu:              16.5 elap:               2.5
 (Enter /home/enzo/gaussian_versions/gdv.j21/gdv/l716.exe)
 Dipole        =-1.66084164D+00-4.86633700D-01-1.19810666D+00
 ***** Axes restored to original set *****
 -------------------------------------------------------------------
 Center     Atomic                   Forces (Hartrees/Bohr)
 Number     Number              X              Y              Z
 -------------------------------------------------------------------
      1        6          -0.000271195   -0.000184537    0.000062860
      2        6           0.000314615    0.000150160   -0.000138738
      3       16           0.000099111   -0.000138728    0.000050698
      4        6          -0.000265770   -0.000499352   -0.000367257
      5        8           0.000269339    0.000199357    0.000294967
      6        7          -0.000460509    0.001125208    0.000783913
      7        6           0.000468578   -0.000650915    0.000039342
      8        6          -0.000330348    0.000038026   -0.001476384
      9        8          -0.000029696    0.000066148    0.000434156
     10        8           0.000175873   -0.000136046    0.000519091
     11        1           0.000046788    0.000018463   -0.000007732
     12        1           0.000051913    0.000028303   -0.000013519
     13        1           0.000064453    0.000014931    0.000038125
     14        1          -0.000149197    0.000064032    0.000021848
     15        1           0.000038179    0.000025976    0.000024758
     16        1          -0.000023108   -0.000277189   -0.000183710
     17        1           0.000236265    0.000309373   -0.000136061
     18        1          -0.000285992    0.000046583    0.000078882
     19        1           0.000050701   -0.000199793   -0.000025241
 -------------------------------------------------------------------
 Cartesian Forces:  Max     0.001476384 RMS     0.000348800
 Leave Link  716 at Fri Mar 14 15:14:46 2025, MaxMem=  8589934592 cpu:               0.2 elap:               0.2
 (Enter /home/enzo/gaussian_versions/gdv.j21/gdv/l103.exe)

 GradGradGradGradGradGradGradGradGradGradGradGradGradGradGradGradGradGrad
 Berny optimization.
 Using GEDIIS/GDIIS optimizer.
 FormGI is forming the generalized inverse of G from B-inverse, IUseBI=4.
 Internal  Forces:  Max     0.000606728 RMS     0.000198119
 Search for a local minimum.
 Step number  12 out of a maximum of   93
 All quantities printed in internal units (Hartrees-Bohrs-Radians)
 RMS Force = .19812D-03 SwitMx=.10000D-02 MixMth= 2
 Mixed Optimization -- En-DIIS/RFO-DIIS
 Swapping is turned off.
 Update second derivatives using D2CorX and points    9   10   11   12
 DE= -5.65D-05 DEPred=-5.31D-05 R= 1.06D+00
 TightC=F SS=  1.41D+00  RLast= 8.36D-02 DXNew= 2.3056D+00 2.5091D-01
 Trust test= 1.06D+00 RLast= 8.36D-02 DXMaxT set to 1.37D+00
 ITU=  1  1  1  1 -1  1  1  1  1  1  1  0
     Eigenvalues ---    0.00141   0.00266   0.00451   0.00579   0.00875
     Eigenvalues ---    0.00962   0.01282   0.01918   0.03933   0.04329
     Eigenvalues ---    0.04728   0.05249   0.05608   0.05659   0.05770
     Eigenvalues ---    0.06773   0.08318   0.10338   0.13195   0.15709
     Eigenvalues ---    0.15965   0.16002   0.16019   0.16060   0.17118
     Eigenvalues ---    0.17986   0.19976   0.21527   0.21821   0.22605
     Eigenvalues ---    0.24034   0.24790   0.24959   0.26329   0.27108
     Eigenvalues ---    0.30009   0.31827   0.32582   0.32607   0.32616
     Eigenvalues ---    0.32635   0.32718   0.32830   0.33594   0.36848
     Eigenvalues ---    0.40747   0.41819   0.46540   0.49738   0.79833
     Eigenvalues ---    0.81398
 En-DIIS/RFO-DIIS/Sim-DIIS IScMMF=       -3 using points:    12   11   10    9
 RFO step:  Lambda=-4.50897502D-05.
 NNeg= 0 NGDIIS= 4 SimSw=  2.50D-01 Rises=F DC= -5.65D-05 SmlDif=  1.00D-05
 NRisDI= 0 DoIntr=F SqrtH=F CThrHd= 10.0 CDAdj=  3.0
 RMS Error=  0.1017115209D-01 NUsed= 4 OKEnD=T EnDIS=F
 InvSVX:  RCond= 9.04D-05 Info=           0 Equed=N FErr=  1.32D-13 BErr=  9.18D-17
 DidBck=FF Rises=F RFO-DIIS coefs:    1.72485   -0.57663   -0.23697    0.08874
 Iteration  1 RMS(Cart)=  0.01839872 RMS(Int)=  0.00020484
 Iteration  2 RMS(Cart)=  0.00027585 RMS(Int)=  0.00013655
 Iteration  3 RMS(Cart)=  0.00000003 RMS(Int)=  0.00013655
 Variable       Old X    -DE/DX   Delta X   Delta X   Delta X     New X
                                 (Linear)    (Quad)   (Total)
    R1        2.88365  -0.00015  -0.00079  -0.00001  -0.00080   2.88284
    R2        2.06495   0.00004   0.00009   0.00000   0.00009   2.06504
    R3        2.07200   0.00002  -0.00008  -0.00003  -0.00011   2.07189
    R4        2.06508   0.00005   0.00003   0.00010   0.00013   2.06521
    R5        3.51478   0.00015   0.00113  -0.00003   0.00110   3.51588
    R6        2.89319   0.00014   0.00042   0.00038   0.00080   2.89399
    R7        2.07176   0.00001   0.00021  -0.00006   0.00016   2.07191
    R8        2.55298   0.00004   0.00035  -0.00017   0.00018   2.55316
    R9        2.30758   0.00038   0.00023   0.00046   0.00068   2.30826
   R10        2.60204   0.00009  -0.00119  -0.00007  -0.00127   2.60078
   R11        2.74520  -0.00061  -0.00113  -0.00161  -0.00274   2.74246
   R12        1.91039   0.00026   0.00030   0.00017   0.00047   1.91086
   R13        2.90541   0.00009  -0.00005  -0.00028  -0.00033   2.90509
   R14        2.06755   0.00011   0.00021  -0.00017   0.00004   2.06759
   R15        2.06551   0.00016   0.00025   0.00034   0.00059   2.06610
   R16        2.27681   0.00015   0.00047  -0.00031   0.00016   2.27697
   R17        2.54762   0.00041   0.00012   0.00054   0.00066   2.54828
   R18        1.84638   0.00001   0.00031  -0.00045  -0.00014   1.84624
    A1        1.92913   0.00002   0.00001   0.00006   0.00007   1.92919
    A2        1.92119   0.00006  -0.00018   0.00030   0.00012   1.92131
    A3        1.92476   0.00006   0.00041   0.00052   0.00092   1.92568
    A4        1.89956  -0.00005   0.00001  -0.00028  -0.00026   1.89930
    A5        1.90892  -0.00005   0.00033  -0.00049  -0.00016   1.90876
    A6        1.87941  -0.00004  -0.00060  -0.00013  -0.00072   1.87869
    A7        1.97560  -0.00018  -0.00028  -0.00071  -0.00099   1.97460
    A8        1.95476  -0.00000   0.00093  -0.00077   0.00016   1.95492
    A9        1.92615   0.00010  -0.00101   0.00125   0.00024   1.92640
   A10        1.87419   0.00013   0.00100   0.00058   0.00158   1.87577
   A11        1.79792   0.00007   0.00018   0.00062   0.00080   1.79872
   A12        1.92869  -0.00012  -0.00088  -0.00090  -0.00178   1.92692
   A13        1.66727  -0.00004   0.00044  -0.00072  -0.00028   1.66699
   A14        2.13129  -0.00027   0.00082  -0.00127  -0.00046   2.13083
   A15        2.00743  -0.00000   0.00012  -0.00076  -0.00064   2.00679
   A16        2.14237   0.00027  -0.00108   0.00238   0.00130   2.14367
   A17        2.13242   0.00060   0.00179   0.00280   0.00387   2.13629
   A18        2.07464  -0.00027   0.00100   0.00050   0.00078   2.07542
   A19        2.06893  -0.00031   0.00187  -0.00093   0.00022   2.06915
   A20        1.99282   0.00024   0.00206   0.00036   0.00242   1.99524
   A21        1.87045  -0.00033   0.00175  -0.00348  -0.00173   1.86872
   A22        1.94439   0.00015  -0.00187   0.00290   0.00103   1.94542
   A23        1.88339   0.00031  -0.00015   0.00213   0.00197   1.88536
   A24        1.88236  -0.00032  -0.00135  -0.00101  -0.00235   1.88001
   A25        1.88704  -0.00005  -0.00048  -0.00099  -0.00146   1.88558
   A26        2.12546  -0.00024  -0.00188   0.00035  -0.00155   2.12391
   A27        2.02499   0.00051   0.00237   0.00058   0.00293   2.02792
   A28        2.13270  -0.00027  -0.00054  -0.00096  -0.00152   2.13118
   A29        1.90771   0.00037   0.00301   0.00133   0.00434   1.91205
    D1        0.94985   0.00000  -0.00028   0.00118   0.00090   0.95075
    D2        3.07179   0.00004   0.00152   0.00084   0.00236   3.07415
    D3       -1.05473  -0.00004   0.00031   0.00004   0.00035  -1.05438
    D4        3.04881  -0.00001  -0.00037   0.00106   0.00069   3.04950
    D5       -1.11244   0.00003   0.00143   0.00072   0.00215  -1.11029
    D6        1.04423  -0.00006   0.00022  -0.00008   0.00014   1.04437
    D7       -1.16313   0.00001  -0.00097   0.00141   0.00044  -1.16269
    D8        0.95880   0.00006   0.00084   0.00107   0.00190   0.96071
    D9        3.11547  -0.00003  -0.00037   0.00027  -0.00010   3.11537
   D10        1.07702  -0.00006   0.00464  -0.01100  -0.00637   1.07065
   D11       -1.08957  -0.00004   0.00291  -0.00997  -0.00706  -1.09663
   D12       -3.12612   0.00001   0.00340  -0.00948  -0.00608  -3.13221
   D13       -0.59230   0.00008   0.01962  -0.00534   0.01428  -0.57803
   D14        2.61701  -0.00000   0.02202  -0.01119   0.01083   2.62784
   D15        1.58691  -0.00006   0.02059  -0.00634   0.01425   1.60116
   D16       -1.48697  -0.00014   0.02299  -0.01219   0.01080  -1.47616
   D17       -2.74755   0.00004   0.02090  -0.00575   0.01515  -2.73239
   D18        0.46176  -0.00004   0.02330  -0.01159   0.01170   0.47347
   D19        3.07347  -0.00005  -0.01950  -0.00510  -0.02460   3.04887
   D20       -0.19864   0.00011   0.01540   0.01622   0.03163  -0.16701
   D21        0.00007  -0.00011  -0.01716  -0.01083  -0.02800  -0.02793
   D22        3.01115   0.00005   0.01774   0.01049   0.02823   3.03938
   D23       -1.92279  -0.00005   0.01821   0.00300   0.02122  -1.90158
   D24        0.16187   0.00026   0.02047   0.00348   0.02397   0.18584
   D25        2.22279   0.00008   0.01992   0.00179   0.02172   2.24451
   D26        1.34890  -0.00022  -0.01649  -0.01836  -0.03486   1.31404
   D27       -2.84962   0.00009  -0.01423  -0.01787  -0.03211  -2.88172
   D28       -0.78870  -0.00009  -0.01478  -0.01956  -0.03435  -0.82305
   D29       -2.86381  -0.00026  -0.00942   0.00345  -0.00596  -2.86977
   D30        0.28694   0.00021  -0.00209   0.00664   0.00455   0.29149
   D31        1.34202  -0.00020  -0.01278   0.00613  -0.00665   1.33536
   D32       -1.79042   0.00027  -0.00546   0.00932   0.00385  -1.78656
   D33       -0.69270  -0.00014  -0.01144   0.00671  -0.00473  -0.69744
   D34        2.45805   0.00033  -0.00412   0.00989   0.00577   2.46382
   D35       -0.01354  -0.00028  -0.00074  -0.00642  -0.00717  -0.02071
   D36        3.13725   0.00020   0.00662  -0.00323   0.00339   3.14064
         Item               Value     Threshold  Converged?
 Maximum Force            0.000607     0.000450     NO 
 RMS     Force            0.000198     0.000300     YES
 Maximum Displacement     0.052832     0.001800     NO 
 RMS     Displacement     0.018408     0.001200     NO 
 Predicted change in Energy=-2.277553D-05
 Lowest energy point so far.  Saving SCF results.
 GradGradGradGradGradGradGradGradGradGradGradGradGradGradGradGradGradGrad

 Leave Link  103 at Fri Mar 14 15:14:47 2025, MaxMem=  8589934592 cpu:               1.9 elap:               0.5
 (Enter /home/enzo/gaussian_versions/gdv.j21/gdv/l202.exe)
                          Input orientation:                          
 ---------------------------------------------------------------------
 Center     Atomic      Atomic             Coordinates (Angstroms)
 Number     Number       Type             X           Y           Z
 ---------------------------------------------------------------------
      1          6           0        2.835749    1.270294   -0.724395
      2          6           0        1.638433    0.352125   -0.949462
      3         16           0        2.001907   -1.431179   -0.563114
      4          6           0        0.429654    0.768185   -0.106232
      5          8           0        0.552375    1.267749    1.001641
      6          7           0       -0.794867    0.464256   -0.656050
      7          6           0       -2.041759    0.682946    0.053561
      8          6           0       -2.742089   -0.605506    0.514796
      9          8           0       -3.895753   -0.609230    0.862479
     10          8           0       -1.985444   -1.721612    0.529607
     11          1           0        3.703605    0.912615   -1.283900
     12          1           0        2.596962    2.288149   -1.054613
     13          1           0        3.084106    1.316755    0.338860
     14          1           0        1.372013    0.325945   -2.012688
     15          1           0        2.289660   -1.225424    0.740827
     16          1           0       -0.833745    0.135597   -1.611540
     17          1           0       -1.805919    1.276641    0.941819
     18          1           0       -2.753316    1.249492   -0.553145
     19          1           0       -1.085725   -1.510917    0.212409
 ---------------------------------------------------------------------
                    Distance matrix (angstroms):
                    1          2          3          4          5
     1  C    0.000000
     2  C    1.525535   0.000000
     3  S    2.831830   1.860524   0.000000
     4  C    2.534468   1.531433   2.741883   0.000000
     5  O    2.862342   2.413440   3.440031   1.221478   0.000000
     6  N    3.719643   2.453490   3.379831   1.376272   2.282237
     7  C    4.973960   3.828748   4.604460   2.478041   2.823187
     8  C    6.013858   4.716999   4.934484   3.511788   3.820942
     9  O    7.166861   5.902079   6.122933   4.641640   4.829934
    10  O    5.811018   4.429505   4.144559   3.526483   3.949636
    11  H    1.092774   2.165857   2.984740   3.482315   3.908973
    12  H    1.096399   2.162874   3.798560   2.811928   3.074041
    13  H    1.092864   2.163390   3.088018   2.746844   2.617507
    14  H    2.166568   1.096410   2.363369   2.172139   3.262665
    15  H    2.945114   2.402048   1.351074   2.855102   3.049933
    16  H    3.942049   2.568442   3.405130   2.064533   3.167304
    17  H    4.931672   4.036735   4.908834   2.520859   2.359070
    18  H    5.591727   4.499977   5.458777   3.250029   3.653121
    19  H    4.898030   3.498843   3.184536   2.755397   3.320729
                    6          7          8          9         10
     6  N    0.000000
     7  C    1.451246   0.000000
     8  C    2.511363   1.537305   0.000000
     9  O    3.615770   2.400283   1.204922   0.000000
    10  O    2.757041   2.451875   1.348489   2.235503   0.000000
    11  H    4.564151   5.903454   6.861995   8.041965   6.526350
    12  H    3.871685   5.032143   6.272300   7.363789   6.291771
    13  H    4.094269   5.172776   6.137637   7.259616   5.913409
    14  H    2.560267   4.006330   4.917480   6.073755   4.682764
    15  H    3.784256   4.782824   5.074829   6.217220   4.308983
    16  H    1.011182   2.128721   2.951663   4.006424   3.059436
    17  H    2.058004   1.094119   2.145050   2.816063   3.031776
    18  H    2.112512   1.093334   2.140477   2.600770   3.254142
    19  H    2.177183   2.398388   1.911739   3.021901   0.976986
                   11         12         13         14         15
    11  H    0.000000
    12  H    1.780260   0.000000
    13  H    1.783384   1.767111   0.000000
    14  H    2.512297   2.503728   3.072905   0.000000
    15  H    3.266492   3.957680   2.693584   3.290998   0.000000
    16  H    4.615047   4.088203   4.533074   2.250005   4.140250
    17  H    5.953251   4.939053   4.927222   4.442093   4.803592
    18  H    6.506868   5.473185   5.905565   4.472309   5.764649
    19  H    5.572265   5.440628   5.039763   3.790197   3.428405
                   16         17         18         19
    16  H    0.000000
    17  H    2.960869   0.000000
    18  H    2.458804   1.770089   0.000000
    19  H    2.470080   2.970050   3.314633   0.000000
 Stoichiometry    C5H9NO3S
 Framework group  C1[X(C5H9NO3S)]
 Deg. of freedom    51
 Full point group                 C1      NOp   1
 RotChk:  IX=0 Diff= 5.32D-03
 Largest Abelian subgroup         C1      NOp   1
 Largest concise Abelian subgroup C1      NOp   1
                         Standard orientation:                         
 ---------------------------------------------------------------------
 Center     Atomic      Atomic             Coordinates (Angstroms)
 Number     Number       Type             X           Y           Z
 ---------------------------------------------------------------------
      1          6           0       -3.151096   -1.005553   -0.048982
      2          6           0       -1.929146   -0.209104   -0.495931
      3         16           0       -1.990429    1.576482    0.023180
      4          6           0       -0.626725   -0.802077    0.049383
      5          8           0       -0.569969   -1.351146    1.139021
      6          7           0        0.480682   -0.598664   -0.742071
      7          6           0        1.814992   -0.991832   -0.328371
      8          6           0        2.743553    0.184188    0.015226
      9          8           0        3.936929    0.043443    0.104008
     10          8           0        2.143732    1.372024    0.233596
     11          1           0       -4.069538   -0.524055   -0.393627
     12          1           0       -3.108947   -2.021489   -0.459091
     13          1           0       -3.172432   -1.088811    1.040497
     14          1           0       -1.892663   -0.147910   -1.590024
     15          1           0       -2.017756    1.324923    1.350346
     16          1           0        0.354752   -0.219363   -1.670921
     17          1           0        1.704439   -1.609032    0.568256
     18          1           0        2.310351   -1.593943   -1.094832
     19          1           0        1.178873    1.278331    0.112063
 ---------------------------------------------------------------------
 Rotational constants (GHZ):           2.1551325           0.5928023           0.5057979
 Leave Link  202 at Fri Mar 14 15:14:47 2025, MaxMem=  8589934592 cpu:               0.1 elap:               0.2
 (Enter /home/enzo/gaussian_versions/gdv.j21/gdv/l301.exe)
 Standard basis: 6-31G(d) (6D, 7F)
 Ernie: Thresh=  0.10000D-02 Tol=  0.10000D-05 Strict=F.
 There are   172 symmetry adapted cartesian basis functions of A   symmetry.
 There are   172 symmetry adapted basis functions of A   symmetry.
   172 basis functions,   340 primitive gaussians,   172 cartesian basis functions
    43 alpha electrons       43 beta electrons
       nuclear repulsion energy       625.3382924860 Hartrees.
 IExCor=      4002 DFT=T Ex+Corr=B3LYP ScaHFX=  0.200000
 ScaDFX=  0.800000  0.720000  1.000000  0.810000  1.000000  0.000000
 ScaDFX=  0.000000  0.000000  0.000000  0.000000  0.000000  0.000000
 IRadAn=      5 IRanWt=     -1 IRanGd=            0 ICorTp=0 IEmpDi=  4
 NAtoms=   19 NActive=   19 NUniq=   19 SFac= 1.00D+00 NAtFMM=   60 NAOKFM=F Big=F
 Integral buffers will be    131072 words long.
 Raffenetti 2 integral format.
 Two-electron integral symmetry is turned on.
 Leave Link  301 at Fri Mar 14 15:14:48 2025, MaxMem=  8589934592 cpu:               0.5 elap:               0.3
 (Enter /home/enzo/gaussian_versions/gdv.j21/gdv/l302.exe)
 NPDir=0 NMtPBC=     1 NCelOv=     1 NCel=       1 NClECP=     1 NCelD=      1
         NCelK=      1 NCelE2=     1 NClLst=     1 CellRange=     0.0.
 One-electron integrals computed using PRISM.
 One-electron integral symmetry used in STVInt
 NBasis=   172 RedAO= T EigKep=  2.79D-03  NBF=   172
 NBsUse=   172 1.00D-06 EigRej= -1.00D+00 NBFU=   172
 Precomputing XC quadrature grid using
 IXCGrd= 4 IRadAn=           5 IRanWt=          -1 IRanGd=           0 AccXCQ= 0.00D+00.
 Generated NRdTot=       0 NPtTot=      406311 NUsed=           0 NTot=          64
 NSgBfM=   171   171   171   171   171 MxSgAt=    19 MxSgA2=    19 SizInc=   0.000
 NMBTot=     3441 MaxBatPerAtom=       85 MaxMicBPerAtom=      202 NBfPt=            51803194.
 Leave Link  302 at Fri Mar 14 15:14:48 2025, MaxMem=  8589934592 cpu:               2.3 elap:               0.5
 (Enter /home/enzo/gaussian_versions/gdv.j21/gdv/l303.exe)
 DipDrv:  MaxL=1.
 Leave Link  303 at Fri Mar 14 15:14:49 2025, MaxMem=  8589934592 cpu:               0.6 elap:               0.4
 (Enter /home/enzo/gaussian_versions/gdv.j21/gdv/l401.exe)
 Initial guess from the checkpoint file:  "/local/home/enzo/scratch/Gau-2337715.chk"
 B after Tr=     0.000000    0.000000   -0.000000
         Rot=    0.999999   -0.000954    0.000045    0.001014 Ang=  -0.16 deg.
 AO Guess basis will be translated and rotated to current coordinates.
 JPrj=2 DoOrth=T DoCkMO=T.
 Generating alternative initial guess.
 ExpMin= 1.17D-01 ExpMax= 2.19D+04 ExpMxC= 3.30D+03 IAcc=3 IRadAn=         5 AccDes= 0.00D+00
 Harris functional with IExCor= 4002 and IRadAn=       5 diagonalized for initial guess.
 HarFok:  IExCor=    4002 AccDes= 0.00D+00 IRadAn=         5 IDoV= 1 UseB2=F ITyADJ=14 ICtDFT=  3500011
 FoFCou: FMM=F IPFlag=           0 FMFlag=      100000 FMFlg1=           0
         NFxFlg=           0 DoJE=T BraDBF=F KetDBF=T FulRan=T
         wScrn=  0.000000 ICntrl=       500 IOpCl=  0 I1Cent=   200000004 NGrid=           0
         NMat0=    1 NMatS0=      1 NMatT0=    0 NMatD0=    1 NMtDS0=    0 NMtDT0=    0
 Petite list used in FoFCou.
 Harris En= -874.550228038982    
 Leave Link  401 at Fri Mar 14 15:14:50 2025, MaxMem=  8589934592 cpu:              10.9 elap:               1.7
 (Enter /home/enzo/gaussian_versions/gdv.j21/gdv/l502.exe)
 Integral symmetry usage will be decided dynamically.
 Closed shell SCF:
 Using DIIS extrapolation, IDIIS=  1040.
 NGot=  8589934592 LenX=  8589843591 LenY=  8589813566
 Requested convergence on RMS density matrix=1.00D-08 within 128 cycles.
 Requested convergence on MAX density matrix=1.00D-06.
 Requested convergence on             energy=1.00D-06.
 No special actions if energy rises.
 Fock matrices will be formed incrementally for  20 cycles.
 Integral accuracy reduced to 1.0D-05 until final iterations.

 Cycle   1  Pass 0  IDiag  1:
 FoFJK:  IHMeth= 1 ICntrl=       0 DoSepK=F KAlg= 0 I1Cent=           0 FoldK=F
 IRaf= 910000000 NMat=       1 IRICut=       1 DoRegI=T DoRafI=F ISym2E= 0 IDoP0=0 IntGTp=1.
 FoFCou: FMM=F IPFlag=           0 FMFlag=      100000 FMFlg1=           0
         NFxFlg=           0 DoJE=F BraDBF=F KetDBF=F FulRan=T
         wScrn=  0.000000 ICntrl=         0 IOpCl=  0 I1Cent=           0 NGrid=           0
         NMat0=    1 NMatS0=      1 NMatT0=    0 NMatD0=    1 NMtDS0=    0 NMtDT0=    0
 Symmetry not used in FoFCou.
 E= -874.580391462421    
 DIIS: error= 1.16D-03 at cycle   1 NSaved=   1.
 NSaved= 1 IEnMin= 1 EnMin= -874.580391462421     IErMin= 1 ErrMin= 1.16D-03
 ErrMax= 1.16D-03  0.00D+00 EMaxC= 1.00D-01 BMatC= 3.14D-04 BMatP= 3.14D-04
 IDIUse=3 WtCom= 9.88D-01 WtEn= 1.16D-02
 Coeff-Com:  0.100D+01
 Coeff-En:   0.100D+01
 Coeff:      0.100D+01
 Gap=     1.518 Goal=   None    Shift=    0.000
 GapD=    1.518 DampG=2.000 DampE=1.000 DampFc=2.0000 IDamp=-1.
 RMSDP=1.93D-04 MaxDP=4.59D-03              OVMax= 5.57D-03

 Cycle   2  Pass 0  IDiag  1:
 RMSU=  1.93D-04    CP:  1.00D+00
 E= -874.580949445127     Delta-E=       -0.000557982706 Rises=F Damp=F
 DIIS: error= 1.74D-04 at cycle   2 NSaved=   2.
 NSaved= 2 IEnMin= 2 EnMin= -874.580949445127     IErMin= 2 ErrMin= 1.74D-04
 ErrMax= 1.74D-04  0.00D+00 EMaxC= 1.00D-01 BMatC= 8.40D-06 BMatP= 3.14D-04
 IDIUse=3 WtCom= 9.98D-01 WtEn= 1.74D-03
 Coeff-Com: -0.386D-01 0.104D+01
 Coeff-En:   0.000D+00 0.100D+01
 Coeff:     -0.385D-01 0.104D+01
 Gap=     0.230 Goal=   None    Shift=    0.000
 RMSDP=4.49D-05 MaxDP=1.22D-03 DE=-5.58D-04 OVMax= 2.19D-03

 Cycle   3  Pass 0  IDiag  1:
 RMSU=  4.44D-05    CP:  1.00D+00  1.03D+00
 E= -874.580943468594     Delta-E=        0.000005976533 Rises=F Damp=F
 DIIS: error= 3.59D-04 at cycle   3 NSaved=   3.
 NSaved= 3 IEnMin= 2 EnMin= -874.580949445127     IErMin= 2 ErrMin= 1.74D-04
 ErrMax= 3.59D-04  0.00D+00 EMaxC= 1.00D-01 BMatC= 2.09D-05 BMatP= 8.40D-06
 IDIUse=3 WtCom= 3.46D-01 WtEn= 6.54D-01
 Coeff-Com: -0.470D-01 0.667D+00 0.380D+00
 Coeff-En:   0.000D+00 0.623D+00 0.377D+00
 Coeff:     -0.163D-01 0.639D+00 0.378D+00
 Gap=     0.230 Goal=   None    Shift=    0.000
 RMSDP=2.64D-05 MaxDP=1.01D-03 DE= 5.98D-06 OVMax= 1.88D-03

 Cycle   4  Pass 0  IDiag  1:
 RMSU=  1.34D-05    CP:  1.00D+00  1.06D+00  5.02D-01
 E= -874.580959433072     Delta-E=       -0.000015964479 Rises=F Damp=F
 DIIS: error= 8.46D-05 at cycle   4 NSaved=   4.
 NSaved= 4 IEnMin= 4 EnMin= -874.580959433072     IErMin= 4 ErrMin= 8.46D-05
 ErrMax= 8.46D-05  0.00D+00 EMaxC= 1.00D-01 BMatC= 1.10D-06 BMatP= 8.40D-06
 IDIUse=1 WtCom= 1.00D+00 WtEn= 0.00D+00
 Coeff-Com: -0.219D-01 0.256D+00 0.227D+00 0.540D+00
 Coeff:     -0.219D-01 0.256D+00 0.227D+00 0.540D+00
 Gap=     0.230 Goal=   None    Shift=    0.000
 RMSDP=6.92D-06 MaxDP=2.62D-04 DE=-1.60D-05 OVMax= 3.99D-04

 Initial convergence to 1.0D-05 achieved.  Increase integral accuracy.
 Cycle   5  Pass 1  IDiag  1:
 E= -874.580952228748     Delta-E=        0.000007204324 Rises=F Damp=F
 DIIS: error= 1.26D-05 at cycle   1 NSaved=   1.
 NSaved= 1 IEnMin= 1 EnMin= -874.580952228748     IErMin= 1 ErrMin= 1.26D-05
 ErrMax= 1.26D-05  0.00D+00 EMaxC= 1.00D-01 BMatC= 1.10D-07 BMatP= 1.10D-07
 IDIUse=1 WtCom= 1.00D+00 WtEn= 0.00D+00
 Coeff-Com:  0.100D+01
 Coeff:      0.100D+01
 Gap=     0.230 Goal=   None    Shift=    0.000
 RMSDP=6.92D-06 MaxDP=2.62D-04 DE= 7.20D-06 OVMax= 1.59D-04

 Cycle   6  Pass 1  IDiag  1:
 RMSU=  5.69D-06    CP:  1.00D+00
 E= -874.580952081634     Delta-E=        0.000000147114 Rises=F Damp=F
 DIIS: error= 2.52D-05 at cycle   2 NSaved=   2.
 NSaved= 2 IEnMin= 1 EnMin= -874.580952228748     IErMin= 1 ErrMin= 1.26D-05
 ErrMax= 2.52D-05  0.00D+00 EMaxC= 1.00D-01 BMatC= 2.93D-07 BMatP= 1.10D-07
 IDIUse=1 WtCom= 1.00D+00 WtEn= 0.00D+00
 Coeff-Com:  0.627D+00 0.373D+00
 Coeff:      0.627D+00 0.373D+00
 Gap=     0.230 Goal=   None    Shift=    0.000
 RMSDP=3.14D-06 MaxDP=1.00D-04 DE= 1.47D-07 OVMax= 1.40D-04

 Cycle   7  Pass 1  IDiag  1:
 RMSU=  2.20D-06    CP:  1.00D+00  6.08D-01
 E= -874.580952318750     Delta-E=       -0.000000237116 Rises=F Damp=F
 DIIS: error= 6.62D-06 at cycle   3 NSaved=   3.
 NSaved= 3 IEnMin= 3 EnMin= -874.580952318750     IErMin= 3 ErrMin= 6.62D-06
 ErrMax= 6.62D-06  0.00D+00 EMaxC= 1.00D-01 BMatC= 1.02D-08 BMatP= 1.10D-07
 IDIUse=1 WtCom= 1.00D+00 WtEn= 0.00D+00
 Coeff-Com:  0.270D+00 0.206D+00 0.525D+00
 Coeff:      0.270D+00 0.206D+00 0.525D+00
 Gap=     0.230 Goal=   None    Shift=    0.000
 RMSDP=7.66D-07 MaxDP=2.13D-05 DE=-2.37D-07 OVMax= 3.87D-05

 Cycle   8  Pass 1  IDiag  1:
 RMSU=  6.89D-07    CP:  1.00D+00  6.15D-01  8.53D-01
 E= -874.580952325241     Delta-E=       -0.000000006491 Rises=F Damp=F
 DIIS: error= 2.42D-06 at cycle   4 NSaved=   4.
 NSaved= 4 IEnMin= 4 EnMin= -874.580952325241     IErMin= 4 ErrMin= 2.42D-06
 ErrMax= 2.42D-06  0.00D+00 EMaxC= 1.00D-01 BMatC= 2.17D-09 BMatP= 1.02D-08
 IDIUse=1 WtCom= 1.00D+00 WtEn= 0.00D+00
 Coeff-Com:  0.790D-02 0.355D-01 0.339D+00 0.618D+00
 Coeff:      0.790D-02 0.355D-01 0.339D+00 0.618D+00
 Gap=     0.230 Goal=   None    Shift=    0.000
 RMSDP=2.52D-07 MaxDP=8.40D-06 DE=-6.49D-09 OVMax= 1.02D-05

 Cycle   9  Pass 1  IDiag  1:
 RMSU=  1.23D-07    CP:  1.00D+00  6.25D-01  8.92D-01  7.20D-01
 E= -874.580952326922     Delta-E=       -0.000000001681 Rises=F Damp=F
 DIIS: error= 4.42D-07 at cycle   5 NSaved=   5.
 NSaved= 5 IEnMin= 5 EnMin= -874.580952326922     IErMin= 5 ErrMin= 4.42D-07
 ErrMax= 4.42D-07  0.00D+00 EMaxC= 1.00D-01 BMatC= 9.82D-11 BMatP= 2.17D-09
 IDIUse=1 WtCom= 1.00D+00 WtEn= 0.00D+00
 Coeff-Com: -0.519D-02 0.122D-01 0.170D+00 0.341D+00 0.482D+00
 Coeff:     -0.519D-02 0.122D-01 0.170D+00 0.341D+00 0.482D+00
 Gap=     0.230 Goal=   None    Shift=    0.000
 RMSDP=6.49D-08 MaxDP=2.75D-06 DE=-1.68D-09 OVMax= 1.91D-06

 Cycle  10  Pass 1  IDiag  1:
 RMSU=  4.46D-08    CP:  1.00D+00  6.28D-01  8.91D-01  6.98D-01  6.68D-01
 E= -874.580952327003     Delta-E=       -0.000000000081 Rises=F Damp=F
 DIIS: error= 1.24D-07 at cycle   6 NSaved=   6.
 NSaved= 6 IEnMin= 6 EnMin= -874.580952327003     IErMin= 6 ErrMin= 1.24D-07
 ErrMax= 1.24D-07  0.00D+00 EMaxC= 1.00D-01 BMatC= 5.72D-12 BMatP= 9.82D-11
 IDIUse=1 WtCom= 1.00D+00 WtEn= 0.00D+00
 Coeff-Com: -0.298D-02 0.306D-02 0.552D-01 0.114D+00 0.237D+00 0.594D+00
 Coeff:     -0.298D-02 0.306D-02 0.552D-01 0.114D+00 0.237D+00 0.594D+00
 Gap=     0.230 Goal=   None    Shift=    0.000
 RMSDP=1.95D-08 MaxDP=5.43D-07 DE=-8.12D-11 OVMax= 7.89D-07

 Cycle  11  Pass 1  IDiag  1:
 RMSU=  1.81D-08    CP:  1.00D+00  6.28D-01  8.93D-01  6.97D-01  7.03D-01
                    CP:  9.24D-01
 E= -874.580952327011     Delta-E=       -0.000000000007 Rises=F Damp=F
 DIIS: error= 7.73D-08 at cycle   7 NSaved=   7.
 NSaved= 7 IEnMin= 7 EnMin= -874.580952327011     IErMin= 7 ErrMin= 7.73D-08
 ErrMax= 7.73D-08  0.00D+00 EMaxC= 1.00D-01 BMatC= 1.62D-12 BMatP= 5.72D-12
 IDIUse=1 WtCom= 1.00D+00 WtEn= 0.00D+00
 Coeff-Com: -0.776D-03-0.618D-03-0.924D-03 0.525D-03 0.475D-01 0.373D+00
 Coeff-Com:  0.582D+00
 Coeff:     -0.776D-03-0.618D-03-0.924D-03 0.525D-03 0.475D-01 0.373D+00
 Coeff:      0.582D+00
 Gap=     0.230 Goal=   None    Shift=    0.000
 RMSDP=9.80D-09 MaxDP=2.62D-07 DE=-7.28D-12 OVMax= 4.78D-07

 SCF Done:  E(RB3LYP) =  -874.580952327     A.U. after   11 cycles
            NFock= 11  Conv=0.98D-08     -V/T= 2.0064
 KE= 8.690139715971D+02 PE=-3.309730043303D+03 EE= 9.407968268933D+02
 Leave Link  502 at Fri Mar 14 15:14:59 2025, MaxMem=  8589934592 cpu:              68.8 elap:               8.8
 (Enter /home/enzo/gaussian_versions/gdv.j21/gdv/l701.exe)
 ... and contract with generalized density number  0.
 Compute integral first derivatives.
 Leave Link  701 at Fri Mar 14 15:15:00 2025, MaxMem=  8589934592 cpu:               3.9 elap:               0.8
 (Enter /home/enzo/gaussian_versions/gdv.j21/gdv/l702.exe)
 L702 exits ... SP integral derivatives will be done elsewhere.
 Leave Link  702 at Fri Mar 14 15:15:00 2025, MaxMem=  8589934592 cpu:               0.2 elap:               0.2
 (Enter /home/enzo/gaussian_versions/gdv.j21/gdv/l703.exe)
 Integral derivatives from FoFJK, PRISM(SPDF).
 Compute integral first derivatives, UseDBF=F ICtDFT=           0.
 Calling FoFJK, ICntrl=      2127 FMM=F ISym2X=0 I1Cent= 0 IOpClX= 0 NMat=1 NMatS=1 NMatT=0.
 FoFJK:  IHMeth= 1 ICntrl=    2127 DoSepK=F KAlg= 0 I1Cent=           0 FoldK=F
 IRaf=         0 NMat=       1 IRICut=       1 DoRegI=T DoRafI=F ISym2E= 0 IDoP0=0 IntGTp=1.
 FoFCou: FMM=F IPFlag=           0 FMFlag=      100000 FMFlg1=         800
         NFxFlg=           0 DoJE=F BraDBF=F KetDBF=F FulRan=T
         wScrn=  0.000000 ICntrl=      2127 IOpCl=  0 I1Cent=           0 NGrid=           0
         NMat0=    1 NMatS0=      1 NMatT0=    0 NMatD0=    1 NMtDS0=    0 NMtDT0=    0
 Symmetry not used in FoFCou.
 Leave Link  703 at Fri Mar 14 15:15:02 2025, MaxMem=  8589934592 cpu:              14.6 elap:               2.2
 (Enter /home/enzo/gaussian_versions/gdv.j21/gdv/l716.exe)
 Dipole        =-1.65944517D+00-4.61177635D-01-1.19608767D+00
 ***** Axes restored to original set *****
 -------------------------------------------------------------------
 Center     Atomic                   Forces (Hartrees/Bohr)
 Number     Number              X              Y              Z
 -------------------------------------------------------------------
      1        6          -0.000059536   -0.000030138    0.000020481
      2        6           0.000148530    0.000160246   -0.000195115
      3       16          -0.000105919    0.000035206    0.000118656
      4        6          -0.000056012   -0.000304066    0.000088337
      5        8          -0.000015478   -0.000025893   -0.000092255
      6        7          -0.000063020    0.000407701    0.000021587
      7        6           0.000086650   -0.000249048   -0.000155173
      8        6          -0.000078885    0.000152249    0.000185630
      9        8          -0.000062286   -0.000054564   -0.000127506
     10        8           0.000080055   -0.000091473    0.000027445
     11        1           0.000032119    0.000013993    0.000001825
     12        1           0.000009614    0.000021105   -0.000028117
     13        1          -0.000000288   -0.000031893    0.000005820
     14        1          -0.000032122   -0.000012423    0.000030539
     15        1           0.000029852   -0.000018388   -0.000004147
     16        1           0.000049837   -0.000005216   -0.000044755
     17        1           0.000040432    0.000070795    0.000060286
     18        1          -0.000020503    0.000047982    0.000035714
     19        1           0.000016961   -0.000086176    0.000050748
 -------------------------------------------------------------------
 Cartesian Forces:  Max     0.000407701 RMS     0.000105371
 Leave Link  716 at Fri Mar 14 15:15:03 2025, MaxMem=  8589934592 cpu:               0.3 elap:               0.2
 (Enter /home/enzo/gaussian_versions/gdv.j21/gdv/l103.exe)

 GradGradGradGradGradGradGradGradGradGradGradGradGradGradGradGradGradGrad
 Berny optimization.
 Using GEDIIS/GDIIS optimizer.
 FormGI is forming the generalized inverse of G from B-inverse, IUseBI=4.
 Internal  Forces:  Max     0.000218878 RMS     0.000071518
 Search for a local minimum.
 Step number  13 out of a maximum of   93
 All quantities printed in internal units (Hartrees-Bohrs-Radians)
 RMS Force = .71518D-04 SwitMx=.10000D-02 MixMth= 2
 Mixed Optimization -- En-DIIS/RFO-DIIS
 Swapping is turned off.
 Update second derivatives using D2CorX and points   10   11   12   13
 DE= -2.66D-05 DEPred=-2.28D-05 R= 1.17D+00
 TightC=F SS=  1.41D+00  RLast= 9.79D-02 DXNew= 2.3056D+00 2.9373D-01
 Trust test= 1.17D+00 RLast= 9.79D-02 DXMaxT set to 1.37D+00
 ITU=  1  1  1  1  1 -1  1  1  1  1  1  1  0
     Eigenvalues ---    0.00140   0.00229   0.00451   0.00580   0.00874
     Eigenvalues ---    0.00916   0.01286   0.02032   0.03932   0.04377
     Eigenvalues ---    0.04796   0.05256   0.05646   0.05764   0.05832
     Eigenvalues ---    0.06706   0.08325   0.10367   0.13488   0.15720
     Eigenvalues ---    0.15979   0.16017   0.16032   0.16069   0.17070
     Eigenvalues ---    0.18302   0.19984   0.21142   0.21848   0.22641
     Eigenvalues ---    0.24065   0.24845   0.24966   0.26098   0.27111
     Eigenvalues ---    0.29995   0.31761   0.32582   0.32606   0.32620
     Eigenvalues ---    0.32639   0.32706   0.32791   0.33528   0.36856
     Eigenvalues ---    0.40699   0.41845   0.46554   0.49504   0.80008
     Eigenvalues ---    0.81421
 En-DIIS/RFO-DIIS/Sim-DIIS IScMMF=       -3 using points:    13   12   11   10    9
 RFO step:  Lambda=-1.04847663D-05.
 NNeg= 0 NGDIIS= 5 SimSw=  2.50D-01 Rises=F DC= -2.66D-05 SmlDif=  1.00D-05
 NRisDI= 0 DoIntr=F SqrtH=F CThrHd= 10.0 CDAdj=  3.0
 RMS Error=  0.5028234049D-02 NUsed= 5 OKEnD=T EnDIS=F
 InvSVX:  RCond= 3.75D-05 Info=           0 Equed=N FErr=  2.80D-13 BErr=  9.09D-17
 DidBck=FF Rises=F RFO-DIIS coefs:    1.32830    0.02902   -0.31048   -0.24960    0.20277
 Iteration  1 RMS(Cart)=  0.00961687 RMS(Int)=  0.00003512
 Iteration  2 RMS(Cart)=  0.00005377 RMS(Int)=  0.00001824
 Iteration  3 RMS(Cart)=  0.00000000 RMS(Int)=  0.00001824
 Variable       Old X    -DE/DX   Delta X   Delta X   Delta X     New X
                                 (Linear)    (Quad)   (Total)
    R1        2.88284  -0.00003  -0.00049   0.00017  -0.00032   2.88252
    R2        2.06504   0.00002   0.00009   0.00000   0.00010   2.06514
    R3        2.07189   0.00003   0.00002   0.00002   0.00004   2.07193
    R4        2.06521   0.00000   0.00007  -0.00001   0.00006   2.06527
    R5        3.51588  -0.00001   0.00077  -0.00048   0.00029   3.51617
    R6        2.89399   0.00001   0.00042  -0.00007   0.00035   2.89434
    R7        2.07191  -0.00002   0.00011  -0.00010   0.00001   2.07192
    R8        2.55316   0.00000   0.00024  -0.00012   0.00012   2.55328
    R9        2.30826  -0.00010   0.00031  -0.00020   0.00010   2.30836
   R10        2.60078  -0.00011  -0.00064  -0.00015  -0.00079   2.59999
   R11        2.74246  -0.00005  -0.00125   0.00031  -0.00094   2.74151
   R12        1.91086   0.00004   0.00053  -0.00033   0.00020   1.91106
   R13        2.90509   0.00013  -0.00049   0.00070   0.00021   2.90530
   R14        2.06759   0.00010   0.00035  -0.00007   0.00028   2.06787
   R15        2.06610   0.00002   0.00045  -0.00025   0.00021   2.06631
   R16        2.27697   0.00002   0.00036  -0.00026   0.00011   2.27708
   R17        2.54828   0.00020   0.00045   0.00010   0.00055   2.54883
   R18        1.84624  -0.00002   0.00018  -0.00024  -0.00006   1.84618
    A1        1.92919   0.00004  -0.00005   0.00028   0.00023   1.92942
    A2        1.92131   0.00001   0.00036  -0.00024   0.00011   1.92143
    A3        1.92568  -0.00004   0.00035  -0.00031   0.00004   1.92572
    A4        1.89930  -0.00003  -0.00029   0.00012  -0.00018   1.89912
    A5        1.90876  -0.00001  -0.00013  -0.00000  -0.00013   1.90863
    A6        1.87869   0.00002  -0.00025   0.00016  -0.00009   1.87860
    A7        1.97460   0.00005  -0.00063   0.00045  -0.00019   1.97442
    A8        1.95492   0.00010  -0.00003   0.00031   0.00027   1.95519
    A9        1.92640  -0.00001  -0.00035   0.00079   0.00045   1.92684
   A10        1.87577  -0.00019   0.00138  -0.00204  -0.00066   1.87511
   A11        1.79872   0.00004   0.00068  -0.00014   0.00055   1.79926
   A12        1.92692  -0.00001  -0.00100   0.00056  -0.00044   1.92648
   A13        1.66699   0.00006  -0.00019   0.00038   0.00018   1.66718
   A14        2.13083   0.00001   0.00005   0.00008   0.00014   2.13097
   A15        2.00679  -0.00000   0.00039  -0.00056  -0.00017   2.00662
   A16        2.14367  -0.00000  -0.00044   0.00054   0.00010   2.14377
   A17        2.13629   0.00012   0.00163  -0.00024   0.00147   2.13776
   A18        2.07542  -0.00011  -0.00080   0.00052  -0.00021   2.07521
   A19        2.06915  -0.00001   0.00014  -0.00014   0.00008   2.06923
   A20        1.99524   0.00022   0.00132   0.00033   0.00165   1.99689
   A21        1.86872  -0.00002   0.00043  -0.00073  -0.00031   1.86841
   A22        1.94542  -0.00011  -0.00044   0.00015  -0.00028   1.94514
   A23        1.88536  -0.00007   0.00103  -0.00059   0.00043   1.88580
   A24        1.88001  -0.00003  -0.00152   0.00079  -0.00072   1.87929
   A25        1.88558  -0.00000  -0.00085  -0.00002  -0.00087   1.88471
   A26        2.12391  -0.00005  -0.00131   0.00083  -0.00050   2.12341
   A27        2.02792   0.00017   0.00182  -0.00027   0.00154   2.02946
   A28        2.13118  -0.00012  -0.00065  -0.00039  -0.00105   2.13012
   A29        1.91205   0.00017   0.00217   0.00031   0.00248   1.91453
    D1        0.95075   0.00006   0.00036   0.00044   0.00080   0.95155
    D2        3.07415  -0.00007   0.00168  -0.00169  -0.00001   3.07414
    D3       -1.05438  -0.00002   0.00012  -0.00017  -0.00005  -1.05443
    D4        3.04950   0.00007   0.00019   0.00061   0.00080   3.05030
    D5       -1.11029  -0.00006   0.00151  -0.00152  -0.00000  -1.11029
    D6        1.04437  -0.00001  -0.00005  -0.00000  -0.00005   1.04432
    D7       -1.16269   0.00008   0.00032   0.00046   0.00079  -1.16190
    D8        0.96071  -0.00005   0.00165  -0.00166  -0.00002   0.96069
    D9        3.11537  -0.00000   0.00008  -0.00015  -0.00007   3.11530
   D10        1.07065  -0.00003  -0.00203  -0.00142  -0.00344   1.06721
   D11       -1.09663  -0.00006  -0.00257  -0.00062  -0.00318  -1.09981
   D12       -3.13221   0.00001  -0.00234  -0.00033  -0.00267  -3.13488
   D13       -0.57803   0.00001   0.00324   0.00094   0.00419  -0.57384
   D14        2.62784  -0.00001   0.00327  -0.00021   0.00306   2.63089
   D15        1.60116   0.00001   0.00340   0.00026   0.00366   1.60482
   D16       -1.47616  -0.00001   0.00343  -0.00090   0.00253  -1.47363
   D17       -2.73239  -0.00004   0.00444  -0.00071   0.00374  -2.72866
   D18        0.47347  -0.00006   0.00447  -0.00186   0.00261   0.47608
   D19        3.04887  -0.00004  -0.01137  -0.00140  -0.01274   3.03613
   D20       -0.16701   0.00002   0.01226   0.00086   0.01308  -0.15393
   D21       -0.02793  -0.00006  -0.01137  -0.00255  -0.01387  -0.04180
   D22        3.03938   0.00000   0.01227  -0.00029   0.01194   3.05132
   D23       -1.90158   0.00007   0.00821   0.00357   0.01181  -1.88977
   D24        0.18584   0.00010   0.01059   0.00253   0.01315   0.19899
   D25        2.24451   0.00003   0.00957   0.00215   0.01175   2.25626
   D26        1.31404   0.00001  -0.01518   0.00130  -0.01391   1.30014
   D27       -2.88172   0.00004  -0.01280   0.00026  -0.01257  -2.89429
   D28       -0.82305  -0.00003  -0.01381  -0.00012  -0.01397  -0.83702
   D29       -2.86977   0.00012  -0.00158   0.00954   0.00797  -2.86180
   D30        0.29149   0.00009   0.00911  -0.00026   0.00884   0.30033
   D31        1.33536   0.00006  -0.00364   0.01067   0.00703   1.34239
   D32       -1.78656   0.00002   0.00705   0.00086   0.00790  -1.77866
   D33       -0.69744   0.00012  -0.00238   0.01058   0.00820  -0.68924
   D34        2.46382   0.00008   0.00830   0.00077   0.00907   2.47290
   D35       -0.02071   0.00005  -0.00571   0.00624   0.00052  -0.02019
   D36        3.14064   0.00001   0.00501  -0.00363   0.00139  -3.14115
         Item               Value     Threshold  Converged?
 Maximum Force            0.000219     0.000450     YES
 RMS     Force            0.000072     0.000300     YES
 Maximum Displacement     0.030344     0.001800     NO 
 RMS     Displacement     0.009621     0.001200     NO 
 Predicted change in Energy=-5.072006D-06
 Lowest energy point so far.  Saving SCF results.
 GradGradGradGradGradGradGradGradGradGradGradGradGradGradGradGradGradGrad

 Leave Link  103 at Fri Mar 14 15:15:03 2025, MaxMem=  8589934592 cpu:               0.9 elap:               0.3
 (Enter /home/enzo/gaussian_versions/gdv.j21/gdv/l202.exe)
                          Input orientation:                          
 ---------------------------------------------------------------------
 Center     Atomic      Atomic             Coordinates (Angstroms)
 Number     Number       Type             X           Y           Z
 ---------------------------------------------------------------------
      1          6           0        2.837346    1.265423   -0.722099
      2          6           0        1.635368    0.354681   -0.951310
      3         16           0        1.988071   -1.431426   -0.567210
      4          6           0        0.427191    0.775298   -0.109141
      5          8           0        0.550578    1.275429    0.998463
      6          7           0       -0.797447    0.476014   -0.660199
      7          6           0       -2.044112    0.684031    0.051994
      8          6           0       -2.735431   -0.609142    0.513986
      9          8           0       -3.890743   -0.621259    0.856156
     10          8           0       -1.970361   -1.719695    0.537523
     11          1           0        3.704275    0.904346   -1.280958
     12          1           0        2.604977    2.285450   -1.050249
     13          1           0        3.084223    1.307989    0.341695
     14          1           0        1.370176    0.332273   -2.014932
     15          1           0        2.278721   -1.229082    0.736686
     16          1           0       -0.835283    0.136636   -1.612090
     17          1           0       -1.810920    1.279620    0.939868
     18          1           0       -2.761115    1.245974   -0.552773
     19          1           0       -1.069668   -1.505678    0.225450
 ---------------------------------------------------------------------
                    Distance matrix (angstroms):
                    1          2          3          4          5
     1  C    0.000000
     2  C    1.525365   0.000000
     3  S    2.831652   1.860675   0.000000
     4  C    2.534716   1.531620   2.741496   0.000000
     5  O    2.861772   2.413744   3.441625   1.221533   0.000000
     6  N    3.720042   2.453173   3.377289   1.375854   2.281972
     7  C    4.976531   3.828010   4.595331   2.478231   2.824530
     8  C    6.008139   4.709557   4.914936   3.508153   3.818924
     9  O    7.163633   5.895533   6.102688   4.639690   4.831461
    10  O    5.797553   4.418251   4.119795   3.520144   3.941873
    11  H    1.092825   2.165911   2.985066   3.482684   3.908870
    12  H    1.096419   2.162822   3.798562   2.812294   3.072120
    13  H    1.092894   2.163293   3.087402   2.747150   2.617587
    14  H    2.166743   1.096413   2.363964   2.171988   3.262183
    15  H    2.943242   2.402403   1.351135   2.856769   3.054109
    16  H    3.943912   2.566767   3.394395   2.064118   3.167404
    17  H    4.936467   4.038436   4.904425   2.522677   2.362229
    18  H    5.601055   4.503588   5.451921   3.253251   3.657119
    19  H    4.882787   3.487538   3.159682   2.748706   3.310181
                    6          7          8          9         10
     6  N    0.000000
     7  C    1.450746   0.000000
     8  C    2.512380   1.537418   0.000000
     9  O    3.615498   2.400105   1.204979   0.000000
    10  O    2.762499   2.453380   1.348782   2.235164   0.000000
    11  H    4.564461   5.905019   6.854362   8.036108   6.511063
    12  H    3.873330   5.039197   6.272595   7.367341   6.284578
    13  H    4.094305   5.174270   6.129718   7.255124   5.895255
    14  H    2.560186   4.006655   4.913013   6.068744   4.678117
    15  H    3.784370   4.776577   5.057236   6.200485   4.281946
    16  H    1.011289   2.128400   2.947363   4.000311   3.058628
    17  H    2.057456   1.094269   2.145581   2.818867   3.030378
    18  H    2.111959   1.093443   2.140114   2.597633   3.257181
    19  H    2.187597   2.403009   1.913582   3.022988   0.976954
                   11         12         13         14         15
    11  H    0.000000
    12  H    1.780206   0.000000
    13  H    1.783366   1.767093   0.000000
    14  H    2.512768   2.504047   3.073056   0.000000
    15  H    3.264139   3.956200   2.691019   3.291609   0.000000
    16  H    4.615908   4.094930   4.533417   2.250467   4.132670
    17  H    5.957371   4.946959   4.931637   4.443837   4.802086
    18  H    6.515231   5.488437   5.913705   4.476643   5.760951
    19  H    5.555898   5.431673   5.018470   3.788168   3.398467
                   16         17         18         19
    16  H    0.000000
    17  H    2.961549   0.000000
    18  H    2.462035   1.769740   0.000000
    19  H    2.475619   2.969466   3.322381   0.000000
 Stoichiometry    C5H9NO3S
 Framework group  C1[X(C5H9NO3S)]
 Deg. of freedom    51
 Full point group                 C1      NOp   1
 RotChk:  IX=0 Diff= 2.46D-03
 Largest Abelian subgroup         C1      NOp   1
 Largest concise Abelian subgroup C1      NOp   1
                         Standard orientation:                         
 ---------------------------------------------------------------------
 Center     Atomic      Atomic             Coordinates (Angstroms)
 Number     Number       Type             X           Y           Z
 ---------------------------------------------------------------------
      1          6           0       -3.153827   -0.995074   -0.042403
      2          6           0       -1.928106   -0.208426   -0.495759
      3         16           0       -1.976048    1.579311    0.017864
      4          6           0       -0.627686   -0.807487    0.048200
      5          8           0       -0.572009   -1.356459    1.138004
      6          7           0        0.478936   -0.610822   -0.745327
      7          6           0        1.814439   -0.995351   -0.329116
      8          6           0        2.736981    0.185051    0.016168
      9          8           0        3.931611    0.050981    0.098995
     10          8           0        2.132133    1.368834    0.244271
     11          1           0       -4.070250   -0.509125   -0.386333
     12          1           0       -3.119508   -2.012903   -0.448582
     13          1           0       -3.172733   -1.073969    1.047476
     14          1           0       -1.893799   -0.151535   -1.590158
     15          1           0       -2.005516    1.332299    1.345901
     16          1           0        0.354159   -0.221351   -1.670233
     17          1           0        1.705637   -1.613982    0.566922
     18          1           0        2.314720   -1.594835   -1.094593
     19          1           0        1.166816    1.273071    0.128372
 ---------------------------------------------------------------------
 Rotational constants (GHZ):           2.1500827           0.5952191           0.5073497
 Leave Link  202 at Fri Mar 14 15:15:03 2025, MaxMem=  8589934592 cpu:               0.4 elap:               0.3
 (Enter /home/enzo/gaussian_versions/gdv.j21/gdv/l301.exe)
 Standard basis: 6-31G(d) (6D, 7F)
 Ernie: Thresh=  0.10000D-02 Tol=  0.10000D-05 Strict=F.
 There are   172 symmetry adapted cartesian basis functions of A   symmetry.
 There are   172 symmetry adapted basis functions of A   symmetry.
   172 basis functions,   340 primitive gaussians,   172 cartesian basis functions
    43 alpha electrons       43 beta electrons
       nuclear repulsion energy       625.6359288181 Hartrees.
 IExCor=      4002 DFT=T Ex+Corr=B3LYP ScaHFX=  0.200000
 ScaDFX=  0.800000  0.720000  1.000000  0.810000  1.000000  0.000000
 ScaDFX=  0.000000  0.000000  0.000000  0.000000  0.000000  0.000000
 IRadAn=      5 IRanWt=     -1 IRanGd=            0 ICorTp=0 IEmpDi=  4
 NAtoms=   19 NActive=   19 NUniq=   19 SFac= 1.00D+00 NAtFMM=   60 NAOKFM=F Big=F
 Integral buffers will be    131072 words long.
 Raffenetti 2 integral format.
 Two-electron integral symmetry is turned on.
 Leave Link  301 at Fri Mar 14 15:15:04 2025, MaxMem=  8589934592 cpu:               0.5 elap:               0.4
 (Enter /home/enzo/gaussian_versions/gdv.j21/gdv/l302.exe)
 NPDir=0 NMtPBC=     1 NCelOv=     1 NCel=       1 NClECP=     1 NCelD=      1
         NCelK=      1 NCelE2=     1 NClLst=     1 CellRange=     0.0.
 One-electron integrals computed using PRISM.
 One-electron integral symmetry used in STVInt
 NBasis=   172 RedAO= T EigKep=  2.79D-03  NBF=   172
 NBsUse=   172 1.00D-06 EigRej= -1.00D+00 NBFU=   172
 Precomputing XC quadrature grid using
 IXCGrd= 4 IRadAn=           5 IRanWt=          -1 IRanGd=           0 AccXCQ= 0.00D+00.
 Generated NRdTot=       0 NPtTot=      406236 NUsed=           0 NTot=          64
 NSgBfM=   172   172   172   172   172 MxSgAt=    19 MxSgA2=    19 SizInc=   0.000
 NMBTot=     3371 MaxBatPerAtom=       85 MaxMicBPerAtom=      193 NBfPt=            51850429.
 Leave Link  302 at Fri Mar 14 15:15:05 2025, MaxMem=  8589934592 cpu:               4.5 elap:               0.8
 (Enter /home/enzo/gaussian_versions/gdv.j21/gdv/l303.exe)
 DipDrv:  MaxL=1.
 Leave Link  303 at Fri Mar 14 15:15:05 2025, MaxMem=  8589934592 cpu:               1.5 elap:               0.5
 (Enter /home/enzo/gaussian_versions/gdv.j21/gdv/l401.exe)
 Initial guess from the checkpoint file:  "/local/home/enzo/scratch/Gau-2337715.chk"
 B after Tr=    -0.000000   -0.000000    0.000000
         Rot=    1.000000    0.000299    0.000033    0.000551 Ang=   0.07 deg.
 AO Guess basis will be translated and rotated to current coordinates.
 JPrj=2 DoOrth=T DoCkMO=T.
 Generating alternative initial guess.
 ExpMin= 1.17D-01 ExpMax= 2.19D+04 ExpMxC= 3.30D+03 IAcc=3 IRadAn=         5 AccDes= 0.00D+00
 Harris functional with IExCor= 4002 and IRadAn=       5 diagonalized for initial guess.
 HarFok:  IExCor=    4002 AccDes= 0.00D+00 IRadAn=         5 IDoV= 1 UseB2=F ITyADJ=14 ICtDFT=  3500011
 FoFCou: FMM=F IPFlag=           0 FMFlag=      100000 FMFlg1=           0
         NFxFlg=           0 DoJE=T BraDBF=F KetDBF=T FulRan=T
         wScrn=  0.000000 ICntrl=       500 IOpCl=  0 I1Cent=   200000004 NGrid=           0
         NMat0=    1 NMatS0=      1 NMatT0=    0 NMatD0=    1 NMtDS0=    0 NMtDT0=    0
 Petite list used in FoFCou.
 Harris En= -874.550277877541    
 Leave Link  401 at Fri Mar 14 15:15:07 2025, MaxMem=  8589934592 cpu:               8.2 elap:               1.3
 (Enter /home/enzo/gaussian_versions/gdv.j21/gdv/l502.exe)
 Integral symmetry usage will be decided dynamically.
 Closed shell SCF:
 Using DIIS extrapolation, IDIIS=  1040.
 NGot=  8589934592 LenX=  8589843591 LenY=  8589813566
 Requested convergence on RMS density matrix=1.00D-08 within 128 cycles.
 Requested convergence on MAX density matrix=1.00D-06.
 Requested convergence on             energy=1.00D-06.
 No special actions if energy rises.
 Fock matrices will be formed incrementally for  20 cycles.
 Integral accuracy reduced to 1.0D-05 until final iterations.

 Cycle   1  Pass 0  IDiag  1:
 FoFJK:  IHMeth= 1 ICntrl=       0 DoSepK=F KAlg= 0 I1Cent=           0 FoldK=F
 IRaf= 910000000 NMat=       1 IRICut=       1 DoRegI=T DoRafI=F ISym2E= 0 IDoP0=0 IntGTp=1.
 FoFCou: FMM=F IPFlag=           0 FMFlag=      100000 FMFlg1=           0
         NFxFlg=           0 DoJE=F BraDBF=F KetDBF=F FulRan=T
         wScrn=  0.000000 ICntrl=         0 IOpCl=  0 I1Cent=           0 NGrid=           0
         NMat0=    1 NMatS0=      1 NMatT0=    0 NMatD0=    1 NMtDS0=    0 NMtDT0=    0
 Symmetry not used in FoFCou.
 E= -874.580783272396    
 DIIS: error= 6.82D-04 at cycle   1 NSaved=   1.
 NSaved= 1 IEnMin= 1 EnMin= -874.580783272396     IErMin= 1 ErrMin= 6.82D-04
 ErrMax= 6.82D-04  0.00D+00 EMaxC= 1.00D-01 BMatC= 9.60D-05 BMatP= 9.60D-05
 IDIUse=3 WtCom= 9.93D-01 WtEn= 6.82D-03
 Coeff-Com:  0.100D+01
 Coeff-En:   0.100D+01
 Coeff:      0.100D+01
 Gap=     1.518 Goal=   None    Shift=    0.000
 RMSDP=1.03D-04 MaxDP=1.66D-03              OVMax= 3.11D-03

 Cycle   2  Pass 0  IDiag  1:
 RMSU=  1.03D-04    CP:  1.00D+00
 E= -874.580959513112     Delta-E=       -0.000176240716 Rises=F Damp=F
 DIIS: error= 9.78D-05 at cycle   2 NSaved=   2.
 NSaved= 2 IEnMin= 2 EnMin= -874.580959513112     IErMin= 2 ErrMin= 9.78D-05
 ErrMax= 9.78D-05  0.00D+00 EMaxC= 1.00D-01 BMatC= 2.85D-06 BMatP= 9.60D-05
 IDIUse=1 WtCom= 1.00D+00 WtEn= 0.00D+00
 Coeff-Com: -0.399D-01 0.104D+01
 Coeff:     -0.399D-01 0.104D+01
 Gap=     0.231 Goal=   None    Shift=    0.000
 RMSDP=2.33D-05 MaxDP=6.57D-04 DE=-1.76D-04 OVMax= 1.17D-03

 Cycle   3  Pass 0  IDiag  1:
 RMSU=  2.29D-05    CP:  1.00D+00  1.04D+00
 E= -874.580957832675     Delta-E=        0.000001680437 Rises=F Damp=F
 DIIS: error= 1.90D-04 at cycle   3 NSaved=   3.
 NSaved= 3 IEnMin= 2 EnMin= -874.580959513112     IErMin= 2 ErrMin= 9.78D-05
 ErrMax= 1.90D-04  0.00D+00 EMaxC= 1.00D-01 BMatC= 6.47D-06 BMatP= 2.85D-06
 IDIUse=3 WtCom= 4.20D-01 WtEn= 5.80D-01
 Coeff-Com: -0.480D-01 0.657D+00 0.391D+00
 Coeff-En:   0.000D+00 0.612D+00 0.388D+00
 Coeff:     -0.202D-01 0.631D+00 0.389D+00
 Gap=     0.231 Goal=   None    Shift=    0.000
 RMSDP=1.45D-05 MaxDP=5.35D-04 DE= 1.68D-06 OVMax= 1.01D-03

 Cycle   4  Pass 0  IDiag  1:
 RMSU=  6.91D-06    CP:  1.00D+00  1.06D+00  4.56D-01
 E= -874.580962740542     Delta-E=       -0.000004907867 Rises=F Damp=F
 DIIS: error= 4.87D-05 at cycle   4 NSaved=   4.
 NSaved= 4 IEnMin= 4 EnMin= -874.580962740542     IErMin= 4 ErrMin= 4.87D-05
 ErrMax= 4.87D-05  0.00D+00 EMaxC= 1.00D-01 BMatC= 3.56D-07 BMatP= 2.85D-06
 IDIUse=1 WtCom= 1.00D+00 WtEn= 0.00D+00
 Coeff-Com: -0.201D-01 0.229D+00 0.226D+00 0.565D+00
 Coeff:     -0.201D-01 0.229D+00 0.226D+00 0.565D+00
 Gap=     0.231 Goal=   None    Shift=    0.000
 RMSDP=3.81D-06 MaxDP=1.50D-04 DE=-4.91D-06 OVMax= 2.37D-04

 Initial convergence to 1.0D-05 achieved.  Increase integral accuracy.
 Cycle   5  Pass 1  IDiag  1:
 E= -874.580958293089     Delta-E=        0.000004447453 Rises=F Damp=F
 DIIS: error= 1.26D-05 at cycle   1 NSaved=   1.
 NSaved= 1 IEnMin= 1 EnMin= -874.580958293089     IErMin= 1 ErrMin= 1.26D-05
 ErrMax= 1.26D-05  0.00D+00 EMaxC= 1.00D-01 BMatC= 5.89D-08 BMatP= 5.89D-08
 IDIUse=1 WtCom= 1.00D+00 WtEn= 0.00D+00
 Coeff-Com:  0.100D+01
 Coeff:      0.100D+01
 Gap=     0.231 Goal=   None    Shift=    0.000
 RMSDP=3.81D-06 MaxDP=1.50D-04 DE= 4.45D-06 OVMax= 1.22D-04

 Cycle   6  Pass 1  IDiag  1:
 RMSU=  4.61D-06    CP:  1.00D+00
 E= -874.580958234431     Delta-E=        0.000000058658 Rises=F Damp=F
 DIIS: error= 1.80D-05 at cycle   2 NSaved=   2.
 NSaved= 2 IEnMin= 1 EnMin= -874.580958293089     IErMin= 1 ErrMin= 1.26D-05
 ErrMax= 1.80D-05  0.00D+00 EMaxC= 1.00D-01 BMatC= 1.38D-07 BMatP= 5.89D-08
 IDIUse=1 WtCom= 1.00D+00 WtEn= 0.00D+00
 Coeff-Com:  0.614D+00 0.386D+00
 Coeff:      0.614D+00 0.386D+00
 Gap=     0.231 Goal=   None    Shift=    0.000
 RMSDP=1.98D-06 MaxDP=7.55D-05 DE= 5.87D-08 OVMax= 1.09D-04

 Cycle   7  Pass 1  IDiag  1:
 RMSU=  1.68D-06    CP:  1.00D+00  7.73D-01
 E= -874.580958338644     Delta-E=       -0.000000104212 Rises=F Damp=F
 DIIS: error= 5.63D-06 at cycle   3 NSaved=   3.
 NSaved= 3 IEnMin= 3 EnMin= -874.580958338644     IErMin= 3 ErrMin= 5.63D-06
 ErrMax= 5.63D-06  0.00D+00 EMaxC= 1.00D-01 BMatC= 4.88D-09 BMatP= 5.89D-08
 IDIUse=1 WtCom= 1.00D+00 WtEn= 0.00D+00
 Coeff-Com:  0.160D+00 0.181D+00 0.660D+00
 Coeff:      0.160D+00 0.181D+00 0.660D+00
 Gap=     0.231 Goal=   None    Shift=    0.000
 RMSDP=5.48D-07 MaxDP=2.22D-05 DE=-1.04D-07 OVMax= 3.87D-05

 Cycle   8  Pass 1  IDiag  1:
 RMSU=  4.86D-07    CP:  1.00D+00  7.92D-01  8.59D-01
 E= -874.580958340610     Delta-E=       -0.000000001966 Rises=F Damp=F
 DIIS: error= 3.34D-06 at cycle   4 NSaved=   4.
 NSaved= 4 IEnMin= 4 EnMin= -874.580958340610     IErMin= 4 ErrMin= 3.34D-06
 ErrMax= 3.34D-06  0.00D+00 EMaxC= 1.00D-01 BMatC= 2.29D-09 BMatP= 4.88D-09
 IDIUse=1 WtCom= 1.00D+00 WtEn= 0.00D+00
 Coeff-Com: -0.411D-03 0.553D-01 0.460D+00 0.485D+00
 Coeff:     -0.411D-03 0.553D-01 0.460D+00 0.485D+00
 Gap=     0.231 Goal=   None    Shift=    0.000
 RMSDP=2.31D-07 MaxDP=8.05D-06 DE=-1.97D-09 OVMax= 1.48D-05

 Cycle   9  Pass 1  IDiag  1:
 RMSU=  8.67D-08    CP:  1.00D+00  7.99D-01  8.92D-01  5.80D-01
 E= -874.580958342428     Delta-E=       -0.000000001818 Rises=F Damp=F
 DIIS: error= 3.03D-07 at cycle   5 NSaved=   5.
 NSaved= 5 IEnMin= 5 EnMin= -874.580958342428     IErMin= 5 ErrMin= 3.03D-07
 ErrMax= 3.03D-07  0.00D+00 EMaxC= 1.00D-01 BMatC= 3.69D-11 BMatP= 2.29D-09
 IDIUse=1 WtCom= 1.00D+00 WtEn= 0.00D+00
 Coeff-Com: -0.399D-02 0.251D-01 0.230D+00 0.258D+00 0.491D+00
 Coeff:     -0.399D-02 0.251D-01 0.230D+00 0.258D+00 0.491D+00
 Gap=     0.231 Goal=   None    Shift=    0.000
 RMSDP=4.79D-08 MaxDP=1.76D-06 DE=-1.82D-09 OVMax= 1.58D-06

 Cycle  10  Pass 1  IDiag  1:
 RMSU=  2.78D-08    CP:  1.00D+00  8.00D-01  8.92D-01  5.47D-01  6.00D-01
 E= -874.580958342460     Delta-E=       -0.000000000032 Rises=F Damp=F
 DIIS: error= 6.79D-08 at cycle   6 NSaved=   6.
 NSaved= 6 IEnMin= 6 EnMin= -874.580958342460     IErMin= 6 ErrMin= 6.79D-08
 ErrMax= 6.79D-08  0.00D+00 EMaxC= 1.00D-01 BMatC= 2.27D-12 BMatP= 3.69D-11
 IDIUse=1 WtCom= 1.00D+00 WtEn= 0.00D+00
 Coeff-Com: -0.184D-02 0.844D-02 0.809D-01 0.917D-01 0.247D+00 0.573D+00
 Coeff:     -0.184D-02 0.844D-02 0.809D-01 0.917D-01 0.247D+00 0.573D+00
 Gap=     0.231 Goal=   None    Shift=    0.000
 RMSDP=1.25D-08 MaxDP=3.23D-07 DE=-3.23D-11 OVMax= 5.32D-07

 Cycle  11  Pass 1  IDiag  1:
 RMSU=  1.18D-08    CP:  1.00D+00  8.01D-01  8.93D-01  5.47D-01  6.25D-01
                    CP:  9.21D-01
 E= -874.580958342461     Delta-E=       -0.000000000001 Rises=F Damp=F
 DIIS: error= 4.74D-08 at cycle   7 NSaved=   7.
 NSaved= 7 IEnMin= 7 EnMin= -874.580958342461     IErMin= 7 ErrMin= 4.74D-08
 ErrMax= 4.74D-08  0.00D+00 EMaxC= 1.00D-01 BMatC= 5.70D-13 BMatP= 2.27D-12
 IDIUse=1 WtCom= 1.00D+00 WtEn= 0.00D+00
 Coeff-Com: -0.370D-03 0.179D-03 0.413D-02 0.542D-02 0.560D-01 0.355D+00
 Coeff-Com:  0.579D+00
 Coeff:     -0.370D-03 0.179D-03 0.413D-02 0.542D-02 0.560D-01 0.355D+00
 Coeff:      0.579D+00
 Gap=     0.231 Goal=   None    Shift=    0.000
 RMSDP=5.95D-09 MaxDP=1.88D-07 DE=-9.09D-13 OVMax= 3.04D-07

 SCF Done:  E(RB3LYP) =  -874.580958342     A.U. after   11 cycles
            NFock= 11  Conv=0.60D-08     -V/T= 2.0064
 KE= 8.690126105016D+02 PE=-3.310321108435D+03 EE= 9.410916107732D+02
 Leave Link  502 at Fri Mar 14 15:15:14 2025, MaxMem=  8589934592 cpu:              63.0 elap:               7.9
 (Enter /home/enzo/gaussian_versions/gdv.j21/gdv/l701.exe)
 ... and contract with generalized density number  0.
 Compute integral first derivatives.
 Leave Link  701 at Fri Mar 14 15:15:15 2025, MaxMem=  8589934592 cpu:               1.9 elap:               0.6
 (Enter /home/enzo/gaussian_versions/gdv.j21/gdv/l702.exe)
 L702 exits ... SP integral derivatives will be done elsewhere.
 Leave Link  702 at Fri Mar 14 15:15:15 2025, MaxMem=  8589934592 cpu:               0.4 elap:               0.3
 (Enter /home/enzo/gaussian_versions/gdv.j21/gdv/l703.exe)
 Integral derivatives from FoFJK, PRISM(SPDF).
 Compute integral first derivatives, UseDBF=F ICtDFT=           0.
 Calling FoFJK, ICntrl=      2127 FMM=F ISym2X=0 I1Cent= 0 IOpClX= 0 NMat=1 NMatS=1 NMatT=0.
 FoFJK:  IHMeth= 1 ICntrl=    2127 DoSepK=F KAlg= 0 I1Cent=           0 FoldK=F
 IRaf=         0 NMat=       1 IRICut=       1 DoRegI=T DoRafI=F ISym2E= 0 IDoP0=0 IntGTp=1.
 FoFCou: FMM=F IPFlag=           0 FMFlag=      100000 FMFlg1=         800
         NFxFlg=           0 DoJE=F BraDBF=F KetDBF=F FulRan=T
         wScrn=  0.000000 ICntrl=      2127 IOpCl=  0 I1Cent=           0 NGrid=           0
         NMat0=    1 NMatS0=      1 NMatT0=    0 NMatD0=    1 NMtDS0=    0 NMtDT0=    0
 Symmetry not used in FoFCou.
 Leave Link  703 at Fri Mar 14 15:15:18 2025, MaxMem=  8589934592 cpu:              16.1 elap:               2.2
 (Enter /home/enzo/gaussian_versions/gdv.j21/gdv/l716.exe)
 Dipole        =-1.66048641D+00-4.56114002D-01-1.18595622D+00
 ***** Axes restored to original set *****
 -------------------------------------------------------------------
 Center     Atomic                   Forces (Hartrees/Bohr)
 Number     Number              X              Y              Z
 -------------------------------------------------------------------
      1        6           0.000026032    0.000021145   -0.000002300
      2        6           0.000046884    0.000187211   -0.000115300
      3       16          -0.000129025    0.000020485    0.000126519
      4        6          -0.000080296   -0.000173593    0.000129466
      5        8           0.000028918   -0.000043828   -0.000021946
      6        7           0.000069981    0.000039580   -0.000245181
      7        6          -0.000059539    0.000019705   -0.000088430
      8        6          -0.000083638    0.000066645    0.000312655
      9        8           0.000034743   -0.000041825   -0.000181071
     10        8           0.000121833    0.000081554   -0.000007753
     11        1           0.000003707    0.000008031    0.000008614
     12        1          -0.000007589   -0.000007511   -0.000018083
     13        1          -0.000017851   -0.000022575   -0.000007945
     14        1           0.000015324   -0.000045211    0.000027772
     15        1           0.000035369   -0.000000998   -0.000033082
     16        1           0.000004905    0.000017094    0.000059028
     17        1           0.000026270   -0.000032987    0.000049846
     18        1           0.000032430   -0.000027889    0.000052878
     19        1          -0.000068458   -0.000065033   -0.000045689
 -------------------------------------------------------------------
 Cartesian Forces:  Max     0.000312655 RMS     0.000085503
 Leave Link  716 at Fri Mar 14 15:15:18 2025, MaxMem=  8589934592 cpu:               0.1 elap:               0.2
 (Enter /home/enzo/gaussian_versions/gdv.j21/gdv/l103.exe)

 GradGradGradGradGradGradGradGradGradGradGradGradGradGradGradGradGradGrad
 Berny optimization.
 Using GEDIIS/GDIIS optimizer.
 FormGI is forming the generalized inverse of G from B-inverse, IUseBI=4.
 Internal  Forces:  Max     0.000213398 RMS     0.000051557
 Search for a local minimum.
 Step number  14 out of a maximum of   93
 All quantities printed in internal units (Hartrees-Bohrs-Radians)
 RMS Force = .51557D-04 SwitMx=.10000D-02 MixMth= 2
 Mixed Optimization -- En-DIIS/RFO-DIIS
 Swapping is turned off.
 Update second derivatives using D2CorX and points   10   11   12   13   14
 DE= -6.02D-06 DEPred=-5.07D-06 R= 1.19D+00
 TightC=F SS=  1.41D+00  RLast= 4.68D-02 DXNew= 2.3056D+00 1.4036D-01
 Trust test= 1.19D+00 RLast= 4.68D-02 DXMaxT set to 1.37D+00
 ITU=  1  1  1  1  1  1 -1  1  1  1  1  1  1  0
     Eigenvalues ---    0.00151   0.00173   0.00449   0.00614   0.00676
     Eigenvalues ---    0.00952   0.01287   0.02182   0.03927   0.04393
     Eigenvalues ---    0.04777   0.05219   0.05643   0.05763   0.05919
     Eigenvalues ---    0.06984   0.08283   0.10415   0.13567   0.15733
     Eigenvalues ---    0.15972   0.16015   0.16040   0.16086   0.16922
     Eigenvalues ---    0.18346   0.19769   0.21857   0.22581   0.22836
     Eigenvalues ---    0.24285   0.24885   0.25135   0.26313   0.27287
     Eigenvalues ---    0.30007   0.32069   0.32573   0.32616   0.32621
     Eigenvalues ---    0.32654   0.32721   0.32955   0.33789   0.36896
     Eigenvalues ---    0.40853   0.41885   0.46502   0.49587   0.80086
     Eigenvalues ---    0.81673
 En-DIIS/RFO-DIIS/Sim-DIIS IScMMF=       -3 using points:    14   13   12   11   10    9
 RFO step:  Lambda=-5.45354298D-06.
 NNeg= 0 NGDIIS= 6 SimSw=  2.50D-01 Rises=F DC= -6.02D-06 SmlDif=  1.00D-05
 NRisDI= 0 DoIntr=F SqrtH=F CThrHd= 10.0 CDAdj=  3.0
 RMS Error=  0.4661187741D-02 NUsed= 6 OKEnD=F EnDIS=F
 InvSVX:  RCond= 1.50D-05 Info=           0 Equed=N FErr=  3.94D-13 BErr=  1.08D-16
 DidBck=FF Rises=F RFO-DIIS coefs:    1.50964   -0.18280   -0.60687    0.18083    0.08621
                   RFO-DIIS coefs:    0.01299
 Iteration  1 RMS(Cart)=  0.00728771 RMS(Int)=  0.00009665
 Iteration  2 RMS(Cart)=  0.00003690 RMS(Int)=  0.00009422
 Iteration  3 RMS(Cart)=  0.00000000 RMS(Int)=  0.00009422
 Variable       Old X    -DE/DX   Delta X   Delta X   Delta X     New X
                                 (Linear)    (Quad)   (Total)
    R1        2.88252  -0.00000  -0.00002   0.00006   0.00004   2.88256
    R2        2.06514  -0.00000   0.00007  -0.00003   0.00004   2.06518
    R3        2.07193   0.00000   0.00007  -0.00004   0.00003   2.07196
    R4        2.06527  -0.00001   0.00009  -0.00009  -0.00001   2.06526
    R5        3.51617  -0.00002  -0.00011  -0.00013  -0.00024   3.51593
    R6        2.89434  -0.00006   0.00018  -0.00024  -0.00007   2.89428
    R7        2.07192  -0.00003  -0.00004  -0.00008  -0.00012   2.07181
    R8        2.55328  -0.00002  -0.00000  -0.00012  -0.00013   2.55315
    R9        2.30836  -0.00004   0.00021  -0.00021   0.00001   2.30837
   R10        2.59999  -0.00004  -0.00004  -0.00033  -0.00037   2.59962
   R11        2.74151   0.00004  -0.00079   0.00066  -0.00013   2.74139
   R12        1.91106  -0.00006   0.00027  -0.00032  -0.00004   1.91102
   R13        2.90530  -0.00001  -0.00022  -0.00008  -0.00030   2.90500
   R14        2.06787   0.00003   0.00020   0.00010   0.00030   2.06817
   R15        2.06631  -0.00006   0.00027  -0.00041  -0.00014   2.06617
   R16        2.27708  -0.00008   0.00000  -0.00006  -0.00006   2.27702
   R17        2.54883   0.00002   0.00055  -0.00024   0.00031   2.54914
   R18        1.84618  -0.00006  -0.00015  -0.00007  -0.00022   1.84596
    A1        1.92942   0.00002   0.00010   0.00016   0.00026   1.92968
    A2        1.92143  -0.00002   0.00039  -0.00029   0.00010   1.92152
    A3        1.92572  -0.00004   0.00009  -0.00040  -0.00032   1.92541
    A4        1.89912  -0.00000  -0.00031   0.00016  -0.00015   1.89898
    A5        1.90863   0.00000  -0.00038   0.00026  -0.00011   1.90851
    A6        1.87860   0.00003   0.00010   0.00011   0.00022   1.87881
    A7        1.97442   0.00008  -0.00044   0.00053   0.00010   1.97451
    A8        1.95519   0.00011  -0.00052   0.00066   0.00014   1.95533
    A9        1.92684  -0.00004   0.00071  -0.00035   0.00036   1.92720
   A10        1.87511  -0.00021   0.00001  -0.00149  -0.00148   1.87362
   A11        1.79926   0.00003   0.00066  -0.00027   0.00038   1.79965
   A12        1.92648   0.00002  -0.00036   0.00086   0.00050   1.92697
   A13        1.66718   0.00001  -0.00036   0.00023  -0.00012   1.66705
   A14        2.13097  -0.00003  -0.00055   0.00052  -0.00003   2.13093
   A15        2.00662  -0.00002  -0.00001   0.00007   0.00005   2.00668
   A16        2.14377   0.00005   0.00072  -0.00070   0.00002   2.14379
   A17        2.13776  -0.00011   0.00101  -0.00153  -0.00003   2.13772
   A18        2.07521   0.00005  -0.00105   0.00062   0.00007   2.07528
   A19        2.06923   0.00006  -0.00106   0.00091   0.00035   2.06958
   A20        1.99689  -0.00002   0.00061  -0.00037   0.00024   1.99713
   A21        1.86841   0.00002  -0.00141   0.00117  -0.00023   1.86818
   A22        1.94514   0.00001   0.00100  -0.00075   0.00026   1.94539
   A23        1.88580  -0.00004   0.00119  -0.00112   0.00007   1.88587
   A24        1.87929   0.00002  -0.00067   0.00042  -0.00025   1.87903
   A25        1.88471   0.00001  -0.00078   0.00067  -0.00010   1.88461
   A26        2.12341   0.00005   0.00002   0.00024   0.00027   2.12368
   A27        2.02946  -0.00008   0.00074  -0.00064   0.00010   2.02956
   A28        2.13012   0.00003  -0.00083   0.00045  -0.00037   2.12975
   A29        1.91453   0.00007   0.00124   0.00007   0.00132   1.91585
    D1        0.95155   0.00006   0.00092  -0.00042   0.00050   0.95205
    D2        3.07414  -0.00007   0.00022  -0.00150  -0.00128   3.07286
    D3       -1.05443  -0.00000  -0.00010  -0.00017  -0.00027  -1.05470
    D4        3.05030   0.00006   0.00085  -0.00030   0.00055   3.05085
    D5       -1.11029  -0.00007   0.00015  -0.00138  -0.00123  -1.11152
    D6        1.04432   0.00000  -0.00017  -0.00005  -0.00022   1.04410
    D7       -1.16190   0.00006   0.00127  -0.00059   0.00068  -1.16123
    D8        0.96069  -0.00007   0.00057  -0.00166  -0.00110   0.95959
    D9        3.11530   0.00000   0.00025  -0.00034  -0.00009   3.11521
   D10        1.06721  -0.00003  -0.00324  -0.00041  -0.00365   1.06356
   D11       -1.09981  -0.00007  -0.00229  -0.00052  -0.00281  -1.10263
   D12       -3.13488  -0.00001  -0.00219  -0.00074  -0.00293  -3.13781
   D13       -0.57384  -0.00003  -0.00744  -0.00078  -0.00823  -0.58207
   D14        2.63089  -0.00003  -0.01005   0.00118  -0.00887   2.62202
   D15        1.60482  -0.00000  -0.00833  -0.00073  -0.00907   1.59575
   D16       -1.47363  -0.00000  -0.01094   0.00123  -0.00971  -1.48335
   D17       -2.72866  -0.00007  -0.00773  -0.00142  -0.00916  -2.73781
   D18        0.47608  -0.00007  -0.01034   0.00054  -0.00980   0.46628
   D19        3.03613  -0.00004  -0.00307  -0.00259  -0.00565   3.03048
   D20       -0.15393  -0.00001   0.00764  -0.00269   0.00494  -0.14899
   D21       -0.04180  -0.00003  -0.00565  -0.00066  -0.00630  -0.04810
   D22        3.05132  -0.00001   0.00506  -0.00076   0.00429   3.05561
   D23       -1.88977   0.00004   0.00087  -0.00088  -0.00001  -1.88977
   D24        0.19899  -0.00001   0.00176  -0.00169   0.00007   0.19906
   D25        2.25626   0.00002   0.00052  -0.00058  -0.00005   2.25621
   D26        1.30014   0.00001  -0.00978  -0.00077  -0.01055   1.28959
   D27       -2.89429  -0.00003  -0.00889  -0.00158  -0.01048  -2.90477
   D28       -0.83702  -0.00000  -0.01013  -0.00047  -0.01060  -0.84762
   D29       -2.86180   0.00006   0.00866   0.00199   0.01064  -2.85116
   D30        0.30033  -0.00003   0.01151  -0.00040   0.01111   0.31144
   D31        1.34239   0.00008   0.00922   0.00151   0.01073   1.35312
   D32       -1.77866  -0.00001   0.01208  -0.00087   0.01120  -1.76746
   D33       -0.68924   0.00007   0.00987   0.00108   0.01095  -0.67829
   D34        2.47290  -0.00002   0.01272  -0.00130   0.01142   2.48432
   D35       -0.02019  -0.00002  -0.00439   0.00011  -0.00428  -0.02446
   D36       -3.14115  -0.00011  -0.00153  -0.00228  -0.00381   3.13822
         Item               Value     Threshold  Converged?
 Maximum Force            0.000213     0.000450     YES
 RMS     Force            0.000052     0.000300     YES
 Maximum Displacement     0.030878     0.001800     NO 
 RMS     Displacement     0.007286     0.001200     NO 
 Predicted change in Energy=-2.640413D-06
 Lowest energy point so far.  Saving SCF results.
 GradGradGradGradGradGradGradGradGradGradGradGradGradGradGradGradGradGrad

 Leave Link  103 at Fri Mar 14 15:15:18 2025, MaxMem=  8589934592 cpu:               3.6 elap:               0.7
 (Enter /home/enzo/gaussian_versions/gdv.j21/gdv/l202.exe)
                          Input orientation:                          
 ---------------------------------------------------------------------
 Center     Atomic      Atomic             Coordinates (Angstroms)
 Number     Number       Type             X           Y           Z
 ---------------------------------------------------------------------
      1          6           0        2.836098    1.264859   -0.726468
      2          6           0        1.634487    0.352208   -0.950080
      3         16           0        1.988608   -1.431727   -0.557881
      4          6           0        0.427592    0.774368   -0.106908
      5          8           0        0.552475    1.270580    1.002294
      6          7           0       -0.797802    0.481872   -0.659436
      7          6           0       -2.043464    0.685683    0.055585
      8          6           0       -2.736673   -0.610012    0.507030
      9          8           0       -3.894654   -0.625273    0.839816
     10          8           0       -1.970177   -1.719720    0.533172
     11          1           0        3.702727    0.902189   -1.284804
     12          1           0        2.602604    2.283319   -1.058712
     13          1           0        3.084210    1.311918    0.336846
     14          1           0        1.367444    0.324900   -2.013062
     15          1           0        2.285145   -1.222184    0.743482
     16          1           0       -0.836315    0.142012   -1.611105
     17          1           0       -1.808288    1.273320    0.948418
     18          1           0       -2.760198    1.253995   -0.543386
     19          1           0       -1.067973   -1.505427    0.226058
 ---------------------------------------------------------------------
                    Distance matrix (angstroms):
                    1          2          3          4          5
     1  C    0.000000
     2  C    1.525387   0.000000
     3  S    2.831649   1.860550   0.000000
     4  C    2.534825   1.531585   2.739892   0.000000
     5  O    2.864190   2.413694   3.434980   1.221537   0.000000
     6  N    3.717902   2.453022   3.381754   1.375657   2.281811
     7  C    4.975659   3.827517   4.595364   2.477980   2.824405
     8  C    6.007699   4.707024   4.912997   3.507992   3.821048
     9  O    7.164417   5.893267   6.100550   4.640808   4.837109
    10  O    5.796092   4.414354   4.116469   3.518448   3.940272
    11  H    1.092846   2.166134   2.985596   3.482856   3.910322
    12  H    1.096433   2.162924   3.798603   2.813101   3.078378
    13  H    1.092891   2.163080   3.086822   2.746542   2.618055
    14  H    2.166978   1.096352   2.364135   2.172272   3.263565
    15  H    2.941035   2.402128   1.351069   2.856552   3.046802
    16  H    3.940810   2.566319   3.400901   2.063963   3.167374
    17  H    4.937169   4.037999   4.899249   2.522266   2.361380
    18  H    5.599301   4.504650   5.455683   3.253085   3.655573
    19  H    4.880939   3.483876   3.156371   2.746825   3.306752
                    6          7          8          9         10
     6  N    0.000000
     7  C    1.450678   0.000000
     8  C    2.512384   1.537260   0.000000
     9  O    3.614418   2.400111   1.204948   0.000000
    10  O    2.764739   2.453452   1.348946   2.235053   0.000000
    11  H    4.563169   5.904424   6.852977   8.035381   6.508554
    12  H    3.868772   5.037861   6.271426   7.367406   6.282415
    13  H    4.092868   5.173424   6.132329   7.260181   5.897135
    14  H    2.558365   4.005466   4.905987   6.060645   4.669421
    15  H    3.791642   4.780169   5.064517   6.209308   4.289468
    16  H    1.011267   2.128531   2.943365   3.993643   3.057714
    17  H    2.057345   1.094429   2.145614   2.823008   3.026041
    18  H    2.112023   1.093368   2.139731   2.594588   3.259769
    19  H    2.192361   2.404498   1.914491   3.023491   0.976838
                   11         12         13         14         15
    11  H    0.000000
    12  H    1.780142   0.000000
    13  H    1.783308   1.767242   0.000000
    14  H    2.513398   2.504357   3.073037   0.000000
    15  H    3.261356   3.954394   2.688035   3.291532   0.000000
    16  H    4.613810   4.088581   4.531413   2.247570   4.141090
    17  H    5.957878   4.950216   4.930725   4.444675   4.798514
    18  H    6.514819   5.484953   5.910606   4.478905   5.765673
    19  H    5.553278   5.429398   5.018997   3.780874   3.404608
                   16         17         18         19
    16  H    0.000000
    17  H    2.962388   0.000000
    18  H    2.465331   1.769742   0.000000
    19  H    2.478485   2.965013   3.327173   0.000000
 Stoichiometry    C5H9NO3S
 Framework group  C1[X(C5H9NO3S)]
 Deg. of freedom    51
 Full point group                 C1      NOp   1
 RotChk:  IX=0 Diff= 4.76D-03
 Largest Abelian subgroup         C1      NOp   1
 Largest concise Abelian subgroup C1      NOp   1
                         Standard orientation:                         
 ---------------------------------------------------------------------
 Center     Atomic      Atomic             Coordinates (Angstroms)
 Number     Number       Type             X           Y           Z
 ---------------------------------------------------------------------
      1          6           0       -3.153865   -0.994379   -0.051159
      2          6           0       -1.925958   -0.207543   -0.498303
      3         16           0       -1.974561    1.579061    0.018738
      4          6           0       -0.628055   -0.806913    0.051201
      5          8           0       -0.575486   -1.349119    1.144545
      6          7           0        0.479927   -0.619259   -0.742269
      7          6           0        1.814573   -0.998868   -0.319083
      8          6           0        2.736541    0.185132    0.014517
      9          8           0        3.931955    0.054395    0.090627
     10          8           0        2.130517    1.368794    0.241083
     11          1           0       -4.068853   -0.507614   -0.397814
     12          1           0       -3.118469   -2.011594   -0.458820
     13          1           0       -3.176965   -1.074752    1.038528
     14          1           0       -1.886773   -0.148863   -1.592382
     15          1           0       -2.014039    1.329132    1.345902
     16          1           0        0.357982   -0.231762   -1.668355
     17          1           0        1.703779   -1.607334    0.583839
     18          1           0        2.316568   -1.607050   -1.076425
     19          1           0        1.164973    1.272539    0.128512
 ---------------------------------------------------------------------
 Rotational constants (GHZ):           2.1506532           0.5953617           0.5075584
 Leave Link  202 at Fri Mar 14 15:15:19 2025, MaxMem=  8589934592 cpu:               0.4 elap:               0.2
 (Enter /home/enzo/gaussian_versions/gdv.j21/gdv/l301.exe)
 Standard basis: 6-31G(d) (6D, 7F)
 Ernie: Thresh=  0.10000D-02 Tol=  0.10000D-05 Strict=F.
 There are   172 symmetry adapted cartesian basis functions of A   symmetry.
 There are   172 symmetry adapted basis functions of A   symmetry.
   172 basis functions,   340 primitive gaussians,   172 cartesian basis functions
    43 alpha electrons       43 beta electrons
       nuclear repulsion energy       625.6897949074 Hartrees.
 IExCor=      4002 DFT=T Ex+Corr=B3LYP ScaHFX=  0.200000
 ScaDFX=  0.800000  0.720000  1.000000  0.810000  1.000000  0.000000
 ScaDFX=  0.000000  0.000000  0.000000  0.000000  0.000000  0.000000
 IRadAn=      5 IRanWt=     -1 IRanGd=            0 ICorTp=0 IEmpDi=  4
 NAtoms=   19 NActive=   19 NUniq=   19 SFac= 1.00D+00 NAtFMM=   60 NAOKFM=F Big=F
 Integral buffers will be    131072 words long.
 Raffenetti 2 integral format.
 Two-electron integral symmetry is turned on.
 Leave Link  301 at Fri Mar 14 15:15:19 2025, MaxMem=  8589934592 cpu:               0.7 elap:               0.4
 (Enter /home/enzo/gaussian_versions/gdv.j21/gdv/l302.exe)
 NPDir=0 NMtPBC=     1 NCelOv=     1 NCel=       1 NClECP=     1 NCelD=      1
         NCelK=      1 NCelE2=     1 NClLst=     1 CellRange=     0.0.
 One-electron integrals computed using PRISM.
 One-electron integral symmetry used in STVInt
 NBasis=   172 RedAO= T EigKep=  2.78D-03  NBF=   172
 NBsUse=   172 1.00D-06 EigRej= -1.00D+00 NBFU=   172
 Precomputing XC quadrature grid using
 IXCGrd= 4 IRadAn=           5 IRanWt=          -1 IRanGd=           0 AccXCQ= 0.00D+00.
 Generated NRdTot=       0 NPtTot=      406202 NUsed=           0 NTot=          64
 NSgBfM=   171   171   171   171   171 MxSgAt=    19 MxSgA2=    19 SizInc=   0.000
 NMBTot=     3401 MaxBatPerAtom=       85 MaxMicBPerAtom=      194 NBfPt=            51850241.
 Leave Link  302 at Fri Mar 14 15:15:20 2025, MaxMem=  8589934592 cpu:               6.8 elap:               1.3
 (Enter /home/enzo/gaussian_versions/gdv.j21/gdv/l303.exe)
 DipDrv:  MaxL=1.
 Leave Link  303 at Fri Mar 14 15:15:21 2025, MaxMem=  8589934592 cpu:               0.4 elap:               0.2
 (Enter /home/enzo/gaussian_versions/gdv.j21/gdv/l401.exe)
 Initial guess from the checkpoint file:  "/local/home/enzo/scratch/Gau-2337715.chk"
 B after Tr=     0.000000    0.000000   -0.000000
         Rot=    0.999999    0.001091    0.000184    0.000071 Ang=   0.13 deg.
 AO Guess basis will be translated and rotated to current coordinates.
 JPrj=2 DoOrth=T DoCkMO=T.
 Generating alternative initial guess.
 ExpMin= 1.17D-01 ExpMax= 2.19D+04 ExpMxC= 3.30D+03 IAcc=3 IRadAn=         5 AccDes= 0.00D+00
 Harris functional with IExCor= 4002 and IRadAn=       5 diagonalized for initial guess.
 HarFok:  IExCor=    4002 AccDes= 0.00D+00 IRadAn=         5 IDoV= 1 UseB2=F ITyADJ=14 ICtDFT=  3500011
 FoFCou: FMM=F IPFlag=           0 FMFlag=      100000 FMFlg1=           0
         NFxFlg=           0 DoJE=T BraDBF=F KetDBF=T FulRan=T
         wScrn=  0.000000 ICntrl=       500 IOpCl=  0 I1Cent=   200000004 NGrid=           0
         NMat0=    1 NMatS0=      1 NMatT0=    0 NMatD0=    1 NMtDS0=    0 NMtDT0=    0
 Petite list used in FoFCou.
 Harris En= -874.550292673313    
 Leave Link  401 at Fri Mar 14 15:15:22 2025, MaxMem=  8589934592 cpu:               9.9 elap:               1.5
 (Enter /home/enzo/gaussian_versions/gdv.j21/gdv/l502.exe)
 Integral symmetry usage will be decided dynamically.
 Closed shell SCF:
 Using DIIS extrapolation, IDIIS=  1040.
 NGot=  8589934592 LenX=  8589843591 LenY=  8589813566
 Requested convergence on RMS density matrix=1.00D-08 within 128 cycles.
 Requested convergence on MAX density matrix=1.00D-06.
 Requested convergence on             energy=1.00D-06.
 No special actions if energy rises.
 Fock matrices will be formed incrementally for  20 cycles.
 Integral accuracy reduced to 1.0D-05 until final iterations.

 Cycle   1  Pass 0  IDiag  1:
 FoFJK:  IHMeth= 1 ICntrl=       0 DoSepK=F KAlg= 0 I1Cent=           0 FoldK=F
 IRaf= 910000000 NMat=       1 IRICut=       1 DoRegI=T DoRafI=F ISym2E= 0 IDoP0=0 IntGTp=1.
 FoFCou: FMM=F IPFlag=           0 FMFlag=      100000 FMFlg1=           0
         NFxFlg=           0 DoJE=F BraDBF=F KetDBF=F FulRan=T
         wScrn=  0.000000 ICntrl=         0 IOpCl=  0 I1Cent=           0 NGrid=           0
         NMat0=    1 NMatS0=      1 NMatT0=    0 NMatD0=    1 NMtDS0=    0 NMtDT0=    0
 Symmetry not used in FoFCou.
 E= -874.580846794663    
 DIIS: error= 3.63D-04 at cycle   1 NSaved=   1.
 NSaved= 1 IEnMin= 1 EnMin= -874.580846794663     IErMin= 1 ErrMin= 3.63D-04
 ErrMax= 3.63D-04  0.00D+00 EMaxC= 1.00D-01 BMatC= 6.04D-05 BMatP= 6.04D-05
 IDIUse=3 WtCom= 9.96D-01 WtEn= 3.63D-03
 Coeff-Com:  0.100D+01
 Coeff-En:   0.100D+01
 Coeff:      0.100D+01
 Gap=     1.517 Goal=   None    Shift=    0.000
 RMSDP=8.36D-05 MaxDP=2.05D-03              OVMax= 2.26D-03

 Cycle   2  Pass 0  IDiag  1:
 RMSU=  8.36D-05    CP:  1.00D+00
 E= -874.580965006185     Delta-E=       -0.000118211522 Rises=F Damp=F
 DIIS: error= 6.90D-05 at cycle   2 NSaved=   2.
 NSaved= 2 IEnMin= 2 EnMin= -874.580965006185     IErMin= 2 ErrMin= 6.90D-05
 ErrMax= 6.90D-05  0.00D+00 EMaxC= 1.00D-01 BMatC= 1.40D-06 BMatP= 6.04D-05
 IDIUse=1 WtCom= 1.00D+00 WtEn= 0.00D+00
 Coeff-Com: -0.599D-01 0.106D+01
 Coeff:     -0.599D-01 0.106D+01
 Gap=     0.231 Goal=   None    Shift=    0.000
 RMSDP=1.63D-05 MaxDP=3.80D-04 DE=-1.18D-04 OVMax= 6.06D-04

 Cycle   3  Pass 0  IDiag  1:
 RMSU=  1.54D-05    CP:  1.00D+00  1.07D+00
 E= -874.580964848680     Delta-E=        0.000000157505 Rises=F Damp=F
 DIIS: error= 9.04D-05 at cycle   3 NSaved=   3.
 NSaved= 3 IEnMin= 2 EnMin= -874.580965006185     IErMin= 2 ErrMin= 6.90D-05
 ErrMax= 9.04D-05  0.00D+00 EMaxC= 1.00D-01 BMatC= 2.64D-06 BMatP= 1.40D-06
 IDIUse=1 WtCom= 1.00D+00 WtEn= 0.00D+00
 Coeff-Com: -0.505D-01 0.654D+00 0.396D+00
 Coeff:     -0.505D-01 0.654D+00 0.396D+00
 Gap=     0.231 Goal=   None    Shift=    0.000
 RMSDP=1.00D-05 MaxDP=2.92D-04 DE= 1.58D-07 OVMax= 5.07D-04

 Initial convergence to 1.0D-05 achieved.  Increase integral accuracy.
 Cycle   4  Pass 1  IDiag  1:
 E= -874.580961739377     Delta-E=        0.000003109303 Rises=F Damp=F
 DIIS: error= 2.29D-05 at cycle   1 NSaved=   1.
 NSaved= 1 IEnMin= 1 EnMin= -874.580961739377     IErMin= 1 ErrMin= 2.29D-05
 ErrMax= 2.29D-05  0.00D+00 EMaxC= 1.00D-01 BMatC= 1.85D-07 BMatP= 1.85D-07
 IDIUse=1 WtCom= 1.00D+00 WtEn= 0.00D+00
 Coeff-Com:  0.100D+01
 Coeff:      0.100D+01
 Gap=     0.231 Goal=   None    Shift=    0.000
 RMSDP=1.00D-05 MaxDP=2.92D-04 DE= 3.11D-06 OVMax= 2.89D-04

 Cycle   5  Pass 1  IDiag  1:
 RMSU=  7.12D-06    CP:  1.00D+00
 E= -874.580961311727     Delta-E=        0.000000427649 Rises=F Damp=F
 DIIS: error= 4.96D-05 at cycle   2 NSaved=   2.
 NSaved= 2 IEnMin= 1 EnMin= -874.580961739377     IErMin= 1 ErrMin= 2.29D-05
 ErrMax= 4.96D-05  0.00D+00 EMaxC= 1.00D-01 BMatC= 7.55D-07 BMatP= 1.85D-07
 IDIUse=1 WtCom= 1.00D+00 WtEn= 0.00D+00
 Coeff-Com:  0.675D+00 0.325D+00
 Coeff:      0.675D+00 0.325D+00
 Gap=     0.231 Goal=   None    Shift=    0.000
 RMSDP=4.42D-06 MaxDP=1.48D-04 DE= 4.28D-07 OVMax= 2.10D-04

 Cycle   6  Pass 1  IDiag  1:
 RMSU=  2.51D-06    CP:  1.00D+00  4.89D-01
 E= -874.580961881094     Delta-E=       -0.000000569366 Rises=F Damp=F
 DIIS: error= 3.26D-06 at cycle   3 NSaved=   3.
 NSaved= 3 IEnMin= 3 EnMin= -874.580961881094     IErMin= 3 ErrMin= 3.26D-06
 ErrMax= 3.26D-06  0.00D+00 EMaxC= 1.00D-01 BMatC= 3.56D-09 BMatP= 1.85D-07
 IDIUse=1 WtCom= 1.00D+00 WtEn= 0.00D+00
 Coeff-Com:  0.123D+00 0.982D-01 0.779D+00
 Coeff:      0.123D+00 0.982D-01 0.779D+00
 Gap=     0.231 Goal=   None    Shift=    0.000
 RMSDP=4.99D-07 MaxDP=1.09D-05 DE=-5.69D-07 OVMax= 1.81D-05

 Cycle   7  Pass 1  IDiag  1:
 RMSU=  4.05D-07    CP:  1.00D+00  5.19D-01  9.19D-01
 E= -874.580961883757     Delta-E=       -0.000000002663 Rises=F Damp=F
 DIIS: error= 9.78D-07 at cycle   4 NSaved=   4.
 NSaved= 4 IEnMin= 4 EnMin= -874.580961883757     IErMin= 4 ErrMin= 9.78D-07
 ErrMax= 9.78D-07  0.00D+00 EMaxC= 1.00D-01 BMatC= 4.99D-10 BMatP= 3.56D-09
 IDIUse=1 WtCom= 1.00D+00 WtEn= 0.00D+00
 Coeff-Com:  0.223D-01 0.280D-01 0.358D+00 0.592D+00
 Coeff:      0.223D-01 0.280D-01 0.358D+00 0.592D+00
 Gap=     0.231 Goal=   None    Shift=    0.000
 RMSDP=1.99D-07 MaxDP=4.13D-06 DE=-2.66D-09 OVMax= 7.75D-06

 Cycle   8  Pass 1  IDiag  1:
 RMSU=  1.34D-07    CP:  1.00D+00  5.18D-01  9.45D-01  6.75D-01
 E= -874.580961884058     Delta-E=       -0.000000000301 Rises=F Damp=F
 DIIS: error= 9.77D-07 at cycle   5 NSaved=   5.
 NSaved= 5 IEnMin= 5 EnMin= -874.580961884058     IErMin= 5 ErrMin= 9.77D-07
 ErrMax= 9.77D-07  0.00D+00 EMaxC= 1.00D-01 BMatC= 2.04D-10 BMatP= 4.99D-10
 IDIUse=1 WtCom= 1.00D+00 WtEn= 0.00D+00
 Coeff-Com: -0.104D-02 0.598D-02 0.140D+00 0.407D+00 0.448D+00
 Coeff:     -0.104D-02 0.598D-02 0.140D+00 0.407D+00 0.448D+00
 Gap=     0.231 Goal=   None    Shift=    0.000
 RMSDP=7.94D-08 MaxDP=2.69D-06 DE=-3.01D-10 OVMax= 4.86D-06

 Cycle   9  Pass 1  IDiag  1:
 RMSU=  4.26D-08    CP:  1.00D+00  5.19D-01  9.43D-01  7.00D-01  5.11D-01
 E= -874.580961884202     Delta-E=       -0.000000000144 Rises=F Damp=F
 DIIS: error= 1.62D-07 at cycle   6 NSaved=   6.
 NSaved= 6 IEnMin= 6 EnMin= -874.580961884202     IErMin= 6 ErrMin= 1.62D-07
 ErrMax= 1.62D-07  0.00D+00 EMaxC= 1.00D-01 BMatC= 1.12D-11 BMatP= 2.04D-10
 IDIUse=1 WtCom= 1.00D+00 WtEn= 0.00D+00
 Coeff-Com: -0.232D-02 0.111D-02 0.480D-01 0.183D+00 0.260D+00 0.510D+00
 Coeff:     -0.232D-02 0.111D-02 0.480D-01 0.183D+00 0.260D+00 0.510D+00
 Gap=     0.231 Goal=   None    Shift=    0.000
 RMSDP=2.32D-08 MaxDP=5.39D-07 DE=-1.44D-10 OVMax= 8.38D-07

 Cycle  10  Pass 1  IDiag  1:
 RMSU=  1.64D-08    CP:  1.00D+00  5.19D-01  9.43D-01  7.16D-01  5.54D-01
                    CP:  6.80D-01
 E= -874.580961884213     Delta-E=       -0.000000000011 Rises=F Damp=F
 DIIS: error= 4.14D-08 at cycle   7 NSaved=   7.
 NSaved= 7 IEnMin= 7 EnMin= -874.580961884213     IErMin= 7 ErrMin= 4.14D-08
 ErrMax= 4.14D-08  0.00D+00 EMaxC= 1.00D-01 BMatC= 8.51D-13 BMatP= 1.12D-11
 IDIUse=1 WtCom= 1.00D+00 WtEn= 0.00D+00
 Coeff-Com: -0.104D-02-0.513D-04 0.892D-02 0.504D-01 0.856D-01 0.266D+00
 Coeff-Com:  0.590D+00
 Coeff:     -0.104D-02-0.513D-04 0.892D-02 0.504D-01 0.856D-01 0.266D+00
 Coeff:      0.590D+00
 Gap=     0.231 Goal=   None    Shift=    0.000
 RMSDP=6.77D-09 MaxDP=1.51D-07 DE=-1.14D-11 OVMax= 2.06D-07

 SCF Done:  E(RB3LYP) =  -874.580961884     A.U. after   10 cycles
            NFock= 10  Conv=0.68D-08     -V/T= 2.0064
 KE= 8.690132302980D+02 PE=-3.310428747546D+03 EE= 9.411447604566D+02
 Leave Link  502 at Fri Mar 14 15:15:30 2025, MaxMem=  8589934592 cpu:              64.3 elap:               8.0
 (Enter /home/enzo/gaussian_versions/gdv.j21/gdv/l701.exe)
 ... and contract with generalized density number  0.
 Compute integral first derivatives.
 Leave Link  701 at Fri Mar 14 15:15:31 2025, MaxMem=  8589934592 cpu:               3.0 elap:               0.6
 (Enter /home/enzo/gaussian_versions/gdv.j21/gdv/l702.exe)
 L702 exits ... SP integral derivatives will be done elsewhere.
 Leave Link  702 at Fri Mar 14 15:15:31 2025, MaxMem=  8589934592 cpu:               0.2 elap:               0.2
 (Enter /home/enzo/gaussian_versions/gdv.j21/gdv/l703.exe)
 Integral derivatives from FoFJK, PRISM(SPDF).
 Compute integral first derivatives, UseDBF=F ICtDFT=           0.
 Calling FoFJK, ICntrl=      2127 FMM=F ISym2X=0 I1Cent= 0 IOpClX= 0 NMat=1 NMatS=1 NMatT=0.
 FoFJK:  IHMeth= 1 ICntrl=    2127 DoSepK=F KAlg= 0 I1Cent=           0 FoldK=F
 IRaf=         0 NMat=       1 IRICut=       1 DoRegI=T DoRafI=F ISym2E= 0 IDoP0=0 IntGTp=1.
 FoFCou: FMM=F IPFlag=           0 FMFlag=      100000 FMFlg1=         800
         NFxFlg=           0 DoJE=F BraDBF=F KetDBF=F FulRan=T
         wScrn=  0.000000 ICntrl=      2127 IOpCl=  0 I1Cent=           0 NGrid=           0
         NMat0=    1 NMatS0=      1 NMatT0=    0 NMatD0=    1 NMtDS0=    0 NMtDT0=    0
 Symmetry not used in FoFCou.
 Leave Link  703 at Fri Mar 14 15:15:33 2025, MaxMem=  8589934592 cpu:              14.9 elap:               1.9
 (Enter /home/enzo/gaussian_versions/gdv.j21/gdv/l716.exe)
 Dipole        =-1.65939940D+00-4.62797731D-01-1.17844700D+00
 ***** Axes restored to original set *****
 -------------------------------------------------------------------
 Center     Atomic                   Forces (Hartrees/Bohr)
 Number     Number              X              Y              Z
 -------------------------------------------------------------------
      1        6           0.000037988    0.000001760   -0.000014676
      2        6           0.000016204    0.000202834   -0.000015799
      3       16          -0.000084917   -0.000036036    0.000050349
      4        6          -0.000056559   -0.000048164    0.000035773
      5        8           0.000084593   -0.000027868    0.000060041
      6        7           0.000097261   -0.000124614   -0.000151787
      7        6          -0.000119047    0.000118057   -0.000075676
      8        6           0.000020731   -0.000026022    0.000223114
      9        8           0.000024003   -0.000033106   -0.000097908
     10        8           0.000002481    0.000043492   -0.000034624
     11        1          -0.000012192   -0.000001119    0.000005889
     12        1          -0.000015978   -0.000009507   -0.000013641
     13        1          -0.000018576   -0.000004288    0.000003115
     14        1           0.000022233   -0.000034456    0.000004862
     15        1          -0.000002459    0.000003058   -0.000006545
     16        1          -0.000047745    0.000038568    0.000043813
     17        1           0.000055007   -0.000060972   -0.000033286
     18        1           0.000013883   -0.000012489    0.000020734
     19        1          -0.000016912    0.000010872   -0.000003748
 -------------------------------------------------------------------
 Cartesian Forces:  Max     0.000223114 RMS     0.000064535
 Leave Link  716 at Fri Mar 14 15:15:33 2025, MaxMem=  8589934592 cpu:               0.2 elap:               0.2
 (Enter /home/enzo/gaussian_versions/gdv.j21/gdv/l103.exe)

 GradGradGradGradGradGradGradGradGradGradGradGradGradGradGradGradGradGrad
 Berny optimization.
 Using GEDIIS/GDIIS optimizer.
 FormGI is forming the generalized inverse of G from B-inverse, IUseBI=4.
 Internal  Forces:  Max     0.000175672 RMS     0.000046346
 Search for a local minimum.
 Step number  15 out of a maximum of   93
 All quantities printed in internal units (Hartrees-Bohrs-Radians)
 RMS Force = .46346D-04 SwitMx=.10000D-02 MixMth= 2
 Mixed Optimization -- En-DIIS/RFO-DIIS
 Swapping is turned off.
 Update second derivatives using D2CorX and points   10   11   12   13   14
                                                     15
 DE= -3.54D-06 DEPred=-2.64D-06 R= 1.34D+00
 TightC=F SS=  1.41D+00  RLast= 4.19D-02 DXNew= 2.3056D+00 1.2559D-01
 Trust test= 1.34D+00 RLast= 4.19D-02 DXMaxT set to 1.37D+00
 ITU=  1  1  1  1  1  1  1 -1  1  1  1  1  1  1  0
     Eigenvalues ---    0.00154   0.00175   0.00428   0.00509   0.00618
     Eigenvalues ---    0.00993   0.01285   0.02298   0.04000   0.04394
     Eigenvalues ---    0.04664   0.05211   0.05635   0.05716   0.05772
     Eigenvalues ---    0.06973   0.08238   0.10443   0.13611   0.15854
     Eigenvalues ---    0.15946   0.16012   0.16028   0.16132   0.16756
     Eigenvalues ---    0.18029   0.19632   0.21884   0.22505   0.23021
     Eigenvalues ---    0.24352   0.24890   0.25089   0.26433   0.27282
     Eigenvalues ---    0.29993   0.32073   0.32572   0.32616   0.32620
     Eigenvalues ---    0.32670   0.32766   0.33211   0.33926   0.36906
     Eigenvalues ---    0.40901   0.42005   0.46531   0.49988   0.80209
     Eigenvalues ---    0.81620
 En-DIIS/RFO-DIIS/Sim-DIIS IScMMF=       -3 using points:    15   14   13   12   11   10    9
 RFO step:  Lambda=-2.55467057D-06.
 NNeg= 0 NGDIIS= 7 SimSw=  2.50D-01 Rises=F DC= -3.54D-06 SmlDif=  1.00D-05
 NRisDI= 0 DoIntr=F SqrtH=F CThrHd= 10.0 CDAdj=  3.0
 RMS Error=  0.2490933609D-02 NUsed= 7 OKEnD=F EnDIS=F
 InvSVX:  RCond= 3.03D-06 Info=           0 Equed=N FErr=  1.11D-12 BErr=  9.94D-17
 DidBck=FF Rises=F RFO-DIIS coefs:    0.81615    0.73693   -0.53946   -0.13260    0.07401
                   RFO-DIIS coefs:    0.03068    0.01429
 Iteration  1 RMS(Cart)=  0.00293559 RMS(Int)=  0.00006288
 Iteration  2 RMS(Cart)=  0.00000542 RMS(Int)=  0.00006277
 Iteration  3 RMS(Cart)=  0.00000000 RMS(Int)=  0.00006277
 Variable       Old X    -DE/DX   Delta X   Delta X   Delta X     New X
                                 (Linear)    (Quad)   (Total)
    R1        2.88256  -0.00002  -0.00001  -0.00005  -0.00006   2.88251
    R2        2.06518  -0.00001   0.00004  -0.00005  -0.00001   2.06517
    R3        2.07196  -0.00000   0.00006  -0.00004   0.00001   2.07197
    R4        2.06526  -0.00000   0.00004  -0.00004   0.00001   2.06527
    R5        3.51593   0.00002  -0.00006   0.00011   0.00005   3.51598
    R6        2.89428  -0.00009   0.00010  -0.00025  -0.00015   2.89413
    R7        2.07181  -0.00001  -0.00001  -0.00004  -0.00006   2.07175
    R8        2.55315  -0.00001   0.00004  -0.00010  -0.00006   2.55309
    R9        2.30837   0.00005   0.00004   0.00003   0.00007   2.30844
   R10        2.59962   0.00003  -0.00003  -0.00000  -0.00003   2.59959
   R11        2.74139   0.00002  -0.00027   0.00020  -0.00007   2.74131
   R12        1.91102  -0.00005   0.00015  -0.00021  -0.00006   1.91096
   R13        2.90500   0.00002   0.00005  -0.00004   0.00001   2.90501
   R14        2.06817  -0.00005   0.00014  -0.00009   0.00005   2.06822
   R15        2.06617  -0.00003   0.00014  -0.00022  -0.00008   2.06608
   R16        2.27702  -0.00005   0.00004  -0.00008  -0.00005   2.27697
   R17        2.54914  -0.00005   0.00029  -0.00019   0.00010   2.54924
   R18        1.84596  -0.00001  -0.00002  -0.00006  -0.00008   1.84587
    A1        1.92968   0.00000   0.00006   0.00006   0.00012   1.92980
    A2        1.92152  -0.00003   0.00020  -0.00025  -0.00005   1.92147
    A3        1.92541  -0.00002  -0.00002  -0.00016  -0.00017   1.92523
    A4        1.89898   0.00001  -0.00015   0.00010  -0.00005   1.89893
    A5        1.90851   0.00001  -0.00018   0.00019   0.00001   1.90853
    A6        1.87881   0.00002   0.00008   0.00007   0.00015   1.87896
    A7        1.97451   0.00010  -0.00015   0.00036   0.00021   1.97472
    A8        1.95533   0.00008  -0.00021   0.00045   0.00024   1.95557
    A9        1.92720  -0.00004   0.00036  -0.00006   0.00030   1.92750
   A10        1.87362  -0.00018  -0.00012  -0.00120  -0.00132   1.87230
   A11        1.79965   0.00000   0.00031  -0.00021   0.00011   1.79975
   A12        1.92697   0.00003  -0.00016   0.00059   0.00042   1.92740
   A13        1.66705  -0.00001  -0.00005  -0.00004  -0.00009   1.66696
   A14        2.13093  -0.00008  -0.00014  -0.00013  -0.00027   2.13067
   A15        2.00668  -0.00004   0.00004  -0.00010  -0.00006   2.00662
   A16        2.14379   0.00011   0.00015   0.00015   0.00030   2.14409
   A17        2.13772  -0.00008   0.00041  -0.00083  -0.00010   2.13763
   A18        2.07528   0.00009  -0.00073   0.00065   0.00025   2.07553
   A19        2.06958  -0.00000  -0.00057   0.00020  -0.00004   2.06954
   A20        1.99713  -0.00008   0.00044  -0.00063  -0.00019   1.99694
   A21        1.86818  -0.00002  -0.00044  -0.00010  -0.00054   1.86763
   A22        1.94539   0.00003   0.00016   0.00025   0.00042   1.94581
   A23        1.88587   0.00001   0.00042  -0.00037   0.00005   1.88592
   A24        1.87903   0.00005  -0.00019   0.00034   0.00014   1.87917
   A25        1.88461   0.00001  -0.00043   0.00056   0.00013   1.88474
   A26        2.12368   0.00006  -0.00000   0.00020   0.00020   2.12388
   A27        2.02956  -0.00008   0.00043  -0.00047  -0.00004   2.02952
   A28        2.12975   0.00002  -0.00044   0.00027  -0.00016   2.12959
   A29        1.91585  -0.00003   0.00053  -0.00005   0.00048   1.91633
    D1        0.95205   0.00004   0.00047  -0.00066  -0.00019   0.95186
    D2        3.07286  -0.00006   0.00004  -0.00162  -0.00158   3.07128
    D3       -1.05470   0.00001  -0.00006  -0.00058  -0.00064  -1.05535
    D4        3.05085   0.00004   0.00045  -0.00066  -0.00021   3.05064
    D5       -1.11152  -0.00006   0.00002  -0.00163  -0.00161  -1.11312
    D6        1.04410   0.00001  -0.00008  -0.00059  -0.00066   1.04344
    D7       -1.16123   0.00004   0.00067  -0.00083  -0.00017  -1.16139
    D8        0.95959  -0.00006   0.00024  -0.00180  -0.00156   0.95803
    D9        3.11521   0.00000   0.00014  -0.00076  -0.00062   3.11459
   D10        1.06356   0.00001  -0.00107  -0.00004  -0.00110   1.06246
   D11       -1.10263  -0.00002  -0.00060   0.00001  -0.00059  -1.10322
   D12       -3.13781   0.00001  -0.00052  -0.00005  -0.00057  -3.13838
   D13       -0.58207  -0.00003  -0.00278  -0.00079  -0.00357  -0.58563
   D14        2.62202   0.00001  -0.00372   0.00051  -0.00320   2.61882
   D15        1.59575   0.00002  -0.00320  -0.00088  -0.00408   1.59167
   D16       -1.48335   0.00006  -0.00414   0.00042  -0.00371  -1.48706
   D17       -2.73781  -0.00005  -0.00297  -0.00147  -0.00444  -2.74225
   D18        0.46628  -0.00002  -0.00391  -0.00016  -0.00407   0.46220
   D19        3.03048  -0.00003  -0.00104  -0.00164  -0.00267   3.02782
   D20       -0.14899  -0.00002   0.00239  -0.00133   0.00106  -0.14794
   D21       -0.04810   0.00002  -0.00197  -0.00031  -0.00228  -0.05038
   D22        3.05561   0.00002   0.00146  -0.00000   0.00145   3.05706
   D23       -1.88977   0.00005   0.00115   0.00104   0.00219  -1.88758
   D24        0.19906  -0.00000   0.00164   0.00012   0.00176   0.20082
   D25        2.25621   0.00002   0.00095   0.00087   0.00182   2.25803
   D26        1.28959   0.00004  -0.00225   0.00072  -0.00152   1.28806
   D27       -2.90477  -0.00001  -0.00175  -0.00020  -0.00196  -2.90673
   D28       -0.84762   0.00001  -0.00245   0.00055  -0.00190  -0.84951
   D29       -2.85116   0.00002   0.00548  -0.00057   0.00492  -2.84624
   D30        0.31144  -0.00004   0.00582  -0.00114   0.00468   0.31612
   D31        1.35312   0.00009   0.00547   0.00022   0.00569   1.35881
   D32       -1.76746   0.00003   0.00580  -0.00036   0.00545  -1.76201
   D33       -0.67829   0.00004   0.00585  -0.00042   0.00543  -0.67285
   D34        2.48432  -0.00002   0.00619  -0.00099   0.00519   2.48951
   D35       -0.02446   0.00003  -0.00024  -0.00159  -0.00183  -0.02629
   D36        3.13822  -0.00004   0.00009  -0.00217  -0.00208   3.13615
         Item               Value     Threshold  Converged?
 Maximum Force            0.000176     0.000450     YES
 RMS     Force            0.000046     0.000300     YES
 Maximum Displacement     0.011659     0.001800     NO 
 RMS     Displacement     0.002936     0.001200     NO 
 Predicted change in Energy=-9.687934D-07
 Lowest energy point so far.  Saving SCF results.
 GradGradGradGradGradGradGradGradGradGradGradGradGradGradGradGradGradGrad

 Leave Link  103 at Fri Mar 14 15:15:34 2025, MaxMem=  8589934592 cpu:               1.0 elap:               0.4
 (Enter /home/enzo/gaussian_versions/gdv.j21/gdv/l202.exe)
                          Input orientation:                          
 ---------------------------------------------------------------------
 Center     Atomic      Atomic             Coordinates (Angstroms)
 Number     Number       Type             X           Y           Z
 ---------------------------------------------------------------------
      1          6           0        2.835653    1.264156   -0.727776
      2          6           0        1.633738    0.351607   -0.949961
      3         16           0        1.986770   -1.431916   -0.554787
      4          6           0        0.427401    0.774188   -0.106346
      5          8           0        0.553144    1.267607    1.004045
      6          7           0       -0.798294    0.484930   -0.659877
      7          6           0       -2.043562    0.686480    0.056392
      8          6           0       -2.735786   -0.610758    0.504918
      9          8           0       -3.894860   -0.628682    0.833647
     10          8           0       -1.967188   -1.719028    0.533070
     11          1           0        3.702320    0.900198   -1.285205
     12          1           0        2.602603    2.282080   -1.061988
     13          1           0        3.083422    1.312941    0.335543
     14          1           0        1.366269    0.322753   -2.012764
     15          1           0        2.284646   -1.220099    0.745868
     16          1           0       -0.837246    0.146158   -1.611884
     17          1           0       -1.807415    1.271625    0.950633
     18          1           0       -2.761018    1.256280   -0.540218
     19          1           0       -1.064750   -1.503639    0.227550
 ---------------------------------------------------------------------
                    Distance matrix (angstroms):
                    1          2          3          4          5
     1  C    0.000000
     2  C    1.525356   0.000000
     3  S    2.831843   1.860577   0.000000
     4  C    2.534941   1.531506   2.738545   0.000000
     5  O    2.865146   2.413479   3.431132   1.221573   0.000000
     6  N    3.717173   2.452897   3.382592   1.375643   2.282017
     7  C    4.975476   3.827195   4.593988   2.477868   2.824648
     8  C    6.006311   4.704845   4.909156   3.506775   3.820268
     9  O    7.163846   5.891318   6.096434   4.640427   4.838356
    10  O    5.792789   4.410621   4.110918   3.515541   3.936226
    11  H    1.092843   2.166188   2.985863   3.482913   3.910622
    12  H    1.096439   2.162863   3.798719   2.813982   3.081871
    13  H    1.092893   2.162930   3.087000   2.745901   2.617491
    14  H    2.167146   1.096322   2.364229   2.172486   3.264208
    15  H    2.940537   2.402036   1.351036   2.855313   3.041946
    16  H    3.939766   2.566343   3.403357   2.064073   3.167635
    17  H    4.937124   4.037354   4.896046   2.521716   2.361167
    18  H    5.599819   4.505575   5.456016   3.253717   3.656302
    19  H    4.877139   3.479987   3.151027   2.743446   3.301565
                    6          7          8          9         10
     6  N    0.000000
     7  C    1.450640   0.000000
     8  C    2.512201   1.537263   0.000000
     9  O    3.613789   2.400225   1.204922   0.000000
    10  O    2.765297   2.453472   1.348999   2.234977   0.000000
    11  H    4.562785   5.904297   6.851039   8.033938   6.504597
    12  H    3.867498   5.038210   6.270734   7.367699   6.279814
    13  H    4.091965   5.172653   6.131271   7.260470   5.894108
    14  H    2.557721   4.005078   4.902756   6.056960   4.664984
    15  H    3.793120   4.779520   5.063013   6.208364   4.286292
    16  H    1.011237   2.128448   2.942486   3.991240   3.058842
    17  H    2.056929   1.094453   2.145670   2.825293   3.023887
    18  H    2.112247   1.093325   2.139807   2.593489   3.261069
    19  H    2.193840   2.404993   1.914819   3.023644   0.976795
                   11         12         13         14         15
    11  H    0.000000
    12  H    1.780113   0.000000
    13  H    1.783316   1.767345   0.000000
    14  H    2.513945   2.504288   3.073049   0.000000
    15  H    3.260478   3.954074   2.687508   3.291482   0.000000
    16  H    4.613345   4.086210   4.530506   2.246635   4.143894
    17  H    5.957693   4.951759   4.929536   4.444586   4.795371
    18  H    6.515869   5.485703   5.909962   4.480443   5.765865
    19  H    5.549038   5.426238   5.015189   3.776846   3.401103
                   16         17         18         19
    16  H    0.000000
    17  H    2.962160   0.000000
    18  H    2.466118   1.769811   0.000000
    19  H    2.481351   2.962514   3.329256   0.000000
 Stoichiometry    C5H9NO3S
 Framework group  C1[X(C5H9NO3S)]
 Deg. of freedom    51
 Full point group                 C1      NOp   1
 RotChk:  IX=0 Diff= 2.15D-03
 Largest Abelian subgroup         C1      NOp   1
 Largest concise Abelian subgroup C1      NOp   1
                         Standard orientation:                         
 ---------------------------------------------------------------------
 Center     Atomic      Atomic             Coordinates (Angstroms)
 Number     Number       Type             X           Y           Z
 ---------------------------------------------------------------------
      1          6           0       -3.153994   -0.993286   -0.053197
      2          6           0       -1.925023   -0.207579   -0.499297
      3         16           0       -1.971877    1.579041    0.017947
      4          6           0       -0.628120   -0.806909    0.052390
      5          8           0       -0.576640   -1.344844    1.147934
      6          7           0        0.480111   -0.623800   -0.741768
      7          6           0        1.814540   -1.000950   -0.315838
      8          6           0        2.735208    0.185073    0.014155
      9          8           0        3.931070    0.056890    0.087096
     10          8           0        2.127546    1.367885    0.241095
     11          1           0       -4.068331   -0.505530   -0.400166
     12          1           0       -3.119372   -2.010371   -0.461264
     13          1           0       -3.177685   -1.073925    1.036460
     14          1           0       -1.884486   -0.148915   -1.593297
     15          1           0       -2.013987    1.328853    1.344948
     16          1           0        0.359083   -0.238638   -1.668915
     17          1           0        1.702664   -1.605663    0.589497
     18          1           0        2.317884   -1.611974   -1.069929
     19          1           0        1.162026    1.270568    0.129608
 ---------------------------------------------------------------------
 Rotational constants (GHZ):           2.1509303           0.5958308           0.5080056
 Leave Link  202 at Fri Mar 14 15:15:34 2025, MaxMem=  8589934592 cpu:               1.4 elap:               0.5
 (Enter /home/enzo/gaussian_versions/gdv.j21/gdv/l301.exe)
 Standard basis: 6-31G(d) (6D, 7F)
 Ernie: Thresh=  0.10000D-02 Tol=  0.10000D-05 Strict=F.
 There are   172 symmetry adapted cartesian basis functions of A   symmetry.
 There are   172 symmetry adapted basis functions of A   symmetry.
   172 basis functions,   340 primitive gaussians,   172 cartesian basis functions
    43 alpha electrons       43 beta electrons
       nuclear repulsion energy       625.7970413848 Hartrees.
 IExCor=      4002 DFT=T Ex+Corr=B3LYP ScaHFX=  0.200000
 ScaDFX=  0.800000  0.720000  1.000000  0.810000  1.000000  0.000000
 ScaDFX=  0.000000  0.000000  0.000000  0.000000  0.000000  0.000000
 IRadAn=      5 IRanWt=     -1 IRanGd=            0 ICorTp=0 IEmpDi=  4
 NAtoms=   19 NActive=   19 NUniq=   19 SFac= 1.00D+00 NAtFMM=   60 NAOKFM=F Big=F
 Integral buffers will be    131072 words long.
 Raffenetti 2 integral format.
 Two-electron integral symmetry is turned on.
 Leave Link  301 at Fri Mar 14 15:15:34 2025, MaxMem=  8589934592 cpu:               0.4 elap:               0.4
 (Enter /home/enzo/gaussian_versions/gdv.j21/gdv/l302.exe)
 NPDir=0 NMtPBC=     1 NCelOv=     1 NCel=       1 NClECP=     1 NCelD=      1
         NCelK=      1 NCelE2=     1 NClLst=     1 CellRange=     0.0.
 One-electron integrals computed using PRISM.
 One-electron integral symmetry used in STVInt
 NBasis=   172 RedAO= T EigKep=  2.78D-03  NBF=   172
 NBsUse=   172 1.00D-06 EigRej= -1.00D+00 NBFU=   172
 Precomputing XC quadrature grid using
 IXCGrd= 4 IRadAn=           5 IRanWt=          -1 IRanGd=           0 AccXCQ= 0.00D+00.
 Generated NRdTot=       0 NPtTot=      406321 NUsed=           0 NTot=          64
 NSgBfM=   171   171   171   171   171 MxSgAt=    19 MxSgA2=    19 SizInc=   0.000
 NMBTot=     3414 MaxBatPerAtom=       85 MaxMicBPerAtom=      195 NBfPt=            51868591.
 Leave Link  302 at Fri Mar 14 15:15:35 2025, MaxMem=  8589934592 cpu:               6.0 elap:               1.0
 (Enter /home/enzo/gaussian_versions/gdv.j21/gdv/l303.exe)
 DipDrv:  MaxL=1.
 Leave Link  303 at Fri Mar 14 15:15:36 2025, MaxMem=  8589934592 cpu:               0.7 elap:               0.3
 (Enter /home/enzo/gaussian_versions/gdv.j21/gdv/l401.exe)
 Initial guess from the checkpoint file:  "/local/home/enzo/scratch/Gau-2337715.chk"
 B after Tr=     0.000000    0.000000   -0.000000
         Rot=    1.000000    0.000642    0.000062    0.000081 Ang=   0.07 deg.
 AO Guess basis will be translated and rotated to current coordinates.
 JPrj=2 DoOrth=T DoCkMO=T.
 Leave Link  401 at Fri Mar 14 15:15:36 2025, MaxMem=  8589934592 cpu:               2.1 elap:               0.5
 (Enter /home/enzo/gaussian_versions/gdv.j21/gdv/l502.exe)
 Integral symmetry usage will be decided dynamically.
 Closed shell SCF:
 Using DIIS extrapolation, IDIIS=  1040.
 NGot=  8589934592 LenX=  8589843591 LenY=  8589813566
 Requested convergence on RMS density matrix=1.00D-08 within 128 cycles.
 Requested convergence on MAX density matrix=1.00D-06.
 Requested convergence on             energy=1.00D-06.
 No special actions if energy rises.
 Fock matrices will be formed incrementally for  20 cycles.

 Cycle   1  Pass 1  IDiag  1:
 FoFJK:  IHMeth= 1 ICntrl=       0 DoSepK=F KAlg= 0 I1Cent=           0 FoldK=F
 IRaf= 910000000 NMat=       1 IRICut=       1 DoRegI=T DoRafI=F ISym2E= 0 IDoP0=0 IntGTp=1.
 FoFCou: FMM=F IPFlag=           0 FMFlag=      100000 FMFlg1=           0
         NFxFlg=           0 DoJE=F BraDBF=F KetDBF=F FulRan=T
         wScrn=  0.000000 ICntrl=         0 IOpCl=  0 I1Cent=           0 NGrid=           0
         NMat0=    1 NMatS0=      1 NMatT0=    0 NMatD0=    1 NMtDS0=    0 NMtDT0=    0
 Symmetry not used in FoFCou.
 E= -874.580937031425    
 DIIS: error= 2.31D-04 at cycle   1 NSaved=   1.
 NSaved= 1 IEnMin= 1 EnMin= -874.580937031425     IErMin= 1 ErrMin= 2.31D-04
 ErrMax= 2.31D-04  0.00D+00 EMaxC= 1.00D-01 BMatC= 1.36D-05 BMatP= 1.36D-05
 IDIUse=3 WtCom= 9.98D-01 WtEn= 2.31D-03
 Coeff-Com:  0.100D+01
 Coeff-En:   0.100D+01
 Coeff:      0.100D+01
 Gap=     1.517 Goal=   None    Shift=    0.000
 RMSDP=3.86D-05 MaxDP=9.32D-04              OVMax= 1.25D-03

 Cycle   2  Pass 1  IDiag  1:
 RMSU=  3.86D-05    CP:  1.00D+00
 E= -874.580962411780     Delta-E=       -0.000025380355 Rises=F Damp=F
 DIIS: error= 3.30D-05 at cycle   2 NSaved=   2.
 NSaved= 2 IEnMin= 2 EnMin= -874.580962411780     IErMin= 2 ErrMin= 3.30D-05
 ErrMax= 3.30D-05  0.00D+00 EMaxC= 1.00D-01 BMatC= 3.40D-07 BMatP= 1.36D-05
 IDIUse=1 WtCom= 1.00D+00 WtEn= 0.00D+00
 Coeff-Com: -0.550D-01 0.106D+01
 Coeff:     -0.550D-01 0.106D+01
 Gap=     0.231 Goal=   None    Shift=    0.000
 RMSDP=7.42D-06 MaxDP=1.73D-04 DE=-2.54D-05 OVMax= 2.92D-04

 Cycle   3  Pass 1  IDiag  1:
 RMSU=  7.19D-06    CP:  1.00D+00  1.05D+00
 E= -874.580962349100     Delta-E=        0.000000062680 Rises=F Damp=F
 DIIS: error= 4.51D-05 at cycle   3 NSaved=   3.
 NSaved= 3 IEnMin= 2 EnMin= -874.580962411780     IErMin= 2 ErrMin= 3.30D-05
 ErrMax= 4.51D-05  0.00D+00 EMaxC= 1.00D-01 BMatC= 6.17D-07 BMatP= 3.40D-07
 IDIUse=1 WtCom= 1.00D+00 WtEn= 0.00D+00
 Coeff-Com: -0.484D-01 0.643D+00 0.406D+00
 Coeff:     -0.484D-01 0.643D+00 0.406D+00
 Gap=     0.231 Goal=   None    Shift=    0.000
 RMSDP=4.96D-06 MaxDP=1.35D-04 DE= 6.27D-08 OVMax= 2.44D-04

 Cycle   4  Pass 1  IDiag  1:
 RMSU=  2.32D-06    CP:  1.00D+00  1.07D+00  4.01D-01
 E= -874.580962817589     Delta-E=       -0.000000468489 Rises=F Damp=F
 DIIS: error= 1.20D-05 at cycle   4 NSaved=   4.
 NSaved= 4 IEnMin= 4 EnMin= -874.580962817589     IErMin= 4 ErrMin= 1.20D-05
 ErrMax= 1.20D-05  0.00D+00 EMaxC= 1.00D-01 BMatC= 4.76D-08 BMatP= 3.40D-07
 IDIUse=1 WtCom= 1.00D+00 WtEn= 0.00D+00
 Coeff-Com: -0.168D-01 0.198D+00 0.237D+00 0.581D+00
 Coeff:     -0.168D-01 0.198D+00 0.237D+00 0.581D+00
 Gap=     0.231 Goal=   None    Shift=    0.000
 RMSDP=1.28D-06 MaxDP=4.27D-05 DE=-4.68D-07 OVMax= 5.48D-05

 Cycle   5  Pass 1  IDiag  1:
 RMSU=  8.22D-07    CP:  1.00D+00  1.07D+00  4.76D-01  6.56D-01
 E= -874.580962850847     Delta-E=       -0.000000033258 Rises=F Damp=F
 DIIS: error= 2.96D-06 at cycle   5 NSaved=   5.
 NSaved= 5 IEnMin= 5 EnMin= -874.580962850847     IErMin= 5 ErrMin= 2.96D-06
 ErrMax= 2.96D-06  0.00D+00 EMaxC= 1.00D-01 BMatC= 4.65D-09 BMatP= 4.76D-08
 IDIUse=1 WtCom= 1.00D+00 WtEn= 0.00D+00
 Coeff-Com: -0.610D-02 0.678D-01 0.111D+00 0.338D+00 0.490D+00
 Coeff:     -0.610D-02 0.678D-01 0.111D+00 0.338D+00 0.490D+00
 Gap=     0.231 Goal=   None    Shift=    0.000
 RMSDP=3.58D-07 MaxDP=1.27D-05 DE=-3.33D-08 OVMax= 1.44D-05

 Cycle   6  Pass 1  IDiag  1:
 RMSU=  2.53D-07    CP:  1.00D+00  1.07D+00  4.82D-01  7.07D-01  7.30D-01
 E= -874.580962854420     Delta-E=       -0.000000003573 Rises=F Damp=F
 DIIS: error= 6.90D-07 at cycle   6 NSaved=   6.
 NSaved= 6 IEnMin= 6 EnMin= -874.580962854420     IErMin= 6 ErrMin= 6.90D-07
 ErrMax= 6.90D-07  0.00D+00 EMaxC= 1.00D-01 BMatC= 2.55D-10 BMatP= 4.65D-09
 IDIUse=1 WtCom= 1.00D+00 WtEn= 0.00D+00
 Coeff-Com:  0.120D-04-0.453D-02 0.112D-01 0.585D-01 0.215D+00 0.720D+00
 Coeff:      0.120D-04-0.453D-02 0.112D-01 0.585D-01 0.215D+00 0.720D+00
 Gap=     0.231 Goal=   None    Shift=    0.000
 RMSDP=1.27D-07 MaxDP=2.99D-06 DE=-3.57D-09 OVMax= 3.61D-06

 Cycle   7  Pass 1  IDiag  1:
 RMSU=  7.66D-08    CP:  1.00D+00  1.07D+00  4.89D-01  7.21D-01  7.56D-01
                    CP:  6.96D-01
 E= -874.580962854615     Delta-E=       -0.000000000196 Rises=F Damp=F
 DIIS: error= 3.04D-07 at cycle   7 NSaved=   7.
 NSaved= 7 IEnMin= 7 EnMin= -874.580962854615     IErMin= 7 ErrMin= 3.04D-07
 ErrMax= 3.04D-07  0.00D+00 EMaxC= 1.00D-01 BMatC= 4.54D-11 BMatP= 2.55D-10
 IDIUse=1 WtCom= 1.00D+00 WtEn= 0.00D+00
 Coeff-Com:  0.497D-03-0.821D-02-0.214D-02 0.780D-02 0.838D-01 0.404D+00
 Coeff-Com:  0.514D+00
 Coeff:      0.497D-03-0.821D-02-0.214D-02 0.780D-02 0.838D-01 0.404D+00
 Coeff:      0.514D+00
 Gap=     0.231 Goal=   None    Shift=    0.000
 RMSDP=5.02D-08 MaxDP=1.03D-06 DE=-1.96D-10 OVMax= 2.01D-06

 Cycle   8  Pass 1  IDiag  1:
 RMSU=  2.77D-08    CP:  1.00D+00  1.07D+00  4.87D-01  7.22D-01  7.67D-01
                    CP:  7.68D-01  5.63D-01
 E= -874.580962854639     Delta-E=       -0.000000000023 Rises=F Damp=F
 DIIS: error= 1.69D-07 at cycle   8 NSaved=   8.
 NSaved= 8 IEnMin= 8 EnMin= -874.580962854639     IErMin= 8 ErrMin= 1.69D-07
 ErrMax= 1.69D-07  0.00D+00 EMaxC= 1.00D-01 BMatC= 7.38D-12 BMatP= 4.54D-11
 IDIUse=1 WtCom= 1.00D+00 WtEn= 0.00D+00
 Coeff-Com:  0.304D-03-0.462D-02-0.253D-02-0.146D-02 0.291D-01 0.175D+00
 Coeff-Com:  0.328D+00 0.476D+00
 Coeff:      0.304D-03-0.462D-02-0.253D-02-0.146D-02 0.291D-01 0.175D+00
 Coeff:      0.328D+00 0.476D+00
 Gap=     0.231 Goal=   None    Shift=    0.000
 RMSDP=1.82D-08 MaxDP=5.25D-07 DE=-2.32D-11 OVMax= 9.11D-07

 Cycle   9  Pass 1  IDiag  1:
 RMSU=  1.15D-08    CP:  1.00D+00  1.07D+00  4.87D-01  7.22D-01  7.72D-01
                    CP:  7.78D-01  6.01D-01  5.40D-01
 E= -874.580962854645     Delta-E=       -0.000000000006 Rises=F Damp=F
 DIIS: error= 4.01D-08 at cycle   9 NSaved=   9.
 NSaved= 9 IEnMin= 9 EnMin= -874.580962854645     IErMin= 9 ErrMin= 4.01D-08
 ErrMax= 4.01D-08  0.00D+00 EMaxC= 1.00D-01 BMatC= 7.40D-13 BMatP= 7.38D-12
 IDIUse=1 WtCom= 1.00D+00 WtEn= 0.00D+00
 Coeff-Com:  0.913D-04-0.127D-02-0.104D-02-0.205D-02 0.286D-02 0.337D-01
 Coeff-Com:  0.106D+00 0.279D+00 0.582D+00
 Coeff:      0.913D-04-0.127D-02-0.104D-02-0.205D-02 0.286D-02 0.337D-01
 Coeff:      0.106D+00 0.279D+00 0.582D+00
 Gap=     0.231 Goal=   None    Shift=    0.000
 RMSDP=5.57D-09 MaxDP=1.53D-07 DE=-6.37D-12 OVMax= 2.05D-07

 SCF Done:  E(RB3LYP) =  -874.580962855     A.U. after    9 cycles
            NFock=  9  Conv=0.56D-08     -V/T= 2.0064
 KE= 8.690136710077D+02 PE=-3.310643592867D+03 EE= 9.412519176195D+02
 Leave Link  502 at Fri Mar 14 15:15:45 2025, MaxMem=  8589934592 cpu:              64.8 elap:               8.2
 (Enter /home/enzo/gaussian_versions/gdv.j21/gdv/l701.exe)
 ... and contract with generalized density number  0.
 Compute integral first derivatives.
 Leave Link  701 at Fri Mar 14 15:15:45 2025, MaxMem=  8589934592 cpu:               1.7 elap:               0.4
 (Enter /home/enzo/gaussian_versions/gdv.j21/gdv/l702.exe)
 L702 exits ... SP integral derivatives will be done elsewhere.
 Leave Link  702 at Fri Mar 14 15:15:45 2025, MaxMem=  8589934592 cpu:               0.2 elap:               0.3
 (Enter /home/enzo/gaussian_versions/gdv.j21/gdv/l703.exe)
 Integral derivatives from FoFJK, PRISM(SPDF).
 Compute integral first derivatives, UseDBF=F ICtDFT=           0.
 Calling FoFJK, ICntrl=      2127 FMM=F ISym2X=0 I1Cent= 0 IOpClX= 0 NMat=1 NMatS=1 NMatT=0.
 FoFJK:  IHMeth= 1 ICntrl=    2127 DoSepK=F KAlg= 0 I1Cent=           0 FoldK=F
 IRaf=         0 NMat=       1 IRICut=       1 DoRegI=T DoRafI=F ISym2E= 0 IDoP0=0 IntGTp=1.
 FoFCou: FMM=F IPFlag=           0 FMFlag=      100000 FMFlg1=         800
         NFxFlg=           0 DoJE=F BraDBF=F KetDBF=F FulRan=T
         wScrn=  0.000000 ICntrl=      2127 IOpCl=  0 I1Cent=           0 NGrid=           0
         NMat0=    1 NMatS0=      1 NMatT0=    0 NMatD0=    1 NMtDS0=    0 NMtDT0=    0
 Symmetry not used in FoFCou.
 Leave Link  703 at Fri Mar 14 15:15:47 2025, MaxMem=  8589934592 cpu:              16.1 elap:               2.1
 (Enter /home/enzo/gaussian_versions/gdv.j21/gdv/l716.exe)
 Dipole        =-1.65952440D+00-4.68312379D-01-1.17630295D+00
 ***** Axes restored to original set *****
 -------------------------------------------------------------------
 Center     Atomic                   Forces (Hartrees/Bohr)
 Number     Number              X              Y              Z
 -------------------------------------------------------------------
      1        6           0.000034307   -0.000008080   -0.000014134
      2        6          -0.000008478    0.000152881    0.000027688
      3       16          -0.000034421   -0.000063462    0.000006975
      4        6          -0.000040022    0.000003809   -0.000025672
      5        8           0.000023474   -0.000026320    0.000040776
      6        7           0.000111801   -0.000094177   -0.000099043
      7        6          -0.000082386    0.000114317    0.000008437
      8        6           0.000050898   -0.000067151    0.000114631
      9        8          -0.000005400   -0.000012824   -0.000030640
     10        8          -0.000042828    0.000047805   -0.000028334
     11        1          -0.000011265   -0.000003241    0.000000737
     12        1          -0.000014151   -0.000006068   -0.000008502
     13        1          -0.000014552    0.000002763    0.000001040
     14        1           0.000023629   -0.000021028   -0.000004779
     15        1          -0.000009261    0.000007748    0.000006107
     16        1          -0.000029395    0.000022145    0.000032023
     17        1           0.000020120   -0.000049215   -0.000020041
     18        1           0.000023832   -0.000017505   -0.000007131
     19        1           0.000004097    0.000017604   -0.000000139
 -------------------------------------------------------------------
 Cartesian Forces:  Max     0.000152881 RMS     0.000046308
 Leave Link  716 at Fri Mar 14 15:15:48 2025, MaxMem=  8589934592 cpu:               0.1 elap:               0.2
 (Enter /home/enzo/gaussian_versions/gdv.j21/gdv/l103.exe)

 GradGradGradGradGradGradGradGradGradGradGradGradGradGradGradGradGradGrad
 Berny optimization.
 Using GEDIIS/GDIIS optimizer.
 FormGI is forming the generalized inverse of G from B-inverse, IUseBI=4.
 Internal  Forces:  Max     0.000095577 RMS     0.000029456
 Search for a local minimum.
 Step number  16 out of a maximum of   93
 All quantities printed in internal units (Hartrees-Bohrs-Radians)
 RMS Force = .29456D-04 SwitMx=.10000D-02 MixMth= 2
 Mixed Optimization -- En-DIIS/RFO-DIIS
 Swapping is turned off.
 Update second derivatives using D2CorX and points   10   11   12   13   14
                                                     15   16
 DE= -9.70D-07 DEPred=-9.69D-07 R= 1.00D+00
 Trust test= 1.00D+00 RLast= 1.77D-02 DXMaxT set to 1.37D+00
 ITU=  0  1  1  1  1  1  1  1 -1  1  1  1  1  1  1  0
     Eigenvalues ---    0.00151   0.00180   0.00421   0.00554   0.00637
     Eigenvalues ---    0.01012   0.01283   0.02316   0.03987   0.04491
     Eigenvalues ---    0.04573   0.05250   0.05580   0.05651   0.05767
     Eigenvalues ---    0.06794   0.08268   0.10465   0.13644   0.15809
     Eigenvalues ---    0.15922   0.16001   0.16022   0.16163   0.16600
     Eigenvalues ---    0.17601   0.19580   0.21983   0.22203   0.22945
     Eigenvalues ---    0.24097   0.24971   0.25026   0.26401   0.27341
     Eigenvalues ---    0.30012   0.31946   0.32574   0.32614   0.32618
     Eigenvalues ---    0.32668   0.32773   0.32966   0.33819   0.37016
     Eigenvalues ---    0.40808   0.42219   0.46553   0.49896   0.80350
     Eigenvalues ---    0.81591
 En-DIIS/RFO-DIIS/Sim-DIIS IScMMF=       -3 using points:    16   15   14   13   12   11   10    9
 RFO step:  Lambda=-6.55982552D-07.
 NNeg= 0 NGDIIS= 8 SimSw=  2.50D-01 Rises=F DC= -9.70D-07 SmlDif=  1.00D-05
 NRisDI= 0 DoIntr=F SqrtH=F CThrHd= 10.0 CDAdj=  3.0
 RMS Error=  0.7858655206D-03 NUsed= 8 OKEnD=F EnDIS=F
 InvSVX:  RCond= 4.64D-07 Info=           0 Equed=N FErr=  3.98D-13 BErr=  4.34D-17
 DidBck=FF Rises=F RFO-DIIS coefs:    2.21708   -1.47914    0.02999    0.19848    0.11108
                   RFO-DIIS coefs:   -0.05238   -0.02359   -0.00154
 Iteration  1 RMS(Cart)=  0.00220503 RMS(Int)=  0.00002780
 Iteration  2 RMS(Cart)=  0.00000202 RMS(Int)=  0.00002777
 Iteration  3 RMS(Cart)=  0.00000000 RMS(Int)=  0.00002777
 Variable       Old X    -DE/DX   Delta X   Delta X   Delta X     New X
                                 (Linear)    (Quad)   (Total)
    R1        2.88251  -0.00002  -0.00009  -0.00003  -0.00012   2.88239
    R2        2.06517  -0.00001  -0.00004   0.00001  -0.00003   2.06514
    R3        2.07197  -0.00000  -0.00002   0.00003   0.00001   2.07198
    R4        2.06527  -0.00000  -0.00001  -0.00000  -0.00001   2.06526
    R5        3.51598   0.00005   0.00018   0.00024   0.00042   3.51640
    R6        2.89413  -0.00005  -0.00021   0.00000  -0.00020   2.89393
    R7        2.07175  -0.00000  -0.00002   0.00002  -0.00001   2.07174
    R8        2.55309   0.00001  -0.00004   0.00009   0.00005   2.55313
    R9        2.30844   0.00003   0.00006  -0.00001   0.00005   2.30849
   R10        2.59959  -0.00002   0.00009  -0.00021  -0.00012   2.59947
   R11        2.74131   0.00005   0.00010   0.00012   0.00022   2.74153
   R12        1.91096  -0.00004  -0.00012   0.00001  -0.00011   1.91085
   R13        2.90501   0.00003   0.00010   0.00015   0.00024   2.90525
   R14        2.06822  -0.00004  -0.00010  -0.00001  -0.00011   2.06810
   R15        2.06608  -0.00002  -0.00012  -0.00000  -0.00012   2.06597
   R16        2.27697  -0.00000  -0.00004   0.00006   0.00002   2.27699
   R17        2.54924  -0.00008  -0.00012  -0.00009  -0.00021   2.54903
   R18        1.84587   0.00001   0.00000   0.00004   0.00004   1.84591
    A1        1.92980  -0.00000   0.00003  -0.00002   0.00000   1.92980
    A2        1.92147  -0.00002  -0.00019  -0.00007  -0.00026   1.92121
    A3        1.92523  -0.00001  -0.00011   0.00007  -0.00004   1.92519
    A4        1.89893   0.00001   0.00006  -0.00002   0.00004   1.89897
    A5        1.90853   0.00001   0.00015   0.00003   0.00017   1.90870
    A6        1.87896   0.00001   0.00007   0.00001   0.00008   1.87905
    A7        1.97472   0.00006   0.00031  -0.00002   0.00029   1.97501
    A8        1.95557   0.00004   0.00037   0.00011   0.00048   1.95605
    A9        1.92750  -0.00003   0.00005  -0.00003   0.00001   1.92752
   A10        1.87230  -0.00010  -0.00106   0.00001  -0.00105   1.87125
   A11        1.79975  -0.00001  -0.00015  -0.00010  -0.00025   1.79950
   A12        1.92740   0.00003   0.00043   0.00002   0.00045   1.92785
   A13        1.66696  -0.00002  -0.00002  -0.00017  -0.00019   1.66678
   A14        2.13067  -0.00003  -0.00021   0.00004  -0.00017   2.13050
   A15        2.00662   0.00001  -0.00008   0.00018   0.00010   2.00672
   A16        2.14409   0.00002   0.00022  -0.00022  -0.00000   2.14409
   A17        2.13763  -0.00008  -0.00032  -0.00007  -0.00053   2.13710
   A18        2.07553   0.00007   0.00060  -0.00000   0.00045   2.07598
   A19        2.06954   0.00001   0.00013   0.00007   0.00006   2.06960
   A20        1.99694  -0.00003  -0.00049   0.00034  -0.00015   1.99679
   A21        1.86763  -0.00000  -0.00028   0.00008  -0.00020   1.86744
   A22        1.94581  -0.00000   0.00025  -0.00035  -0.00010   1.94571
   A23        1.88592  -0.00001  -0.00020  -0.00004  -0.00025   1.88567
   A24        1.87917   0.00003   0.00035  -0.00008   0.00027   1.87945
   A25        1.88474   0.00002   0.00040   0.00006   0.00045   1.88519
   A26        2.12388   0.00003   0.00013  -0.00006   0.00006   2.12395
   A27        2.02952  -0.00005  -0.00025   0.00016  -0.00010   2.02943
   A28        2.12959   0.00002   0.00014  -0.00009   0.00004   2.12963
   A29        1.91633  -0.00003  -0.00009   0.00008  -0.00001   1.91632
    D1        0.95186   0.00002  -0.00063  -0.00028  -0.00091   0.95094
    D2        3.07128  -0.00003  -0.00152  -0.00021  -0.00172   3.06956
    D3       -1.05535   0.00001  -0.00066  -0.00012  -0.00078  -1.05613
    D4        3.05064   0.00002  -0.00066  -0.00037  -0.00103   3.04961
    D5       -1.11312  -0.00003  -0.00155  -0.00029  -0.00184  -1.11496
    D6        1.04344   0.00001  -0.00070  -0.00020  -0.00090   1.04254
    D7       -1.16139   0.00001  -0.00076  -0.00035  -0.00111  -1.16250
    D8        0.95803  -0.00004  -0.00165  -0.00027  -0.00192   0.95611
    D9        3.11459   0.00000  -0.00079  -0.00018  -0.00098   3.11361
   D10        1.06246   0.00002   0.00061   0.00015   0.00076   1.06321
   D11       -1.10322  -0.00001   0.00071   0.00001   0.00072  -1.10250
   D12       -3.13838   0.00001   0.00074   0.00003   0.00077  -3.13761
   D13       -0.58563  -0.00002  -0.00003  -0.00017  -0.00020  -0.58584
   D14        2.61882   0.00001   0.00121  -0.00017   0.00104   2.61986
   D15        1.59167   0.00001  -0.00015  -0.00012  -0.00027   1.59140
   D16       -1.48706   0.00005   0.00109  -0.00011   0.00097  -1.48608
   D17       -2.74225  -0.00003  -0.00067  -0.00022  -0.00090  -2.74315
   D18        0.46220   0.00000   0.00057  -0.00022   0.00034   0.46255
   D19        3.02782  -0.00002  -0.00096  -0.00000  -0.00096   3.02686
   D20       -0.14794  -0.00002  -0.00169   0.00013  -0.00156  -0.14950
   D21       -0.05038   0.00002   0.00031  -0.00001   0.00030  -0.05007
   D22        3.05706   0.00002  -0.00042   0.00012  -0.00030   3.05676
   D23       -1.88758   0.00003   0.00230   0.00000   0.00231  -1.88527
   D24        0.20082  -0.00001   0.00155   0.00021   0.00177   0.20259
   D25        2.25803   0.00001   0.00200   0.00013   0.00214   2.26017
   D26        1.28806   0.00003   0.00302  -0.00012   0.00290   1.29096
   D27       -2.90673  -0.00001   0.00227   0.00009   0.00236  -2.90437
   D28       -0.84951   0.00001   0.00271   0.00001   0.00272  -0.84679
   D29       -2.84624   0.00001  -0.00012   0.00006  -0.00005  -2.84630
   D30        0.31612  -0.00002  -0.00072   0.00003  -0.00068   0.31544
   D31        1.35881   0.00004   0.00068  -0.00022   0.00046   1.35927
   D32       -1.76201   0.00001   0.00009  -0.00025  -0.00017  -1.76218
   D33       -0.67285   0.00001   0.00014  -0.00022  -0.00008  -0.67294
   D34        2.48951  -0.00002  -0.00046  -0.00025  -0.00071   2.48880
   D35       -0.02629   0.00002  -0.00049   0.00038  -0.00011  -0.02640
   D36        3.13615  -0.00001  -0.00109   0.00034  -0.00074   3.13540
         Item               Value     Threshold  Converged?
 Maximum Force            0.000096     0.000450     YES
 RMS     Force            0.000029     0.000300     YES
 Maximum Displacement     0.009305     0.001800     NO 
 RMS     Displacement     0.002205     0.001200     NO 
 Predicted change in Energy=-2.838259D-07
 Lowest energy point so far.  Saving SCF results.
 GradGradGradGradGradGradGradGradGradGradGradGradGradGradGradGradGradGrad

 Leave Link  103 at Fri Mar 14 15:15:48 2025, MaxMem=  8589934592 cpu:               1.3 elap:               0.4
 (Enter /home/enzo/gaussian_versions/gdv.j21/gdv/l202.exe)
                          Input orientation:                          
 ---------------------------------------------------------------------
 Center     Atomic      Atomic             Coordinates (Angstroms)
 Number     Number       Type             X           Y           Z
 ---------------------------------------------------------------------
      1          6           0        2.836013    1.263610   -0.727128
      2          6           0        1.633370    0.352396   -0.950426
      3         16           0        1.983730   -1.431889   -0.555266
      4          6           0        0.426824    0.774878   -0.107253
      5          8           0        0.552348    1.267013    1.003762
      6          7           0       -0.798686    0.485752   -0.661109
      7          6           0       -2.043771    0.686484    0.055941
      8          6           0       -2.733884   -0.611393    0.506307
      9          8           0       -3.892673   -0.630692    0.836002
     10          8           0       -1.963870   -1.718556    0.534141
     11          1           0        3.703005    0.898300   -1.283131
     12          1           0        2.604419    2.281506   -1.062449
     13          1           0        3.082211    1.312861    0.336527
     14          1           0        1.366832    0.323844   -2.013467
     15          1           0        2.279722   -1.220625    0.745933
     16          1           0       -0.837960    0.148363   -1.613531
     17          1           0       -1.807416    1.272376    0.949565
     18          1           0       -2.762226    1.254853   -0.540717
     19          1           0       -1.062140   -1.502200    0.227156
 ---------------------------------------------------------------------
                    Distance matrix (angstroms):
                    1          2          3          4          5
     1  C    0.000000
     2  C    1.525294   0.000000
     3  S    2.832250   1.860800   0.000000
     4  C    2.535212   1.531400   2.737607   0.000000
     5  O    2.865505   2.413293   3.429795   1.221600   0.000000
     6  N    3.717588   2.452833   3.380886   1.375582   2.281985
     7  C    4.975798   3.826978   4.591497   2.477556   2.824042
     8  C    6.005061   4.703602   4.904695   3.505464   3.817747
     9  O    7.162888   5.890241   6.091769   4.639333   4.836076
    10  O    5.789905   4.408279   4.105184   3.513405   3.932622
    11  H    1.092825   2.166124   2.985879   3.483000   3.910558
    12  H    1.096443   2.162625   3.798919   2.815004   3.083734
    13  H    1.092887   2.162841   3.087978   2.745441   2.616775
    14  H    2.167100   1.096319   2.364214   2.172717   3.264448
    15  H    2.941223   2.402041   1.351060   2.853628   3.039513
    16  H    3.940503   2.566868   3.402801   2.064237   3.167736
    17  H    4.936882   4.036748   4.893910   2.521149   2.360392
    18  H    5.601348   4.505947   5.453704   3.253967   3.656769
    19  H    4.874009   3.477355   3.145545   2.741154   3.298215
                    6          7          8          9         10
     6  N    0.000000
     7  C    1.450755   0.000000
     8  C    2.512286   1.537392   0.000000
     9  O    3.613937   2.400393   1.204932   0.000000
    10  O    2.765004   2.453422   1.348890   2.234916   0.000000
    11  H    4.563150   5.904525   6.849439   8.032613   6.501068
    12  H    3.868712   5.039897   6.271152   7.368664   6.278444
    13  H    4.091546   5.171728   6.128503   7.257815   5.889947
    14  H    2.558233   4.005767   4.903040   6.057475   4.664256
    15  H    3.790526   4.775536   5.056168   6.201177   4.277951
    16  H    1.011179   2.128542   2.943718   3.992294   3.060320
    17  H    2.056838   1.094394   2.145556   2.825396   3.023695
    18  H    2.112226   1.093262   2.140079   2.593944   3.260959
    19  H    2.193256   2.404839   1.914730   3.023597   0.976815
                   11         12         13         14         15
    11  H    0.000000
    12  H    1.780127   0.000000
    13  H    1.783406   1.767398   0.000000
    14  H    2.514179   2.503696   3.072971   0.000000
    15  H    3.260779   3.954819   2.688894   3.291359   0.000000
    16  H    4.614318   4.087048   4.530620   2.247632   4.142600
    17  H    5.957315   4.952860   4.928073   4.444673   4.791786
    18  H    6.517478   5.488815   5.910192   4.481617   5.762352
    19  H    5.545266   5.424312   5.011204   3.775544   3.393590
                   16         17         18         19
    16  H    0.000000
    17  H    2.961877   0.000000
    18  H    2.465371   1.770003   0.000000
    19  H    2.482487   2.962361   3.328853   0.000000
 Stoichiometry    C5H9NO3S
 Framework group  C1[X(C5H9NO3S)]
 Deg. of freedom    51
 Full point group                 C1      NOp   1
 RotChk:  IX=0 Diff= 8.64D-04
 Largest Abelian subgroup         C1      NOp   1
 Largest concise Abelian subgroup C1      NOp   1
                         Standard orientation:                         
 ---------------------------------------------------------------------
 Center     Atomic      Atomic             Coordinates (Angstroms)
 Number     Number       Type             X           Y           Z
 ---------------------------------------------------------------------
      1          6           0       -3.154623   -0.991818   -0.050918
      2          6           0       -1.925273   -0.207985   -0.499058
      3         16           0       -1.968653    1.579270    0.017093
      4          6           0       -0.628210   -0.807464    0.051795
      5          8           0       -0.575946   -1.343865    1.148083
      6          7           0        0.479485   -0.625047   -0.743166
      7          6           0        1.814054   -1.001708   -0.316854
      8          6           0        2.733657    0.184885    0.014659
      9          8           0        3.929598    0.057680    0.088185
     10          8           0        2.124897    1.367036    0.241452
     11          1           0       -4.068802   -0.502575   -0.396149
     12          1           0       -3.122140   -2.008787   -0.459458
     13          1           0       -3.176343   -1.072769    1.038750
     14          1           0       -1.886165   -0.149854   -1.593136
     15          1           0       -2.008278    1.329812    1.344332
     16          1           0        0.358250   -0.241515   -1.670898
     17          1           0        1.701943   -1.606792    0.588134
     18          1           0        2.318015   -1.611814   -1.071185
     19          1           0        1.159562    1.269040    0.128787
 ---------------------------------------------------------------------
 Rotational constants (GHZ):           2.1509298           0.5964086           0.5084726
 Leave Link  202 at Fri Mar 14 15:15:48 2025, MaxMem=  8589934592 cpu:               1.0 elap:               0.4
 (Enter /home/enzo/gaussian_versions/gdv.j21/gdv/l301.exe)
 Standard basis: 6-31G(d) (6D, 7F)
 Ernie: Thresh=  0.10000D-02 Tol=  0.10000D-05 Strict=F.
 There are   172 symmetry adapted cartesian basis functions of A   symmetry.
 There are   172 symmetry adapted basis functions of A   symmetry.
   172 basis functions,   340 primitive gaussians,   172 cartesian basis functions
    43 alpha electrons       43 beta electrons
       nuclear repulsion energy       625.9103713190 Hartrees.
 IExCor=      4002 DFT=T Ex+Corr=B3LYP ScaHFX=  0.200000
 ScaDFX=  0.800000  0.720000  1.000000  0.810000  1.000000  0.000000
 ScaDFX=  0.000000  0.000000  0.000000  0.000000  0.000000  0.000000
 IRadAn=      5 IRanWt=     -1 IRanGd=            0 ICorTp=0 IEmpDi=  4
 NAtoms=   19 NActive=   19 NUniq=   19 SFac= 1.00D+00 NAtFMM=   60 NAOKFM=F Big=F
 Integral buffers will be    131072 words long.
 Raffenetti 2 integral format.
 Two-electron integral symmetry is turned on.
 Leave Link  301 at Fri Mar 14 15:15:49 2025, MaxMem=  8589934592 cpu:               0.4 elap:               0.3
 (Enter /home/enzo/gaussian_versions/gdv.j21/gdv/l302.exe)
 NPDir=0 NMtPBC=     1 NCelOv=     1 NCel=       1 NClECP=     1 NCelD=      1
         NCelK=      1 NCelE2=     1 NClLst=     1 CellRange=     0.0.
 One-electron integrals computed using PRISM.
 One-electron integral symmetry used in STVInt
 NBasis=   172 RedAO= T EigKep=  2.78D-03  NBF=   172
 NBsUse=   172 1.00D-06 EigRej= -1.00D+00 NBFU=   172
 Precomputing XC quadrature grid using
 IXCGrd= 4 IRadAn=           5 IRanWt=          -1 IRanGd=           0 AccXCQ= 0.00D+00.
 Generated NRdTot=       0 NPtTot=      406208 NUsed=           0 NTot=          64
 NSgBfM=   171   171   171   171   171 MxSgAt=    19 MxSgA2=    19 SizInc=   0.000
 NMBTot=     3420 MaxBatPerAtom=       85 MaxMicBPerAtom=      201 NBfPt=            51863128.
 Leave Link  302 at Fri Mar 14 15:15:49 2025, MaxMem=  8589934592 cpu:               3.0 elap:               0.6
 (Enter /home/enzo/gaussian_versions/gdv.j21/gdv/l303.exe)
 DipDrv:  MaxL=1.
 Leave Link  303 at Fri Mar 14 15:15:50 2025, MaxMem=  8589934592 cpu:               0.3 elap:               0.3
 (Enter /home/enzo/gaussian_versions/gdv.j21/gdv/l401.exe)
 Initial guess from the checkpoint file:  "/local/home/enzo/scratch/Gau-2337715.chk"
 B after Tr=    -0.000000   -0.000000    0.000000
         Rot=    1.000000    0.000172   -0.000043    0.000119 Ang=   0.02 deg.
 AO Guess basis will be translated and rotated to current coordinates.
 JPrj=2 DoOrth=T DoCkMO=T.
 Leave Link  401 at Fri Mar 14 15:15:51 2025, MaxMem=  8589934592 cpu:               4.9 elap:               0.9
 (Enter /home/enzo/gaussian_versions/gdv.j21/gdv/l502.exe)
 Integral symmetry usage will be decided dynamically.
 Closed shell SCF:
 Using DIIS extrapolation, IDIIS=  1040.
 NGot=  8589934592 LenX=  8589843591 LenY=  8589813566
 Requested convergence on RMS density matrix=1.00D-08 within 128 cycles.
 Requested convergence on MAX density matrix=1.00D-06.
 Requested convergence on             energy=1.00D-06.
 No special actions if energy rises.
 Fock matrices will be formed incrementally for  20 cycles.

 Cycle   1  Pass 1  IDiag  1:
 FoFJK:  IHMeth= 1 ICntrl=       0 DoSepK=F KAlg= 0 I1Cent=           0 FoldK=F
 IRaf= 910000000 NMat=       1 IRICut=       1 DoRegI=T DoRafI=F ISym2E= 0 IDoP0=0 IntGTp=1.
 FoFCou: FMM=F IPFlag=           0 FMFlag=      100000 FMFlg1=           0
         NFxFlg=           0 DoJE=F BraDBF=F KetDBF=F FulRan=T
         wScrn=  0.000000 ICntrl=         0 IOpCl=  0 I1Cent=           0 NGrid=           0
         NMat0=    1 NMatS0=      1 NMatT0=    0 NMatD0=    1 NMtDS0=    0 NMtDT0=    0
 Symmetry not used in FoFCou.
 E= -874.580956375566    
 DIIS: error= 7.22D-05 at cycle   1 NSaved=   1.
 NSaved= 1 IEnMin= 1 EnMin= -874.580956375566     IErMin= 1 ErrMin= 7.22D-05
 ErrMax= 7.22D-05  0.00D+00 EMaxC= 1.00D-01 BMatC= 3.55D-06 BMatP= 3.55D-06
 IDIUse=1 WtCom= 1.00D+00 WtEn= 0.00D+00
 Coeff-Com:  0.100D+01
 Coeff:      0.100D+01
 Gap=     1.516 Goal=   None    Shift=    0.000
 RMSDP=2.02D-05 MaxDP=3.87D-04              OVMax= 6.63D-04

 Cycle   2  Pass 1  IDiag  1:
 RMSU=  2.02D-05    CP:  1.00D+00
 E= -874.580963139231     Delta-E=       -0.000006763665 Rises=F Damp=F
 DIIS: error= 1.07D-05 at cycle   2 NSaved=   2.
 NSaved= 2 IEnMin= 2 EnMin= -874.580963139231     IErMin= 2 ErrMin= 1.07D-05
 ErrMax= 1.07D-05  0.00D+00 EMaxC= 1.00D-01 BMatC= 5.20D-08 BMatP= 3.55D-06
 IDIUse=1 WtCom= 1.00D+00 WtEn= 0.00D+00
 Coeff-Com: -0.624D-01 0.106D+01
 Coeff:     -0.624D-01 0.106D+01
 Gap=     0.231 Goal=   None    Shift=    0.000
 RMSDP=3.39D-06 MaxDP=1.27D-04 DE=-6.76D-06 OVMax= 1.35D-04

 Cycle   3  Pass 1  IDiag  1:
 RMSU=  2.88D-06    CP:  1.00D+00  1.09D+00
 E= -874.580963209435     Delta-E=       -0.000000070203 Rises=F Damp=F
 DIIS: error= 8.93D-06 at cycle   3 NSaved=   3.
 NSaved= 3 IEnMin= 3 EnMin= -874.580963209435     IErMin= 3 ErrMin= 8.93D-06
 ErrMax= 8.93D-06  0.00D+00 EMaxC= 1.00D-01 BMatC= 2.96D-08 BMatP= 5.20D-08
 IDIUse=1 WtCom= 1.00D+00 WtEn= 0.00D+00
 Coeff-Com: -0.372D-01 0.490D+00 0.548D+00
 Coeff:     -0.372D-01 0.490D+00 0.548D+00
 Gap=     0.231 Goal=   None    Shift=    0.000
 RMSDP=1.35D-06 MaxDP=4.11D-05 DE=-7.02D-08 OVMax= 6.51D-05

 Cycle   4  Pass 1  IDiag  1:
 RMSU=  1.06D-06    CP:  1.00D+00  1.10D+00  7.26D-01
 E= -874.580963228445     Delta-E=       -0.000000019010 Rises=F Damp=F
 DIIS: error= 7.29D-06 at cycle   4 NSaved=   4.
 NSaved= 4 IEnMin= 4 EnMin= -874.580963228445     IErMin= 4 ErrMin= 7.29D-06
 ErrMax= 7.29D-06  0.00D+00 EMaxC= 1.00D-01 BMatC= 8.25D-09 BMatP= 2.96D-08
 IDIUse=1 WtCom= 1.00D+00 WtEn= 0.00D+00
 Coeff-Com: -0.146D-01 0.172D+00 0.356D+00 0.487D+00
 Coeff:     -0.146D-01 0.172D+00 0.356D+00 0.487D+00
 Gap=     0.231 Goal=   None    Shift=    0.000
 RMSDP=5.46D-07 MaxDP=1.83D-05 DE=-1.90D-08 OVMax= 3.57D-05

 Cycle   5  Pass 1  IDiag  1:
 RMSU=  4.25D-07    CP:  1.00D+00  1.11D+00  7.51D-01  6.91D-01
 E= -874.580963234303     Delta-E=       -0.000000005859 Rises=F Damp=F
 DIIS: error= 1.67D-06 at cycle   5 NSaved=   5.
 NSaved= 5 IEnMin= 5 EnMin= -874.580963234303     IErMin= 5 ErrMin= 1.67D-06
 ErrMax= 1.67D-06  0.00D+00 EMaxC= 1.00D-01 BMatC= 8.14D-10 BMatP= 8.25D-09
 IDIUse=1 WtCom= 1.00D+00 WtEn= 0.00D+00
 Coeff-Com: -0.398D-02 0.394D-01 0.143D+00 0.291D+00 0.530D+00
 Coeff:     -0.398D-02 0.394D-01 0.143D+00 0.291D+00 0.530D+00
 Gap=     0.231 Goal=   None    Shift=    0.000
 RMSDP=2.01D-07 MaxDP=5.39D-06 DE=-5.86D-09 OVMax= 7.56D-06

 Cycle   6  Pass 1  IDiag  1:
 RMSU=  1.31D-07    CP:  1.00D+00  1.11D+00  7.77D-01  7.51D-01  7.31D-01
 E= -874.580963234922     Delta-E=       -0.000000000619 Rises=F Damp=F
 DIIS: error= 5.17D-07 at cycle   6 NSaved=   6.
 NSaved= 6 IEnMin= 6 EnMin= -874.580963234922     IErMin= 6 ErrMin= 5.17D-07
 ErrMax= 5.17D-07  0.00D+00 EMaxC= 1.00D-01 BMatC= 8.57D-11 BMatP= 8.14D-10
 IDIUse=1 WtCom= 1.00D+00 WtEn= 0.00D+00
 Coeff-Com:  0.254D-03-0.750D-02 0.206D-01 0.832D-01 0.289D+00 0.614D+00
 Coeff:      0.254D-03-0.750D-02 0.206D-01 0.832D-01 0.289D+00 0.614D+00
 Gap=     0.231 Goal=   None    Shift=    0.000
 RMSDP=6.69D-08 MaxDP=1.91D-06 DE=-6.19D-10 OVMax= 2.34D-06

 Cycle   7  Pass 1  IDiag  1:
 RMSU=  3.64D-08    CP:  1.00D+00  1.11D+00  7.88D-01  7.55D-01  7.77D-01
                    CP:  6.94D-01
 E= -874.580963234995     Delta-E=       -0.000000000072 Rises=F Damp=F
 DIIS: error= 1.45D-07 at cycle   7 NSaved=   7.
 NSaved= 7 IEnMin= 7 EnMin= -874.580963234995     IErMin= 7 ErrMin= 1.45D-07
 ErrMax= 1.45D-07  0.00D+00 EMaxC= 1.00D-01 BMatC= 1.08D-11 BMatP= 8.57D-11
 IDIUse=1 WtCom= 1.00D+00 WtEn= 0.00D+00
 Coeff-Com:  0.523D-03-0.824D-02-0.177D-02 0.215D-01 0.112D+00 0.346D+00
 Coeff-Com:  0.530D+00
 Coeff:      0.523D-03-0.824D-02-0.177D-02 0.215D-01 0.112D+00 0.346D+00
 Coeff:      0.530D+00
 Gap=     0.231 Goal=   None    Shift=    0.000
 RMSDP=2.06D-08 MaxDP=5.13D-07 DE=-7.23D-11 OVMax= 6.37D-07

 Cycle   8  Pass 1  IDiag  1:
 RMSU=  1.28D-08    CP:  1.00D+00  1.11D+00  7.87D-01  7.63D-01  7.88D-01
                    CP:  7.39D-01  7.05D-01
 E= -874.580963235000     Delta-E=       -0.000000000005 Rises=F Damp=F
 DIIS: error= 4.34D-08 at cycle   8 NSaved=   8.
 NSaved= 8 IEnMin= 8 EnMin= -874.580963235000     IErMin= 8 ErrMin= 4.34D-08
 ErrMax= 4.34D-08  0.00D+00 EMaxC= 1.00D-01 BMatC= 7.23D-13 BMatP= 1.08D-11
 IDIUse=1 WtCom= 1.00D+00 WtEn= 0.00D+00
 Coeff-Com:  0.229D-03-0.335D-02-0.291D-02 0.287D-02 0.258D-01 0.112D+00
 Coeff-Com:  0.261D+00 0.605D+00
 Coeff:      0.229D-03-0.335D-02-0.291D-02 0.287D-02 0.258D-01 0.112D+00
 Coeff:      0.261D+00 0.605D+00
 Gap=     0.231 Goal=   None    Shift=    0.000
 RMSDP=6.69D-09 MaxDP=1.71D-07 DE=-5.46D-12 OVMax= 2.60D-07

 SCF Done:  E(RB3LYP) =  -874.580963235     A.U. after    8 cycles
            NFock=  8  Conv=0.67D-08     -V/T= 2.0064
 KE= 8.690141348046D+02 PE=-3.310871352335D+03 EE= 9.413658829760D+02
 Leave Link  502 at Fri Mar 14 15:15:59 2025, MaxMem=  8589934592 cpu:              62.9 elap:               8.3
 (Enter /home/enzo/gaussian_versions/gdv.j21/gdv/l701.exe)
 ... and contract with generalized density number  0.
 Compute integral first derivatives.
 Leave Link  701 at Fri Mar 14 15:16:00 2025, MaxMem=  8589934592 cpu:               3.6 elap:               0.7
 (Enter /home/enzo/gaussian_versions/gdv.j21/gdv/l702.exe)
 L702 exits ... SP integral derivatives will be done elsewhere.
 Leave Link  702 at Fri Mar 14 15:16:00 2025, MaxMem=  8589934592 cpu:               0.4 elap:               0.3
 (Enter /home/enzo/gaussian_versions/gdv.j21/gdv/l703.exe)
 Integral derivatives from FoFJK, PRISM(SPDF).
 Compute integral first derivatives, UseDBF=F ICtDFT=           0.
 Calling FoFJK, ICntrl=      2127 FMM=F ISym2X=0 I1Cent= 0 IOpClX= 0 NMat=1 NMatS=1 NMatT=0.
 FoFJK:  IHMeth= 1 ICntrl=    2127 DoSepK=F KAlg= 0 I1Cent=           0 FoldK=F
 IRaf=         0 NMat=       1 IRICut=       1 DoRegI=T DoRafI=F ISym2E= 0 IDoP0=0 IntGTp=1.
 FoFCou: FMM=F IPFlag=           0 FMFlag=      100000 FMFlg1=         800
         NFxFlg=           0 DoJE=F BraDBF=F KetDBF=F FulRan=T
         wScrn=  0.000000 ICntrl=      2127 IOpCl=  0 I1Cent=           0 NGrid=           0
         NMat0=    1 NMatS0=      1 NMatT0=    0 NMatD0=    1 NMtDS0=    0 NMtDT0=    0
 Symmetry not used in FoFCou.
 Leave Link  703 at Fri Mar 14 15:16:02 2025, MaxMem=  8589934592 cpu:              15.8 elap:               2.2
 (Enter /home/enzo/gaussian_versions/gdv.j21/gdv/l716.exe)
 Dipole        =-1.66090025D+00-4.70564871D-01-1.17832262D+00
 ***** Axes restored to original set *****
 -------------------------------------------------------------------
 Center     Atomic                   Forces (Hartrees/Bohr)
 Number     Number              X              Y              Z
 -------------------------------------------------------------------
      1        6          -0.000003813   -0.000005437    0.000003175
      2        6          -0.000008211    0.000036174   -0.000006822
      3       16           0.000015561   -0.000024981    0.000016477
      4        6           0.000002230   -0.000022337   -0.000013185
      5        8           0.000014622    0.000009793    0.000021008
      6        7           0.000005014    0.000009801   -0.000011306
      7        6          -0.000021204    0.000016920    0.000016901
      8        6          -0.000000377   -0.000021115   -0.000006153
      9        8           0.000007173    0.000011479    0.000004210
     10        8          -0.000000316    0.000012198   -0.000007016
     11        1          -0.000000958    0.000001455   -0.000000183
     12        1           0.000000770    0.000001403   -0.000001809
     13        1          -0.000000188    0.000000030    0.000000374
     14        1          -0.000003722   -0.000001203    0.000000263
     15        1          -0.000000501   -0.000002817   -0.000005268
     16        1          -0.000003975   -0.000008165   -0.000003421
     17        1          -0.000003963   -0.000002425   -0.000002447
     18        1          -0.000001089   -0.000004327   -0.000004128
     19        1           0.000002946   -0.000006447   -0.000000671
 -------------------------------------------------------------------
 Cartesian Forces:  Max     0.000036174 RMS     0.000010651
 Leave Link  716 at Fri Mar 14 15:16:03 2025, MaxMem=  8589934592 cpu:               0.8 elap:               0.3
 (Enter /home/enzo/gaussian_versions/gdv.j21/gdv/l103.exe)

 GradGradGradGradGradGradGradGradGradGradGradGradGradGradGradGradGradGrad
 Berny optimization.
 Using GEDIIS/GDIIS optimizer.
 FormGI is forming the generalized inverse of G from B-inverse, IUseBI=4.
 Internal  Forces:  Max     0.000031969 RMS     0.000007356
 Search for a local minimum.
 Step number  17 out of a maximum of   93
 All quantities printed in internal units (Hartrees-Bohrs-Radians)
 RMS Force = .73561D-05 SwitMx=.10000D-02 MixMth= 2
 Mixed Optimization -- En-DIIS/RFO-DIIS
 Swapping is turned off.
 Update second derivatives using D2CorX and points   10   11   12   13   14
                                                     15   16   17
 DE= -3.80D-07 DEPred=-2.84D-07 R= 1.34D+00
 Trust test= 1.34D+00 RLast= 7.95D-03 DXMaxT set to 1.37D+00
 ITU=  0  0  1  1  1  1  1  1  1 -1  1  1  1  1  1  1  0
     Eigenvalues ---    0.00142   0.00199   0.00401   0.00551   0.00627
     Eigenvalues ---    0.01111   0.01284   0.02437   0.03899   0.04421
     Eigenvalues ---    0.04542   0.05227   0.05606   0.05694   0.05770
     Eigenvalues ---    0.06551   0.08295   0.10464   0.13619   0.15333
     Eigenvalues ---    0.15857   0.15987   0.16018   0.16066   0.16448
     Eigenvalues ---    0.17569   0.19574   0.21229   0.22060   0.23019
     Eigenvalues ---    0.23910   0.24895   0.25611   0.26255   0.27451
     Eigenvalues ---    0.29995   0.31909   0.32571   0.32577   0.32618
     Eigenvalues ---    0.32662   0.32762   0.32819   0.33900   0.36891
     Eigenvalues ---    0.40869   0.42475   0.46512   0.49352   0.80332
     Eigenvalues ---    0.81647
 En-DIIS/RFO-DIIS/Sim-DIIS IScMMF=       -3 using points:    17   16   15   14   13   12   11   10    9
 RFO step:  Lambda=-4.96112621D-08.
 NNeg= 0 NGDIIS= 9 SimSw=  2.50D-01 Rises=F DC= -3.80D-07 SmlDif=  1.00D-05
 NRisDI= 0 DoIntr=F SqrtH=F CThrHd= 10.0 CDAdj=  3.0
 RMS Error=  0.3338606714D-03 NUsed= 9 OKEnD=F EnDIS=F
 InvSVX:  RCond= 1.04D-08 Info=           0 Equed=N FErr=  1.23D-11 BErr=  5.29D-17
 DIIS inversion failure, remove point   9.
 InvSVX:  RCond= 1.50D-08 Info=           0 Equed=N FErr=  8.24D-12 BErr=  4.96D-17
 DIIS inversion failure, remove point   8.
 InvSVX:  RCond= 8.29D-08 Info=           0 Equed=N FErr=  8.07D-13 BErr=  8.46D-17
 DIIS inversion failure, remove point   7.
 InvSVX:  RCond= 9.75D-08 Info=           0 Equed=N FErr=  6.86D-13 BErr=  6.65D-17
 DIIS inversion failure, remove point   6.
 InvSVX:  RCond= 1.42D-07 Info=           0 Equed=N FErr=  2.00D-13 BErr=  4.73D-17
 RFO-DIIS uses    5 points instead of    9
 DidBck=FF Rises=F RFO-DIIS coefs:    0.90928    0.22018   -0.12852   -0.04408    0.04313
                   RFO-DIIS coefs:    0.00000    0.00000    0.00000    0.00000
 Iteration  1 RMS(Cart)=  0.00072819 RMS(Int)=  0.00000155
 Iteration  2 RMS(Cart)=  0.00000024 RMS(Int)=  0.00000155
 Variable       Old X    -DE/DX   Delta X   Delta X   Delta X     New X
                                 (Linear)    (Quad)   (Total)
    R1        2.88239  -0.00000   0.00002  -0.00002  -0.00000   2.88238
    R2        2.06514  -0.00000  -0.00000  -0.00000  -0.00000   2.06513
    R3        2.07198   0.00000  -0.00000   0.00001   0.00001   2.07198
    R4        2.06526   0.00000  -0.00000  -0.00000  -0.00000   2.06526
    R5        3.51640   0.00003  -0.00004   0.00014   0.00010   3.51650
    R6        2.89393  -0.00001  -0.00002  -0.00001  -0.00003   2.89390
    R7        2.07174   0.00000  -0.00001   0.00000  -0.00000   2.07174
    R8        2.55313  -0.00001  -0.00002  -0.00001  -0.00003   2.55310
    R9        2.30849   0.00002   0.00000   0.00002   0.00002   2.30851
   R10        2.59947   0.00002   0.00004  -0.00000   0.00004   2.59951
   R11        2.74153   0.00002   0.00001   0.00004   0.00005   2.74158
   R12        1.91085   0.00001  -0.00001   0.00001   0.00001   1.91086
   R13        2.90525  -0.00000  -0.00003   0.00002  -0.00001   2.90524
   R14        2.06810  -0.00000   0.00000  -0.00002  -0.00001   2.06809
   R15        2.06597   0.00000  -0.00001   0.00001  -0.00000   2.06596
   R16        2.27699  -0.00001  -0.00001  -0.00000  -0.00001   2.27698
   R17        2.54903  -0.00000   0.00001  -0.00002  -0.00001   2.54903
   R18        1.84591   0.00000  -0.00001   0.00001  -0.00000   1.84591
    A1        1.92980   0.00000   0.00000  -0.00001  -0.00000   1.92980
    A2        1.92121   0.00000   0.00001  -0.00000   0.00001   1.92122
    A3        1.92519  -0.00000  -0.00002   0.00001  -0.00001   1.92518
    A4        1.89897  -0.00000  -0.00000  -0.00001  -0.00001   1.89895
    A5        1.90870   0.00000  -0.00001   0.00001   0.00000   1.90870
    A6        1.87905   0.00000   0.00002   0.00000   0.00002   1.87907
    A7        1.97501  -0.00001   0.00001  -0.00003  -0.00002   1.97498
    A8        1.95605  -0.00000  -0.00002  -0.00001  -0.00004   1.95601
    A9        1.92752   0.00000   0.00002   0.00000   0.00002   1.92754
   A10        1.87125   0.00001  -0.00005   0.00004  -0.00001   1.87124
   A11        1.79950   0.00000   0.00001   0.00002   0.00003   1.79953
   A12        1.92785  -0.00000   0.00003  -0.00001   0.00003   1.92787
   A13        1.66678   0.00001  -0.00000   0.00002   0.00002   1.66679
   A14        2.13050  -0.00002  -0.00003  -0.00003  -0.00006   2.13044
   A15        2.00672   0.00001  -0.00001   0.00004   0.00003   2.00674
   A16        2.14409   0.00001   0.00004   0.00001   0.00004   2.14413
   A17        2.13710   0.00001  -0.00003   0.00003   0.00001   2.13711
   A18        2.07598   0.00000   0.00000   0.00001   0.00002   2.07600
   A19        2.06960  -0.00001  -0.00001  -0.00003  -0.00004   2.06956
   A20        1.99679  -0.00001  -0.00008  -0.00001  -0.00009   1.99670
   A21        1.86744   0.00000  -0.00004   0.00003  -0.00001   1.86742
   A22        1.94571   0.00001   0.00008  -0.00003   0.00004   1.94575
   A23        1.88567   0.00000   0.00001   0.00000   0.00001   1.88569
   A24        1.87945   0.00000   0.00002  -0.00001   0.00002   1.87946
   A25        1.88519   0.00000   0.00001   0.00002   0.00004   1.88523
   A26        2.12395  -0.00001   0.00004  -0.00005  -0.00001   2.12394
   A27        2.02943   0.00000  -0.00006   0.00004  -0.00002   2.02940
   A28        2.12963   0.00001   0.00002   0.00001   0.00003   2.12966
   A29        1.91632   0.00001  -0.00004   0.00005   0.00001   1.91633
    D1        0.95094  -0.00000   0.00002  -0.00005  -0.00003   0.95092
    D2        3.06956   0.00000  -0.00005  -0.00004  -0.00009   3.06946
    D3       -1.05613  -0.00000  -0.00001  -0.00006  -0.00007  -1.05620
    D4        3.04961  -0.00000   0.00003  -0.00007  -0.00004   3.04957
    D5       -1.11496   0.00000  -0.00004  -0.00006  -0.00011  -1.11507
    D6        1.04254  -0.00000  -0.00000  -0.00008  -0.00008   1.04246
    D7       -1.16250  -0.00000   0.00005  -0.00007  -0.00002  -1.16252
    D8        0.95611   0.00000  -0.00003  -0.00006  -0.00008   0.95603
    D9        3.11361  -0.00000   0.00001  -0.00007  -0.00006   3.11355
   D10        1.06321  -0.00000  -0.00007   0.00040   0.00033   1.06355
   D11       -1.10250   0.00000  -0.00001   0.00041   0.00041  -1.10209
   D12       -3.13761  -0.00000  -0.00003   0.00040   0.00037  -3.13724
   D13       -0.58584   0.00000  -0.00063  -0.00018  -0.00081  -0.58665
   D14        2.61986  -0.00001  -0.00065  -0.00031  -0.00096   2.61890
   D15        1.59140  -0.00001  -0.00067  -0.00021  -0.00088   1.59053
   D16       -1.48608  -0.00001  -0.00069  -0.00034  -0.00103  -1.48711
   D17       -2.74315   0.00000  -0.00066  -0.00017  -0.00083  -2.74399
   D18        0.46255  -0.00001  -0.00068  -0.00031  -0.00099   0.46156
   D19        3.02686   0.00000   0.00029  -0.00001   0.00028   3.02713
   D20       -0.14950   0.00000  -0.00028   0.00035   0.00007  -0.14942
   D21       -0.05007  -0.00000   0.00027  -0.00014   0.00013  -0.04995
   D22        3.05676  -0.00000  -0.00030   0.00022  -0.00008   3.05668
   D23       -1.88527  -0.00000  -0.00043   0.00014  -0.00029  -1.88556
   D24        0.20259  -0.00000  -0.00050   0.00016  -0.00034   0.20225
   D25        2.26017   0.00000  -0.00046   0.00019  -0.00028   2.25989
   D26        1.29096  -0.00000   0.00013  -0.00022  -0.00009   1.29087
   D27       -2.90437  -0.00000   0.00007  -0.00020  -0.00013  -2.90450
   D28       -0.84679   0.00000   0.00010  -0.00017  -0.00007  -0.84686
   D29       -2.84630  -0.00001   0.00031  -0.00030   0.00000  -2.84629
   D30        0.31544  -0.00000   0.00030  -0.00029   0.00000   0.31544
   D31        1.35927  -0.00000   0.00040  -0.00033   0.00007   1.35934
   D32       -1.76218  -0.00000   0.00039  -0.00032   0.00007  -1.76211
   D33       -0.67294  -0.00001   0.00037  -0.00036   0.00001  -0.67293
   D34        2.48880  -0.00001   0.00036  -0.00035   0.00001   2.48880
   D35       -0.02640  -0.00000  -0.00025   0.00032   0.00007  -0.02633
   D36        3.13540  -0.00000  -0.00027   0.00033   0.00007   3.13547
         Item               Value     Threshold  Converged?
 Maximum Force            0.000032     0.000450     YES
 RMS     Force            0.000007     0.000300     YES
 Maximum Displacement     0.001822     0.001800     NO 
 RMS     Displacement     0.000728     0.001200     YES
 Predicted change in Energy=-2.396172D-08
 Lowest energy point so far.  Saving SCF results.
 GradGradGradGradGradGradGradGradGradGradGradGradGradGradGradGradGradGrad

 Leave Link  103 at Fri Mar 14 15:16:03 2025, MaxMem=  8589934592 cpu:               2.6 elap:               0.7
 (Enter /home/enzo/gaussian_versions/gdv.j21/gdv/l202.exe)
                          Input orientation:                          
 ---------------------------------------------------------------------
 Center     Atomic      Atomic             Coordinates (Angstroms)
 Number     Number       Type             X           Y           Z
 ---------------------------------------------------------------------
      1          6           0        2.835806    1.263846   -0.727537
      2          6           0        1.633484    0.352067   -0.950242
      3         16           0        1.984694   -1.431967   -0.554463
      4          6           0        0.427014    0.774369   -0.106894
      5          8           0        0.552693    1.266158    1.004266
      6          7           0       -0.798575    0.485669   -0.660847
      7          6           0       -2.043660    0.686612    0.056201
      8          6           0       -2.734237   -0.611245    0.505898
      9          8           0       -3.893052   -0.630306    0.835484
     10          8           0       -1.964568   -1.718654    0.533262
     11          1           0        3.702835    0.898659   -1.283560
     12          1           0        2.603754    2.281518   -1.063231
     13          1           0        3.082181    1.313602    0.336053
     14          1           0        1.366692    0.323023   -2.013204
     15          1           0        2.280442   -1.220166    0.746688
     16          1           0       -0.837942    0.148626   -1.613391
     17          1           0       -1.807118    1.271982    0.950110
     18          1           0       -2.761867    1.255515   -0.540245
     19          1           0       -1.062729   -1.502426    0.226512
 ---------------------------------------------------------------------
                    Distance matrix (angstroms):
                    1          2          3          4          5
     1  C    0.000000
     2  C    1.525292   0.000000
     3  S    2.832271   1.860851   0.000000
     4  C    2.535166   1.531387   2.737627   0.000000
     5  O    2.865616   2.413250   3.429307   1.221610   0.000000
     6  N    3.717355   2.452858   3.381602   1.375601   2.282036
     7  C    4.975604   3.827040   4.592268   2.477606   2.824138
     8  C    6.005223   4.703754   4.905737   3.505559   3.817974
     9  O    7.162987   5.890371   6.092824   4.639413   4.836291
    10  O    5.790381   4.408475   4.106337   3.513492   3.932881
    11  H    1.092822   2.166120   2.985868   3.482957   3.910574
    12  H    1.096446   2.162631   3.798954   2.815009   3.084210
    13  H    1.092886   2.162828   3.087985   2.745339   2.616690
    14  H    2.167114   1.096317   2.364285   2.172723   3.264541
    15  H    2.941443   2.402091   1.351045   2.853413   3.038630
    16  H    3.940162   2.566925   3.403950   2.064267   3.167787
    17  H    4.936731   4.036747   4.894172   2.521155   2.360440
    18  H    5.600812   4.505933   5.454595   3.253960   3.656767
    19  H    4.874530   3.477565   3.146692   2.741220   3.298416
                    6          7          8          9         10
     6  N    0.000000
     7  C    1.450784   0.000000
     8  C    2.512230   1.537385   0.000000
     9  O    3.613889   2.400376   1.204925   0.000000
    10  O    2.764865   2.453395   1.348886   2.234925   0.000000
    11  H    4.563005   5.904416   6.849661   8.032781   6.501586
    12  H    3.868181   5.039376   6.270916   7.368333   6.278514
    13  H    4.091399   5.171622   6.128996   7.258242   5.890937
    14  H    2.558066   4.005638   4.902687   6.057125   4.663714
    15  H    3.790959   4.776027   5.057249   6.202245   4.279504
    16  H    1.011182   2.128550   2.943590   3.992171   3.060089
    17  H    2.056849   1.094388   2.145557   2.825413   3.023649
    18  H    2.112280   1.093262   2.140086   2.593941   3.260948
    19  H    2.193104   2.404811   1.914732   3.023602   0.976813
                   11         12         13         14         15
    11  H    0.000000
    12  H    1.780118   0.000000
    13  H    1.783405   1.767413   0.000000
    14  H    2.514219   2.503692   3.072972   0.000000
    15  H    3.261062   3.955013   2.689124   3.291409   0.000000
    16  H    4.614107   4.086217   4.530437   2.247370   4.143414
    17  H    5.957200   4.952626   4.927884   4.444640   4.791694
    18  H    6.517073   5.487813   5.909668   4.481535   5.762818
    19  H    5.545820   5.424460   5.012214   3.775007   3.395150
                   16         17         18         19
    16  H    0.000000
    17  H    2.961886   0.000000
    18  H    2.465428   1.770022   0.000000
    19  H    2.482287   2.962271   3.328848   0.000000
 Stoichiometry    C5H9NO3S
 Framework group  C1[X(C5H9NO3S)]
 Deg. of freedom    51
 Full point group                 C1      NOp   1
 RotChk:  IX=0 Diff= 3.45D-04
 Largest Abelian subgroup         C1      NOp   1
 Largest concise Abelian subgroup C1      NOp   1
                         Standard orientation:                         
 ---------------------------------------------------------------------
 Center     Atomic      Atomic             Coordinates (Angstroms)
 Number     Number       Type             X           Y           Z
 ---------------------------------------------------------------------
      1          6           0       -3.154347   -0.992480   -0.051841
      2          6           0       -1.925126   -0.208023   -0.499233
      3         16           0       -1.969502    1.579115    0.017423
      4          6           0       -0.628105   -0.807107    0.052112
      5          8           0       -0.576042   -1.342987    1.148675
      6          7           0        0.479704   -0.625119   -0.742821
      7          6           0        1.814218   -1.001786   -0.316246
      8          6           0        2.733950    0.184918    0.014485
      9          8           0        3.929867    0.057617    0.088105
     10          8           0        2.125297    1.367272    0.240478
     11          1           0       -4.068576   -0.503502   -0.397307
     12          1           0       -3.121300   -2.009315   -0.460678
     13          1           0       -3.176481   -1.073750    1.037794
     14          1           0       -1.885525   -0.149595   -1.593275
     15          1           0       -2.009153    1.329294    1.344577
     16          1           0        0.358603   -0.242085   -1.670780
     17          1           0        1.701965   -1.606223    0.589149
     18          1           0        2.318106   -1.612465   -1.070161
     19          1           0        1.159949    1.269284    0.127929
 ---------------------------------------------------------------------
 Rotational constants (GHZ):           2.1511174           0.5962875           0.5084008
 Leave Link  202 at Fri Mar 14 15:16:04 2025, MaxMem=  8589934592 cpu:               0.6 elap:               0.3
 (Enter /home/enzo/gaussian_versions/gdv.j21/gdv/l301.exe)
 Standard basis: 6-31G(d) (6D, 7F)
 Ernie: Thresh=  0.10000D-02 Tol=  0.10000D-05 Strict=F.
 There are   172 symmetry adapted cartesian basis functions of A   symmetry.
 There are   172 symmetry adapted basis functions of A   symmetry.
   172 basis functions,   340 primitive gaussians,   172 cartesian basis functions
    43 alpha electrons       43 beta electrons
       nuclear repulsion energy       625.8930109220 Hartrees.
 IExCor=      4002 DFT=T Ex+Corr=B3LYP ScaHFX=  0.200000
 ScaDFX=  0.800000  0.720000  1.000000  0.810000  1.000000  0.000000
 ScaDFX=  0.000000  0.000000  0.000000  0.000000  0.000000  0.000000
 IRadAn=      5 IRanWt=     -1 IRanGd=            0 ICorTp=0 IEmpDi=  4
 NAtoms=   19 NActive=   19 NUniq=   19 SFac= 1.00D+00 NAtFMM=   60 NAOKFM=F Big=F
 Integral buffers will be    131072 words long.
 Raffenetti 2 integral format.
 Two-electron integral symmetry is turned on.
 Leave Link  301 at Fri Mar 14 15:16:04 2025, MaxMem=  8589934592 cpu:               0.4 elap:               0.2
 (Enter /home/enzo/gaussian_versions/gdv.j21/gdv/l302.exe)
 NPDir=0 NMtPBC=     1 NCelOv=     1 NCel=       1 NClECP=     1 NCelD=      1
         NCelK=      1 NCelE2=     1 NClLst=     1 CellRange=     0.0.
 One-electron integrals computed using PRISM.
 One-electron integral symmetry used in STVInt
 NBasis=   172 RedAO= T EigKep=  2.78D-03  NBF=   172
 NBsUse=   172 1.00D-06 EigRej= -1.00D+00 NBFU=   172
 Precomputing XC quadrature grid using
 IXCGrd= 4 IRadAn=           5 IRanWt=          -1 IRanGd=           0 AccXCQ= 0.00D+00.
 Generated NRdTot=       0 NPtTot=      406232 NUsed=           0 NTot=          64
 NSgBfM=   171   171   171   171   171 MxSgAt=    19 MxSgA2=    19 SizInc=   0.000
 NMBTot=     3431 MaxBatPerAtom=       85 MaxMicBPerAtom=      199 NBfPt=            51855727.
 Leave Link  302 at Fri Mar 14 15:16:05 2025, MaxMem=  8589934592 cpu:               4.7 elap:               0.7
 (Enter /home/enzo/gaussian_versions/gdv.j21/gdv/l303.exe)
 DipDrv:  MaxL=1.
 Leave Link  303 at Fri Mar 14 15:16:05 2025, MaxMem=  8589934592 cpu:               0.8 elap:               0.4
 (Enter /home/enzo/gaussian_versions/gdv.j21/gdv/l401.exe)
 Initial guess from the checkpoint file:  "/local/home/enzo/scratch/Gau-2337715.chk"
 B after Tr=    -0.000000   -0.000000   -0.000000
         Rot=    1.000000    0.000076    0.000012   -0.000042 Ang=   0.01 deg.
 AO Guess basis will be translated and rotated to current coordinates.
 JPrj=2 DoOrth=T DoCkMO=T.
 Leave Link  401 at Fri Mar 14 15:16:06 2025, MaxMem=  8589934592 cpu:               2.8 elap:               0.6
 (Enter /home/enzo/gaussian_versions/gdv.j21/gdv/l502.exe)
 Integral symmetry usage will be decided dynamically.
 Closed shell SCF:
 Using DIIS extrapolation, IDIIS=  1040.
 NGot=  8589934592 LenX=  8589843591 LenY=  8589813566
 Requested convergence on RMS density matrix=1.00D-08 within 128 cycles.
 Requested convergence on MAX density matrix=1.00D-06.
 Requested convergence on             energy=1.00D-06.
 No special actions if energy rises.
 Fock matrices will be formed incrementally for  20 cycles.

 Cycle   1  Pass 1  IDiag  1:
 FoFJK:  IHMeth= 1 ICntrl=       0 DoSepK=F KAlg= 0 I1Cent=           0 FoldK=F
 IRaf= 910000000 NMat=       1 IRICut=       1 DoRegI=T DoRafI=F ISym2E= 0 IDoP0=0 IntGTp=1.
 FoFCou: FMM=F IPFlag=           0 FMFlag=      100000 FMFlg1=           0
         NFxFlg=           0 DoJE=F BraDBF=F KetDBF=F FulRan=T
         wScrn=  0.000000 ICntrl=         0 IOpCl=  0 I1Cent=           0 NGrid=           0
         NMat0=    1 NMatS0=      1 NMatT0=    0 NMatD0=    1 NMtDS0=    0 NMtDT0=    0
 Symmetry not used in FoFCou.
 E= -874.580962527630    
 DIIS: error= 2.40D-05 at cycle   1 NSaved=   1.
 NSaved= 1 IEnMin= 1 EnMin= -874.580962527630     IErMin= 1 ErrMin= 2.40D-05
 ErrMax= 2.40D-05  0.00D+00 EMaxC= 1.00D-01 BMatC= 3.61D-07 BMatP= 3.61D-07
 IDIUse=1 WtCom= 1.00D+00 WtEn= 0.00D+00
 Coeff-Com:  0.100D+01
 Coeff:      0.100D+01
 Gap=     1.516 Goal=   None    Shift=    0.000
 RMSDP=6.43D-06 MaxDP=1.06D-04              OVMax= 1.80D-04

 Cycle   2  Pass 1  IDiag  1:
 RMSU=  6.43D-06    CP:  1.00D+00
 E= -874.580963252228     Delta-E=       -0.000000724598 Rises=F Damp=F
 DIIS: error= 3.92D-06 at cycle   2 NSaved=   2.
 NSaved= 2 IEnMin= 2 EnMin= -874.580963252228     IErMin= 2 ErrMin= 3.92D-06
 ErrMax= 3.92D-06  0.00D+00 EMaxC= 1.00D-01 BMatC= 5.66D-09 BMatP= 3.61D-07
 IDIUse=1 WtCom= 1.00D+00 WtEn= 0.00D+00
 Coeff-Com: -0.691D-01 0.107D+01
 Coeff:     -0.691D-01 0.107D+01
 Gap=     0.231 Goal=   None    Shift=    0.000
 RMSDP=9.92D-07 MaxDP=1.58D-05 DE=-7.25D-07 OVMax= 3.20D-05

 Cycle   3  Pass 1  IDiag  1:
 RMSU=  8.71D-07    CP:  1.00D+00  1.07D+00
 E= -874.580963258973     Delta-E=       -0.000000006745 Rises=F Damp=F
 DIIS: error= 3.22D-06 at cycle   3 NSaved=   3.
 NSaved= 3 IEnMin= 3 EnMin= -874.580963258973     IErMin= 3 ErrMin= 3.22D-06
 ErrMax= 3.22D-06  0.00D+00 EMaxC= 1.00D-01 BMatC= 3.68D-09 BMatP= 5.66D-09
 IDIUse=1 WtCom= 1.00D+00 WtEn= 0.00D+00
 Coeff-Com: -0.398D-01 0.519D+00 0.521D+00
 Coeff:     -0.398D-01 0.519D+00 0.521D+00
 Gap=     0.231 Goal=   None    Shift=    0.000
 RMSDP=5.37D-07 MaxDP=1.38D-05 DE=-6.75D-09 OVMax= 2.29D-05

 Cycle   4  Pass 1  IDiag  1:
 RMSU=  3.85D-07    CP:  1.00D+00  1.09D+00  5.94D-01
 E= -874.580963260997     Delta-E=       -0.000000002024 Rises=F Damp=F
 DIIS: error= 2.29D-06 at cycle   4 NSaved=   4.
 NSaved= 4 IEnMin= 4 EnMin= -874.580963260997     IErMin= 4 ErrMin= 2.29D-06
 ErrMax= 2.29D-06  0.00D+00 EMaxC= 1.00D-01 BMatC= 1.50D-09 BMatP= 3.68D-09
 IDIUse=1 WtCom= 1.00D+00 WtEn= 0.00D+00
 Coeff-Com: -0.152D-01 0.179D+00 0.379D+00 0.458D+00
 Coeff:     -0.152D-01 0.179D+00 0.379D+00 0.458D+00
 Gap=     0.231 Goal=   None    Shift=    0.000
 RMSDP=2.18D-07 MaxDP=6.89D-06 DE=-2.02D-09 OVMax= 1.06D-05

 Cycle   5  Pass 1  IDiag  1:
 RMSU=  1.35D-07    CP:  1.00D+00  1.09D+00  6.66D-01  5.92D-01
 E= -874.580963262154     Delta-E=       -0.000000001157 Rises=F Damp=F
 DIIS: error= 2.76D-07 at cycle   5 NSaved=   5.
 NSaved= 5 IEnMin= 5 EnMin= -874.580963262154     IErMin= 5 ErrMin= 2.76D-07
 ErrMax= 2.76D-07  0.00D+00 EMaxC= 1.00D-01 BMatC= 3.67D-11 BMatP= 1.50D-09
 IDIUse=1 WtCom= 1.00D+00 WtEn= 0.00D+00
 Coeff-Com: -0.325D-02 0.323D-01 0.127D+00 0.205D+00 0.639D+00
 Coeff:     -0.325D-02 0.323D-01 0.127D+00 0.205D+00 0.639D+00
 Gap=     0.231 Goal=   None    Shift=    0.000
 RMSDP=5.37D-08 MaxDP=2.01D-06 DE=-1.16D-09 OVMax= 1.59D-06

 Cycle   6  Pass 1  IDiag  1:
 RMSU=  3.60D-08    CP:  1.00D+00  1.09D+00  6.94D-01  6.31D-01  7.91D-01
 E= -874.580963262192     Delta-E=       -0.000000000038 Rises=F Damp=F
 DIIS: error= 1.05D-07 at cycle   6 NSaved=   6.
 NSaved= 6 IEnMin= 6 EnMin= -874.580963262192     IErMin= 6 ErrMin= 1.05D-07
 ErrMax= 1.05D-07  0.00D+00 EMaxC= 1.00D-01 BMatC= 5.81D-12 BMatP= 3.67D-11
 IDIUse=1 WtCom= 1.00D+00 WtEn= 0.00D+00
 Coeff-Com:  0.229D-03-0.677D-02 0.189D-01 0.500D-01 0.326D+00 0.611D+00
 Coeff:      0.229D-03-0.677D-02 0.189D-01 0.500D-01 0.326D+00 0.611D+00
 Gap=     0.231 Goal=   None    Shift=    0.000
 RMSDP=1.63D-08 MaxDP=5.40D-07 DE=-3.77D-11 OVMax= 5.51D-07

 Cycle   7  Pass 1  IDiag  1:
 RMSU=  1.09D-08    CP:  1.00D+00  1.09D+00  6.99D-01  6.38D-01  8.36D-01
                    CP:  7.54D-01
 E= -874.580963262176     Delta-E=        0.000000000016 Rises=F Damp=F
 DIIS: error= 5.05D-08 at cycle   7 NSaved=   7.
 NSaved= 7 IEnMin= 6 EnMin= -874.580963262192     IErMin= 7 ErrMin= 5.05D-08
 ErrMax= 5.05D-08  0.00D+00 EMaxC= 1.00D-01 BMatC= 7.97D-13 BMatP= 5.81D-12
 IDIUse=1 WtCom= 1.00D+00 WtEn= 0.00D+00
 Coeff-Com:  0.513D-03-0.768D-02-0.461D-02 0.410D-02 0.102D+00 0.330D+00
 Coeff-Com:  0.575D+00
 Coeff:      0.513D-03-0.768D-02-0.461D-02 0.410D-02 0.102D+00 0.330D+00
 Coeff:      0.575D+00
 Gap=     0.231 Goal=   None    Shift=    0.000
 RMSDP=6.05D-09 MaxDP=1.88D-07 DE= 1.57D-11 OVMax= 2.32D-07

 SCF Done:  E(RB3LYP) =  -874.580963262     A.U. after    7 cycles
            NFock=  7  Conv=0.61D-08     -V/T= 2.0064
 KE= 8.690140290528D+02 PE=-3.310836569863D+03 EE= 9.413485666257D+02
 Leave Link  502 at Fri Mar 14 15:16:12 2025, MaxMem=  8589934592 cpu:              53.9 elap:               6.8
 (Enter /home/enzo/gaussian_versions/gdv.j21/gdv/l701.exe)
 ... and contract with generalized density number  0.
 Compute integral first derivatives.
 Leave Link  701 at Fri Mar 14 15:16:13 2025, MaxMem=  8589934592 cpu:               4.6 elap:               0.9
 (Enter /home/enzo/gaussian_versions/gdv.j21/gdv/l702.exe)
 L702 exits ... SP integral derivatives will be done elsewhere.
 Leave Link  702 at Fri Mar 14 15:16:14 2025, MaxMem=  8589934592 cpu:               0.3 elap:               0.3
 (Enter /home/enzo/gaussian_versions/gdv.j21/gdv/l703.exe)
 Integral derivatives from FoFJK, PRISM(SPDF).
 Compute integral first derivatives, UseDBF=F ICtDFT=           0.
 Calling FoFJK, ICntrl=      2127 FMM=F ISym2X=0 I1Cent= 0 IOpClX= 0 NMat=1 NMatS=1 NMatT=0.
 FoFJK:  IHMeth= 1 ICntrl=    2127 DoSepK=F KAlg= 0 I1Cent=           0 FoldK=F
 IRaf=         0 NMat=       1 IRICut=       1 DoRegI=T DoRafI=F ISym2E= 0 IDoP0=0 IntGTp=1.
 FoFCou: FMM=F IPFlag=           0 FMFlag=      100000 FMFlg1=         800
         NFxFlg=           0 DoJE=F BraDBF=F KetDBF=F FulRan=T
         wScrn=  0.000000 ICntrl=      2127 IOpCl=  0 I1Cent=           0 NGrid=           0
         NMat0=    1 NMatS0=      1 NMatT0=    0 NMatD0=    1 NMtDS0=    0 NMtDT0=    0
 Symmetry not used in FoFCou.
 Leave Link  703 at Fri Mar 14 15:16:16 2025, MaxMem=  8589934592 cpu:              14.6 elap:               2.0
 (Enter /home/enzo/gaussian_versions/gdv.j21/gdv/l716.exe)
 Dipole        =-1.66030314D+00-4.71350902D-01-1.17842650D+00
 ***** Axes restored to original set *****
 -------------------------------------------------------------------
 Center     Atomic                   Forces (Hartrees/Bohr)
 Number     Number              X              Y              Z
 -------------------------------------------------------------------
      1        6          -0.000001591   -0.000003373    0.000002130
      2        6          -0.000006310    0.000018371    0.000000859
      3       16           0.000003951   -0.000012595   -0.000000521
      4        6           0.000002084   -0.000006868   -0.000013467
      5        8          -0.000000653   -0.000000420    0.000008201
      6        7           0.000005703    0.000013060    0.000000727
      7        6          -0.000002377    0.000000987    0.000011521
      8        6           0.000008866   -0.000010401   -0.000007947
      9        8          -0.000004797    0.000005090    0.000007534
     10        8          -0.000004620    0.000001973   -0.000003654
     11        1           0.000000797    0.000000797   -0.000000626
     12        1           0.000000566    0.000001498   -0.000001106
     13        1           0.000000151   -0.000000050    0.000000166
     14        1          -0.000000518   -0.000004174    0.000000621
     15        1          -0.000000377    0.000002517    0.000000828
     16        1           0.000000063   -0.000003495   -0.000002108
     17        1          -0.000003609    0.000001771   -0.000000188
     18        1           0.000001874   -0.000003078   -0.000005193
     19        1           0.000000796   -0.000001609    0.000002224
 -------------------------------------------------------------------
 Cartesian Forces:  Max     0.000018371 RMS     0.000005494
 Leave Link  716 at Fri Mar 14 15:16:16 2025, MaxMem=  8589934592 cpu:               0.3 elap:               0.2
 (Enter /home/enzo/gaussian_versions/gdv.j21/gdv/l103.exe)

 GradGradGradGradGradGradGradGradGradGradGradGradGradGradGradGradGradGrad
 Berny optimization.
 Using GEDIIS/GDIIS optimizer.
 FormGI is forming the generalized inverse of G from B-inverse, IUseBI=4.
 Internal  Forces:  Max     0.000010496 RMS     0.000003095
 Search for a local minimum.
 Step number  18 out of a maximum of   93
 All quantities printed in internal units (Hartrees-Bohrs-Radians)
 RMS Force = .30950D-05 SwitMx=.10000D-02 MixMth= 2
 Mixed Optimization -- En-DIIS/RFO-DIIS
 Swapping is turned off.
 Update second derivatives using D2CorX and points   10   11   12   13   14
                                                     15   16   17   18
 DE= -2.72D-08 DEPred=-2.40D-08 R= 1.13D+00
 Trust test= 1.13D+00 RLast= 2.45D-03 DXMaxT set to 1.37D+00
 ITU=  0  0  0  1  1  1  1  1  1  1 -1  1  1  1  1  1  1  0
     Eigenvalues ---    0.00175   0.00202   0.00381   0.00511   0.00564
     Eigenvalues ---    0.00859   0.01288   0.02446   0.03937   0.04403
     Eigenvalues ---    0.04535   0.05235   0.05630   0.05675   0.05766
     Eigenvalues ---    0.06684   0.08299   0.10489   0.13705   0.15305
     Eigenvalues ---    0.15948   0.15992   0.16048   0.16061   0.16566
     Eigenvalues ---    0.17624   0.19552   0.21317   0.22339   0.23195
     Eigenvalues ---    0.24187   0.24278   0.25441   0.26306   0.27847
     Eigenvalues ---    0.29972   0.31910   0.32561   0.32586   0.32621
     Eigenvalues ---    0.32663   0.32761   0.32831   0.34632   0.36727
     Eigenvalues ---    0.40845   0.43651   0.46596   0.49298   0.80089
     Eigenvalues ---    0.82127
 En-DIIS/RFO-DIIS/Sim-DIIS IScMMF=       -3 using points:    18   17   16   15   14   13   12   11   10    9
 RFO step:  Lambda=-1.62780634D-08.
 NNeg= 0 NGDIIS=10 SimSw=  2.50D-01 Rises=F DC= -2.72D-08 SmlDif=  1.00D-05
 NRisDI= 0 DoIntr=F SqrtH=F CThrHd= 10.0 CDAdj=  3.0
 RMS Error=  0.1797835708D-03 NUsed=10 OKEnD=F EnDIS=F
 InvSVX:  RCond= 8.89D-09 Info=           0 Equed=N FErr=  2.14D-12 BErr=  6.93D-17
 DIIS inversion failure, remove point  10.
 InvSVX:  RCond= 1.05D-08 Info=           0 Equed=N FErr=  1.67D-12 BErr=  3.32D-17
 DIIS inversion failure, remove point   9.
 InvSVX:  RCond= 4.40D-08 Info=           0 Equed=N FErr=  2.26D-13 BErr=  8.66D-17
 DIIS inversion failure, remove point   8.
 InvSVX:  RCond= 8.40D-08 Info=           0 Equed=N FErr=  2.20D-13 BErr=  6.21D-17
 DIIS inversion failure, remove point   7.
 InvSVX:  RCond= 1.13D-07 Info=           0 Equed=N FErr=  4.32D-14 BErr=  5.74D-17
 RFO-DIIS uses    6 points instead of   10
 DidBck=FF Rises=F RFO-DIIS coefs:    1.83265   -0.71958   -0.18182    0.03979    0.06312
                   RFO-DIIS coefs:   -0.03415    0.00000    0.00000    0.00000    0.00000
 Iteration  1 RMS(Cart)=  0.00025883 RMS(Int)=  0.00000110
 Iteration  2 RMS(Cart)=  0.00000006 RMS(Int)=  0.00000110
 Variable       Old X    -DE/DX   Delta X   Delta X   Delta X     New X
                                 (Linear)    (Quad)   (Total)
    R1        2.88238  -0.00000  -0.00002   0.00001  -0.00001   2.88237
    R2        2.06513   0.00000  -0.00001   0.00001   0.00000   2.06514
    R3        2.07198   0.00000   0.00001   0.00000   0.00001   2.07199
    R4        2.06526   0.00000  -0.00000  -0.00000  -0.00000   2.06525
    R5        3.51650   0.00001   0.00014  -0.00003   0.00011   3.51661
    R6        2.89390  -0.00000  -0.00002  -0.00002  -0.00004   2.89386
    R7        2.07174  -0.00000   0.00000  -0.00001  -0.00000   2.07174
    R8        2.55310   0.00000  -0.00001   0.00001   0.00000   2.55311
    R9        2.30851   0.00001   0.00002  -0.00000   0.00002   2.30853
   R10        2.59951  -0.00000   0.00000  -0.00002  -0.00002   2.59949
   R11        2.74158   0.00000   0.00005  -0.00001   0.00003   2.74162
   R12        1.91086   0.00000   0.00000   0.00000   0.00001   1.91086
   R13        2.90524   0.00000   0.00003  -0.00001   0.00003   2.90526
   R14        2.06809  -0.00000  -0.00002   0.00001  -0.00001   2.06808
   R15        2.06596   0.00000   0.00000  -0.00001  -0.00000   2.06596
   R16        2.27698   0.00001  -0.00000   0.00001   0.00001   2.27699
   R17        2.54903  -0.00000  -0.00003  -0.00000  -0.00003   2.54900
   R18        1.84591  -0.00000   0.00001  -0.00001  -0.00000   1.84591
    A1        1.92980   0.00000  -0.00001   0.00001   0.00001   1.92981
    A2        1.92122   0.00000  -0.00002   0.00002  -0.00000   1.92122
    A3        1.92518  -0.00000   0.00001  -0.00001   0.00000   1.92518
    A4        1.89895  -0.00000  -0.00001  -0.00001  -0.00002   1.89893
    A5        1.90870  -0.00000   0.00002  -0.00001   0.00001   1.90871
    A6        1.87907  -0.00000   0.00001  -0.00000   0.00001   1.87907
    A7        1.97498  -0.00000  -0.00001  -0.00001  -0.00002   1.97496
    A8        1.95601   0.00000   0.00001   0.00002   0.00003   1.95605
    A9        1.92754   0.00000   0.00001   0.00004   0.00004   1.92758
   A10        1.87124   0.00000  -0.00002  -0.00004  -0.00006   1.87118
   A11        1.79953  -0.00000  -0.00000  -0.00004  -0.00004   1.79949
   A12        1.92787  -0.00000   0.00001   0.00003   0.00004   1.92791
   A13        1.66679  -0.00001   0.00001  -0.00007  -0.00006   1.66673
   A14        2.13044   0.00000  -0.00004   0.00003  -0.00001   2.13042
   A15        2.00674   0.00000   0.00003  -0.00001   0.00002   2.00676
   A16        2.14413  -0.00000   0.00002  -0.00002  -0.00000   2.14413
   A17        2.13711   0.00000   0.00001   0.00001   0.00001   2.13712
   A18        2.07600  -0.00000   0.00004  -0.00002   0.00001   2.07601
   A19        2.06956  -0.00000  -0.00003   0.00003  -0.00001   2.06955
   A20        1.99670   0.00001  -0.00003   0.00009   0.00006   1.99676
   A21        1.86742  -0.00000   0.00000   0.00004   0.00004   1.86746
   A22        1.94575  -0.00001  -0.00002  -0.00007  -0.00009   1.94565
   A23        1.88569  -0.00000  -0.00001   0.00000  -0.00000   1.88568
   A24        1.87946  -0.00000   0.00002  -0.00005  -0.00003   1.87943
   A25        1.88523   0.00000   0.00005  -0.00001   0.00003   1.88526
   A26        2.12394  -0.00001  -0.00004  -0.00004  -0.00008   2.12386
   A27        2.02940   0.00001   0.00002   0.00005   0.00007   2.02947
   A28        2.12966  -0.00000   0.00002  -0.00001   0.00001   2.12967
   A29        1.91633   0.00000   0.00002   0.00001   0.00003   1.91636
    D1        0.95092  -0.00000  -0.00010   0.00003  -0.00007   0.95084
    D2        3.06946  -0.00000  -0.00013  -0.00001  -0.00014   3.06933
    D3       -1.05620   0.00000  -0.00009   0.00006  -0.00003  -1.05623
    D4        3.04957  -0.00000  -0.00013   0.00003  -0.00009   3.04948
    D5       -1.11507  -0.00000  -0.00015  -0.00001  -0.00016  -1.11523
    D6        1.04246   0.00000  -0.00012   0.00007  -0.00005   1.04241
    D7       -1.16252  -0.00000  -0.00012   0.00004  -0.00009  -1.16261
    D8        0.95603  -0.00000  -0.00015  -0.00000  -0.00015   0.95588
    D9        3.11355   0.00000  -0.00012   0.00007  -0.00005   3.11351
   D10        1.06355   0.00000   0.00043  -0.00036   0.00007   1.06362
   D11       -1.10209   0.00000   0.00043  -0.00035   0.00008  -1.10201
   D12       -3.13724   0.00000   0.00043  -0.00034   0.00008  -3.13716
   D13       -0.58665  -0.00000  -0.00007  -0.00010  -0.00018  -0.58682
   D14        2.61890  -0.00000  -0.00010  -0.00009  -0.00020   2.61870
   D15        1.59053  -0.00000  -0.00009  -0.00013  -0.00022   1.59030
   D16       -1.48711  -0.00000  -0.00012  -0.00012  -0.00024  -1.48736
   D17       -2.74399  -0.00000  -0.00010  -0.00019  -0.00028  -2.74427
   D18        0.46156  -0.00000  -0.00013  -0.00018  -0.00030   0.46125
   D19        3.02713   0.00000   0.00003  -0.00011  -0.00008   3.02705
   D20       -0.14942   0.00000   0.00011   0.00011   0.00022  -0.14920
   D21       -0.04995   0.00000   0.00000  -0.00011  -0.00010  -0.05005
   D22        3.05668   0.00000   0.00009   0.00012   0.00020   3.05688
   D23       -1.88556  -0.00000   0.00027   0.00018   0.00046  -1.88511
   D24        0.20225   0.00000   0.00025   0.00027   0.00052   0.20277
   D25        2.25989   0.00000   0.00029   0.00024   0.00053   2.26042
   D26        1.29087  -0.00000   0.00019  -0.00004   0.00015   1.29102
   D27       -2.90450   0.00000   0.00016   0.00005   0.00021  -2.90429
   D28       -0.84686  -0.00000   0.00021   0.00002   0.00022  -0.84664
   D29       -2.84629  -0.00000  -0.00038  -0.00019  -0.00057  -2.84686
   D30        0.31544   0.00000  -0.00042  -0.00015  -0.00057   0.31487
   D31        1.35934  -0.00000  -0.00035  -0.00030  -0.00065   1.35869
   D32       -1.76211  -0.00000  -0.00039  -0.00026  -0.00065  -1.76276
   D33       -0.67293  -0.00000  -0.00042  -0.00025  -0.00067  -0.67360
   D34        2.48880  -0.00000  -0.00045  -0.00021  -0.00067   2.48813
   D35       -0.02633   0.00000   0.00031  -0.00010   0.00022  -0.02611
   D36        3.13547   0.00000   0.00027  -0.00005   0.00022   3.13569
         Item               Value     Threshold  Converged?
 Maximum Force            0.000010     0.000450     YES
 RMS     Force            0.000003     0.000300     YES
 Maximum Displacement     0.001400     0.001800     YES
 RMS     Displacement     0.000259     0.001200     YES
 Predicted change in Energy=-7.452205D-09
 Optimization completed.
    -- Stationary point found.
                           ----------------------------
                           !   Optimized Parameters   !
                           ! (Angstroms and Degrees)  !
 --------------------------                            --------------------------
 ! Name  Definition              Value          Derivative Info.                !
 --------------------------------------------------------------------------------
 ! R1    R(1,2)                  1.5253         -DE/DX =    0.0                 !
 ! R2    R(1,11)                 1.0928         -DE/DX =    0.0                 !
 ! R3    R(1,12)                 1.0964         -DE/DX =    0.0                 !
 ! R4    R(1,13)                 1.0929         -DE/DX =    0.0                 !
 ! R5    R(2,3)                  1.8609         -DE/DX =    0.0                 !
 ! R6    R(2,4)                  1.5314         -DE/DX =    0.0                 !
 ! R7    R(2,14)                 1.0963         -DE/DX =    0.0                 !
 ! R8    R(3,15)                 1.351          -DE/DX =    0.0                 !
 ! R9    R(4,5)                  1.2216         -DE/DX =    0.0                 !
 ! R10   R(4,6)                  1.3756         -DE/DX =    0.0                 !
 ! R11   R(6,7)                  1.4508         -DE/DX =    0.0                 !
 ! R12   R(6,16)                 1.0112         -DE/DX =    0.0                 !
 ! R13   R(7,8)                  1.5374         -DE/DX =    0.0                 !
 ! R14   R(7,17)                 1.0944         -DE/DX =    0.0                 !
 ! R15   R(7,18)                 1.0933         -DE/DX =    0.0                 !
 ! R16   R(8,9)                  1.2049         -DE/DX =    0.0                 !
 ! R17   R(8,10)                 1.3489         -DE/DX =    0.0                 !
 ! R18   R(10,19)                0.9768         -DE/DX =    0.0                 !
 ! A1    A(2,1,11)             110.5696         -DE/DX =    0.0                 !
 ! A2    A(2,1,12)             110.0779         -DE/DX =    0.0                 !
 ! A3    A(2,1,13)             110.3045         -DE/DX =    0.0                 !
 ! A4    A(11,1,12)            108.8019         -DE/DX =    0.0                 !
 ! A5    A(11,1,13)            109.3607         -DE/DX =    0.0                 !
 ! A6    A(12,1,13)            107.6627         -DE/DX =    0.0                 !
 ! A7    A(1,2,3)              113.1582         -DE/DX =    0.0                 !
 ! A8    A(1,2,4)              112.0712         -DE/DX =    0.0                 !
 ! A9    A(1,2,14)             110.44           -DE/DX =    0.0                 !
 ! A10   A(3,2,4)              107.2142         -DE/DX =    0.0                 !
 ! A11   A(3,2,14)             103.1056         -DE/DX =    0.0                 !
 ! A12   A(4,2,14)             110.4591         -DE/DX =    0.0                 !
 ! A13   A(2,3,15)              95.5003         -DE/DX =    0.0                 !
 ! A14   A(2,4,5)              122.065          -DE/DX =    0.0                 !
 ! A15   A(2,4,6)              114.978          -DE/DX =    0.0                 !
 ! A16   A(5,4,6)              122.8499         -DE/DX =    0.0                 !
 ! A17   A(4,6,7)              122.4473         -DE/DX =    0.0                 !
 ! A18   A(4,6,16)             118.9461         -DE/DX =    0.0                 !
 ! A19   A(7,6,16)             118.5772         -DE/DX =    0.0                 !
 ! A20   A(6,7,8)              114.4026         -DE/DX =    0.0                 !
 ! A21   A(6,7,17)             106.9956         -DE/DX =    0.0                 !
 ! A22   A(6,7,18)             111.4831         -DE/DX =    0.0                 !
 ! A23   A(8,7,17)             108.0419         -DE/DX =    0.0                 !
 ! A24   A(8,7,18)             107.6853         -DE/DX =    0.0                 !
 ! A25   A(17,7,18)            108.0157         -DE/DX =    0.0                 !
 ! A26   A(7,8,9)              121.6928         -DE/DX =    0.0                 !
 ! A27   A(7,8,10)             116.2762         -DE/DX =    0.0                 !
 ! A28   A(9,8,10)             122.0206         -DE/DX =    0.0                 !
 ! A29   A(8,10,19)            109.7975         -DE/DX =    0.0                 !
 ! D1    D(11,1,2,3)            54.4835         -DE/DX =    0.0                 !
 ! D2    D(11,1,2,4)           175.8674         -DE/DX =    0.0                 !
 ! D3    D(11,1,2,14)          -60.5156         -DE/DX =    0.0                 !
 ! D4    D(12,1,2,3)           174.7275         -DE/DX =    0.0                 !
 ! D5    D(12,1,2,4)           -63.8886         -DE/DX =    0.0                 !
 ! D6    D(12,1,2,14)           59.7284         -DE/DX =    0.0                 !
 ! D7    D(13,1,2,3)           -66.6075         -DE/DX =    0.0                 !
 ! D8    D(13,1,2,4)            54.7764         -DE/DX =    0.0                 !
 ! D9    D(13,1,2,14)          178.3934         -DE/DX =    0.0                 !
 ! D10   D(1,2,3,15)            60.9368         -DE/DX =    0.0                 !
 ! D11   D(4,2,3,15)           -63.1451         -DE/DX =    0.0                 !
 ! D12   D(14,2,3,15)         -179.7507         -DE/DX =    0.0                 !
 ! D13   D(1,2,4,5)            -33.6124         -DE/DX =    0.0                 !
 ! D14   D(1,2,4,6)            150.0518         -DE/DX =    0.0                 !
 ! D15   D(3,2,4,5)             91.1305         -DE/DX =    0.0                 !
 ! D16   D(3,2,4,6)            -85.2053         -DE/DX =    0.0                 !
 ! D17   D(14,2,4,5)          -157.2188         -DE/DX =    0.0                 !
 ! D18   D(14,2,4,6)            26.4454         -DE/DX =    0.0                 !
 ! D19   D(2,4,6,7)            173.4419         -DE/DX =    0.0                 !
 ! D20   D(2,4,6,16)            -8.5613         -DE/DX =    0.0                 !
 ! D21   D(5,4,6,7)             -2.8618         -DE/DX =    0.0                 !
 ! D22   D(5,4,6,16)           175.1349         -DE/DX =    0.0                 !
 ! D23   D(4,6,7,8)           -108.0348         -DE/DX =    0.0                 !
 ! D24   D(4,6,7,17)            11.5881         -DE/DX =    0.0                 !
 ! D25   D(4,6,7,18)           129.4823         -DE/DX =    0.0                 !
 ! D26   D(16,6,7,8)            73.9614         -DE/DX =    0.0                 !
 ! D27   D(16,6,7,17)         -166.4158         -DE/DX =    0.0                 !
 ! D28   D(16,6,7,18)          -48.5216         -DE/DX =    0.0                 !
 ! D29   D(6,7,8,9)           -163.0806         -DE/DX =    0.0                 !
 ! D30   D(6,7,8,10)            18.0733         -DE/DX =    0.0                 !
 ! D31   D(17,7,8,9)            77.8844         -DE/DX =    0.0                 !
 ! D32   D(17,7,8,10)         -100.9617         -DE/DX =    0.0                 !
 ! D33   D(18,7,8,9)           -38.5561         -DE/DX =    0.0                 !
 ! D34   D(18,7,8,10)          142.5979         -DE/DX =    0.0                 !
 ! D35   D(7,8,10,19)           -1.5086         -DE/DX =    0.0                 !
 ! D36   D(9,8,10,19)          179.6494         -DE/DX =    0.0                 !
 --------------------------------------------------------------------------------
 Lowest energy point so far.  Saving SCF results.
 Largest change from initial coordinates is atom   15       1.551 Angstoms.
 GradGradGradGradGradGradGradGradGradGradGradGradGradGradGradGradGradGrad

 Leave Link  103 at Fri Mar 14 15:16:16 2025, MaxMem=  8589934592 cpu:               0.7 elap:               0.2
 (Enter /home/enzo/gaussian_versions/gdv.j21/gdv/l202.exe)
                          Input orientation:                          
 ---------------------------------------------------------------------
 Center     Atomic      Atomic             Coordinates (Angstroms)
 Number     Number       Type             X           Y           Z
 ---------------------------------------------------------------------
      1          6           0        2.835806    1.263846   -0.727537
      2          6           0        1.633484    0.352067   -0.950242
      3         16           0        1.984694   -1.431967   -0.554463
      4          6           0        0.427014    0.774369   -0.106894
      5          8           0        0.552693    1.266158    1.004266
      6          7           0       -0.798575    0.485669   -0.660847
      7          6           0       -2.043660    0.686612    0.056201
      8          6           0       -2.734237   -0.611245    0.505898
      9          8           0       -3.893052   -0.630306    0.835484
     10          8           0       -1.964568   -1.718654    0.533262
     11          1           0        3.702835    0.898659   -1.283560
     12          1           0        2.603754    2.281518   -1.063231
     13          1           0        3.082181    1.313602    0.336053
     14          1           0        1.366692    0.323023   -2.013204
     15          1           0        2.280442   -1.220166    0.746688
     16          1           0       -0.837942    0.148626   -1.613391
     17          1           0       -1.807118    1.271982    0.950110
     18          1           0       -2.761867    1.255515   -0.540245
     19          1           0       -1.062729   -1.502426    0.226512
 ---------------------------------------------------------------------
                    Distance matrix (angstroms):
                    1          2          3          4          5
     1  C    0.000000
     2  C    1.525292   0.000000
     3  S    2.832271   1.860851   0.000000
     4  C    2.535166   1.531387   2.737627   0.000000
     5  O    2.865616   2.413250   3.429307   1.221610   0.000000
     6  N    3.717355   2.452858   3.381602   1.375601   2.282036
     7  C    4.975604   3.827040   4.592268   2.477606   2.824138
     8  C    6.005223   4.703754   4.905737   3.505559   3.817974
     9  O    7.162987   5.890371   6.092824   4.639413   4.836291
    10  O    5.790381   4.408475   4.106337   3.513492   3.932881
    11  H    1.092822   2.166120   2.985868   3.482957   3.910574
    12  H    1.096446   2.162631   3.798954   2.815009   3.084210
    13  H    1.092886   2.162828   3.087985   2.745339   2.616690
    14  H    2.167114   1.096317   2.364285   2.172723   3.264541
    15  H    2.941443   2.402091   1.351045   2.853413   3.038630
    16  H    3.940162   2.566925   3.403950   2.064267   3.167787
    17  H    4.936731   4.036747   4.894172   2.521155   2.360440
    18  H    5.600812   4.505933   5.454595   3.253960   3.656767
    19  H    4.874530   3.477565   3.146692   2.741220   3.298416
                    6          7          8          9         10
     6  N    0.000000
     7  C    1.450784   0.000000
     8  C    2.512230   1.537385   0.000000
     9  O    3.613889   2.400376   1.204925   0.000000
    10  O    2.764865   2.453395   1.348886   2.234925   0.000000
    11  H    4.563005   5.904416   6.849661   8.032781   6.501586
    12  H    3.868181   5.039376   6.270916   7.368333   6.278514
    13  H    4.091399   5.171622   6.128996   7.258242   5.890937
    14  H    2.558066   4.005638   4.902687   6.057125   4.663714
    15  H    3.790959   4.776027   5.057249   6.202245   4.279504
    16  H    1.011182   2.128550   2.943590   3.992171   3.060089
    17  H    2.056849   1.094388   2.145557   2.825413   3.023649
    18  H    2.112280   1.093262   2.140086   2.593941   3.260948
    19  H    2.193104   2.404811   1.914732   3.023602   0.976813
                   11         12         13         14         15
    11  H    0.000000
    12  H    1.780118   0.000000
    13  H    1.783405   1.767413   0.000000
    14  H    2.514219   2.503692   3.072972   0.000000
    15  H    3.261062   3.955013   2.689124   3.291409   0.000000
    16  H    4.614107   4.086217   4.530437   2.247370   4.143414
    17  H    5.957200   4.952626   4.927884   4.444640   4.791694
    18  H    6.517073   5.487813   5.909668   4.481535   5.762818
    19  H    5.545820   5.424460   5.012214   3.775007   3.395150
                   16         17         18         19
    16  H    0.000000
    17  H    2.961886   0.000000
    18  H    2.465428   1.770022   0.000000
    19  H    2.482287   2.962271   3.328848   0.000000
 Stoichiometry    C5H9NO3S
 Framework group  C1[X(C5H9NO3S)]
 Deg. of freedom    51
 Full point group                 C1      NOp   1
 RotChk:  IX=0 Diff= 6.80D-16
 Largest Abelian subgroup         C1      NOp   1
 Largest concise Abelian subgroup C1      NOp   1
                         Standard orientation:                         
 ---------------------------------------------------------------------
 Center     Atomic      Atomic             Coordinates (Angstroms)
 Number     Number       Type             X           Y           Z
 ---------------------------------------------------------------------
      1          6           0       -3.154347   -0.992480   -0.051841
      2          6           0       -1.925126   -0.208023   -0.499233
      3         16           0       -1.969502    1.579115    0.017423
      4          6           0       -0.628105   -0.807107    0.052112
      5          8           0       -0.576042   -1.342987    1.148675
      6          7           0        0.479704   -0.625119   -0.742821
      7          6           0        1.814218   -1.001786   -0.316246
      8          6           0        2.733950    0.184918    0.014485
      9          8           0        3.929867    0.057617    0.088105
     10          8           0        2.125297    1.367272    0.240478
     11          1           0       -4.068576   -0.503502   -0.397307
     12          1           0       -3.121300   -2.009315   -0.460678
     13          1           0       -3.176481   -1.073750    1.037794
     14          1           0       -1.885525   -0.149595   -1.593275
     15          1           0       -2.009153    1.329294    1.344577
     16          1           0        0.358603   -0.242085   -1.670780
     17          1           0        1.701965   -1.606223    0.589149
     18          1           0        2.318106   -1.612465   -1.070161
     19          1           0        1.159949    1.269284    0.127929
 ---------------------------------------------------------------------
 Rotational constants (GHZ):           2.1511174           0.5962875           0.5084008
 Leave Link  202 at Fri Mar 14 15:16:17 2025, MaxMem=  8589934592 cpu:               0.3 elap:               0.3
 (Enter /home/enzo/gaussian_versions/gdv.j21/gdv/l601.exe)
 Copying SCF densities to generalized density rwf, IOpCl= 0 IROHF=0.

 **********************************************************************

            Population analysis using the SCF Density.

 **********************************************************************

 Orbital symmetries:
       Occupied  (A) (A) (A) (A) (A) (A) (A) (A) (A) (A) (A) (A)
                 (A) (A) (A) (A) (A) (A) (A) (A) (A) (A) (A) (A)
                 (A) (A) (A) (A) (A) (A) (A) (A) (A) (A) (A) (A)
                 (A) (A) (A) (A) (A) (A) (A)
       Virtual   (A) (A) (A) (A) (A) (A) (A) (A) (A) (A) (A) (A)
                 (A) (A) (A) (A) (A) (A) (A) (A) (A) (A) (A) (A)
                 (A) (A) (A) (A) (A) (A) (A) (A) (A) (A) (A) (A)
                 (A) (A) (A) (A) (A) (A) (A) (A) (A) (A) (A) (A)
                 (A) (A) (A) (A) (A) (A) (A) (A) (A) (A) (A) (A)
                 (A) (A) (A) (A) (A) (A) (A) (A) (A) (A) (A) (A)
                 (A) (A) (A) (A) (A) (A) (A) (A) (A) (A) (A) (A)
                 (A) (A) (A) (A) (A) (A) (A) (A) (A) (A) (A) (A)
                 (A) (A) (A) (A) (A) (A) (A) (A) (A) (A) (A) (A)
                 (A) (A) (A) (A) (A) (A) (A) (A) (A) (A) (A) (A)
                 (A) (A) (A) (A) (A) (A) (A) (A) (A)
 The electronic state is 1-A.
 Alpha  occ. eigenvalues --      -88.90274     -19.19649     -19.14460     -19.13488     -14.39645
 Alpha  occ. eigenvalues --      -10.32303     -10.31937     -10.26070     -10.25183     -10.20299
 Alpha  occ. eigenvalues --       -7.96588      -5.93077      -5.92724      -5.92033      -1.10238
 Alpha  occ. eigenvalues --       -1.06480      -1.02027      -0.95400      -0.83817      -0.75655
 Alpha  occ. eigenvalues --       -0.72993      -0.65832      -0.61575      -0.61171      -0.55645
 Alpha  occ. eigenvalues --       -0.52994      -0.51109      -0.47144      -0.46310      -0.44517
 Alpha  occ. eigenvalues --       -0.44035      -0.43387      -0.41895      -0.40262      -0.39381
 Alpha  occ. eigenvalues --       -0.38346      -0.38177      -0.35016      -0.31514      -0.30572
 Alpha  occ. eigenvalues --       -0.28900      -0.26819      -0.26002
 Alpha virt. eigenvalues --       -0.02929       0.00774       0.01625       0.04434       0.06059
 Alpha virt. eigenvalues --        0.08099       0.10126       0.11980       0.13595       0.14524
 Alpha virt. eigenvalues --        0.15969       0.16249       0.17655       0.20016       0.20675
 Alpha virt. eigenvalues --        0.23894       0.28497       0.31419       0.32668       0.34103
 Alpha virt. eigenvalues --        0.36366       0.37039       0.38007       0.43611       0.48708
 Alpha virt. eigenvalues --        0.50503       0.52025       0.53542       0.54163       0.55804
 Alpha virt. eigenvalues --        0.56920       0.58289       0.59704       0.63863       0.64976
 Alpha virt. eigenvalues --        0.66524       0.68998       0.70026       0.71367       0.73702
 Alpha virt. eigenvalues --        0.75725       0.76988       0.79686       0.80884       0.81877
 Alpha virt. eigenvalues --        0.83289       0.84571       0.85256       0.85492       0.86937
 Alpha virt. eigenvalues --        0.87863       0.89597       0.91002       0.92270       0.93123
 Alpha virt. eigenvalues --        0.95004       1.00458       1.03425       1.04810       1.05521
 Alpha virt. eigenvalues --        1.09162       1.09743       1.11510       1.12954       1.14516
 Alpha virt. eigenvalues --        1.18776       1.25227       1.30673       1.33083       1.36996
 Alpha virt. eigenvalues --        1.40786       1.41913       1.43590       1.49889       1.52394
 Alpha virt. eigenvalues --        1.53673       1.58987       1.62923       1.70960       1.72247
 Alpha virt. eigenvalues --        1.75193       1.75798       1.77436       1.78581       1.79364
 Alpha virt. eigenvalues --        1.81921       1.83499       1.87190       1.89808       1.92081
 Alpha virt. eigenvalues --        1.93781       1.94701       1.98866       1.99597       2.04918
 Alpha virt. eigenvalues --        2.07069       2.11578       2.18713       2.21184       2.25784
 Alpha virt. eigenvalues --        2.28214       2.30072       2.35292       2.35808       2.40511
 Alpha virt. eigenvalues --        2.44412       2.46627       2.51263       2.57630       2.63235
 Alpha virt. eigenvalues --        2.67086       2.70365       2.71356       2.81297       2.88384
 Alpha virt. eigenvalues --        2.95976       2.99334       3.07694       3.11241       3.83439
 Alpha virt. eigenvalues --        3.88407       4.00846       4.10556       4.11994       4.17133
 Alpha virt. eigenvalues --        4.21455       4.35796       4.49743       4.52653
          Condensed to atoms (all electrons):
               1          2          3          4          5          6
     1  C    5.103594   0.327269  -0.051046  -0.035284   0.001269   0.003534
     2  C    0.327269   5.438156   0.253118   0.293753  -0.089370  -0.120477
     3  S   -0.051046   0.253118  15.689532  -0.041107  -0.006014  -0.000550
     4  C   -0.035284   0.293753  -0.041107   4.406744   0.592789   0.243619
     5  O    0.001269  -0.089370  -0.006014   0.592789   8.053477  -0.096306
     6  N    0.003534  -0.120477  -0.000550   0.243619  -0.096306   7.211947
     7  C   -0.000173   0.005849  -0.000872  -0.018136  -0.003063   0.165266
     8  C   -0.000001  -0.000145   0.000183  -0.000865  -0.000289  -0.032560
     9  O   -0.000000   0.000001  -0.000003  -0.000010  -0.000001   0.002415
    10  O   -0.000001  -0.000105  -0.001504   0.001940  -0.000043  -0.002486
    11  H    0.373077  -0.032869  -0.000020   0.004562   0.000322  -0.000064
    12  H    0.364688  -0.027844   0.005482  -0.002201   0.000092   0.000050
    13  H    0.382288  -0.038087  -0.005107  -0.004917   0.009107   0.000452
    14  H   -0.033717   0.352680  -0.043352  -0.036370   0.002639   0.004876
    15  H   -0.004416  -0.018401   0.258919  -0.003805   0.002854   0.000246
    16  H   -0.000032   0.002255   0.000959  -0.018909   0.003161   0.302441
    17  H   -0.000006   0.001238  -0.000112  -0.000794   0.020619  -0.040150
    18  H    0.000005  -0.000093  -0.000023   0.002405   0.000424  -0.034305
    19  H    0.000052  -0.000910   0.013024   0.001418  -0.000607   0.019936
               7          8          9         10         11         12
     1  C   -0.000173  -0.000001  -0.000000  -0.000001   0.373077   0.364688
     2  C    0.005849  -0.000145   0.000001  -0.000105  -0.032869  -0.027844
     3  S   -0.000872   0.000183  -0.000003  -0.001504  -0.000020   0.005482
     4  C   -0.018136  -0.000865  -0.000010   0.001940   0.004562  -0.002201
     5  O   -0.003063  -0.000289  -0.000001  -0.000043   0.000322   0.000092
     6  N    0.165266  -0.032560   0.002415  -0.002486  -0.000064   0.000050
     7  C    5.306417   0.300613  -0.083938  -0.105703   0.000001  -0.000006
     8  C    0.300613   4.332508   0.589339   0.291558   0.000000   0.000000
     9  O   -0.083938   0.589339   7.994085  -0.070543   0.000000  -0.000000
    10  O   -0.105703   0.291558  -0.070543   8.237394   0.000000   0.000000
    11  H    0.000001   0.000000   0.000000   0.000000   0.544531  -0.028585
    12  H   -0.000006   0.000000  -0.000000   0.000000  -0.028585   0.553394
    13  H    0.000000  -0.000000   0.000000  -0.000000  -0.026438  -0.025628
    14  H   -0.000036  -0.000003   0.000000   0.000003  -0.002431  -0.003107
    15  H   -0.000002   0.000005   0.000000  -0.000013  -0.000425   0.000031
    16  H   -0.029742   0.000283  -0.000017   0.000729  -0.000014  -0.000034
    17  H    0.357814  -0.022416   0.000472   0.000652   0.000000  -0.000001
    18  H    0.357758  -0.029174   0.004117   0.002634  -0.000000  -0.000000
    19  H   -0.005951  -0.014856   0.004034   0.212943  -0.000000  -0.000002
              13         14         15         16         17         18
     1  C    0.382288  -0.033717  -0.004416  -0.000032  -0.000006   0.000005
     2  C   -0.038087   0.352680  -0.018401   0.002255   0.001238  -0.000093
     3  S   -0.005107  -0.043352   0.258919   0.000959  -0.000112  -0.000023
     4  C   -0.004917  -0.036370  -0.003805  -0.018909  -0.000794   0.002405
     5  O    0.009107   0.002639   0.002854   0.003161   0.020619   0.000424
     6  N    0.000452   0.004876   0.000246   0.302441  -0.040150  -0.034305
     7  C    0.000000  -0.000036  -0.000002  -0.029742   0.357814   0.357758
     8  C   -0.000000  -0.000003   0.000005   0.000283  -0.022416  -0.029174
     9  O    0.000000   0.000000   0.000000  -0.000017   0.000472   0.004117
    10  O   -0.000000   0.000003  -0.000013   0.000729   0.000652   0.002634
    11  H   -0.026438  -0.002431  -0.000425  -0.000014   0.000000  -0.000000
    12  H   -0.025628  -0.003107   0.000031  -0.000034  -0.000001  -0.000000
    13  H    0.515871   0.004718   0.003990  -0.000006  -0.000009  -0.000000
    14  H    0.004718   0.570259   0.003644   0.003447  -0.000054  -0.000015
    15  H    0.003990   0.003644   0.630650  -0.000014  -0.000011  -0.000000
    16  H   -0.000006   0.003447  -0.000014   0.394195   0.004034  -0.002195
    17  H   -0.000009  -0.000054  -0.000011   0.004034   0.462069  -0.017686
    18  H   -0.000000  -0.000015  -0.000000  -0.002195  -0.017686   0.521159
    19  H    0.000001   0.000010  -0.000284   0.000236   0.000208   0.000503
              19
     1  C    0.000052
     2  C   -0.000910
     3  S    0.013024
     4  C    0.001418
     5  O   -0.000607
     6  N    0.019936
     7  C   -0.005951
     8  C   -0.014856
     9  O    0.004034
    10  O    0.212943
    11  H   -0.000000
    12  H   -0.000002
    13  H    0.000001
    14  H    0.000010
    15  H   -0.000284
    16  H    0.000236
    17  H    0.000208
    18  H    0.000503
    19  H    0.337622
 Mulliken charges:
               1
     1  C   -0.431100
     2  C   -0.346018
     3  S   -0.071506
     4  C    0.615168
     5  O   -0.491061
     6  N   -0.627886
     7  C   -0.246099
     8  C    0.585818
     9  O   -0.439952
    10  O   -0.567455
    11  H    0.168352
    12  H    0.163670
    13  H    0.183766
    14  H    0.176806
    15  H    0.127032
    16  H    0.339224
    17  H    0.234132
    18  H    0.194485
    19  H    0.432624
 Sum of Mulliken charges =  -0.00000
 Mulliken charges with hydrogens summed into heavy atoms:
               1
     1  C    0.084689
     2  C   -0.169212
     3  S    0.055525
     4  C    0.615168
     5  O   -0.491061
     6  N   -0.288662
     7  C    0.182518
     8  C    0.585818
     9  O   -0.439952
    10  O   -0.134831
 Electronic spatial extent (au):  <R**2>=           2153.2247
 Charge=              0.0000 electrons
 Dipole moment (field-independent basis, Debye):
    X=             -4.2201    Y=             -1.1981    Z=             -2.9953  Tot=              5.3119
 Quadrupole moment (field-independent basis, Debye-Ang):
   XX=            -82.8907   YY=            -69.9994   ZZ=            -61.9431
   XY=             -2.8395   XZ=             -2.0738   YZ=              4.2081
 Traceless Quadrupole moment (field-independent basis, Debye-Ang):
   XX=            -11.2796   YY=              1.6117   ZZ=              9.6679
   XY=             -2.8395   XZ=             -2.0738   YZ=              4.2081
 Octapole moment (field-independent basis, Debye-Ang**2):
  XXX=            -75.2325  YYY=             -5.4450  ZZZ=             -5.2326  XYY=              7.8061
  XXY=            -22.0571  XXZ=             -2.4174  XZZ=              5.4960  YZZ=              5.4365
  YYZ=             -0.4237  XYZ=             -6.4622
 Hexadecapole moment (field-independent basis, Debye-Ang**3):
 XXXX=          -2390.9076 YYYY=           -537.3678 ZZZZ=           -160.9211 XXXY=             13.9095
 XXXZ=            -22.4058 YYYX=              3.6265 YYYZ=             10.2891 ZZZX=             -4.9260
 ZZZY=              4.4632 XXYY=           -441.1099 XXZZ=           -345.6968 YYZZ=           -117.8618
 XXYZ=              5.4900 YYXZ=             -6.6587 ZZXY=             -6.7164
 N-N= 6.258930109220D+02 E-N=-3.310836564137D+03  KE= 8.690140290528D+02
 No NMR shielding tensors so no spin-rotation constants.
 Leave Link  601 at Fri Mar 14 15:16:17 2025, MaxMem=  8589934592 cpu:               2.5 elap:               0.5
 (Enter /home/enzo/gaussian_versions/gdv.j21/gdv/l9999.exe)
 Unable to Open any file for archive entry.
 1\1\GINC-ORACLE\FOpt\RB3LYP\6-31G(d)\C5H9N1O3S1\ENZO\14-Mar-2025\0\\#p
  B3LYP/6-31G* OPT OUTPUT=PICKETT\\individuo_3673\\0,1\C,2.8358060994,1
 .2638459064,-0.7275374076\C,1.6334843747,0.3520667295,-0.9502416502\S,
 1.9846938036,-1.4319674251,-0.5544631961\C,0.4270138011,0.7743687556,-
 0.1068942511\O,0.5526933464,1.2661584202,1.0042662248\N,-0.7985746093,
 0.4856689159,-0.6608465974\C,-2.0436600471,0.6866115534,0.0562009378\C
 ,-2.7342366764,-0.6112446702,0.505897535\O,-3.8930517969,-0.6303058908
 ,0.8354842483\O,-1.9645683447,-1.7186538963,0.5332623783\H,3.702834508
 6,0.8986590172,-1.2835597102\H,2.603754146,2.2815178004,-1.0632312624\
 H,3.0821806117,1.3136022336,0.3360526577\H,1.3666920456,0.3230227384,-
 2.0132040313\H,2.2804419112,-1.2201659134,0.7466881629\H,-0.8379416273
 ,0.148626181,-1.6133914771\H,-1.8071181477,1.2719817211,0.950110177\H,
 -2.7618674864,1.255514894,-0.5402450988\H,-1.0627289125,-1.5024260708,
 0.2265123606\\Version=ES64L-GDVRevJ.21\State=1-A\HF=-874.5809633\RMSD=
 6.050e-09\RMSF=5.494e-06\Dipole=1.3062752,0.702706,-1.4721808\Quadrupo
 le=-6.3092063,0.7450317,5.5641745,-3.8411613,4.732793,-2.3499267\PG=C0
 1 [X(C5H9N1O3S1)]\\@
 The archive entry for this job was punched.
 DoSRE=F DoSRN=F DoDH=F DoFC=F DoNQ=T DoQCD=F DoSCD=F
 Inertia tensor (amu-bohr**2): 
                 1             2             3 
      1   0.990418D+03 -0.245268D+03  0.562470D+03
      2  -0.245268D+03  0.300039D+04  0.250034D+02
      3   0.562470D+03  0.250034D+02  0.342464D+04
 Principal inertia moments (amu-bohr**2):
 Iaa = 0.838978D+03 Ibb= 0.302663D+04 Icc= 0.354984D+04
 Rotation matrix to Principal Axis frame: 
                 1             2             3 
      1   0.970706D+00 -0.983411D-01  0.219225D+00
      2   0.112607D+00  0.992197D+00 -0.535270D-01
      3  -0.212251D+00  0.766453D-01  0.974205D+00
                Principal axis orientation:                
 ---------------------------------------------------------------------
 Center     Atomic                     Coordinates (Angstroms)
 Number     Number                        X           Y           Z
 ---------------------------------------------------------------------
      1          6                    3.200329    1.041614   -0.081226
      2          6                    1.977825    0.238118   -0.512960
      3         16                    2.033847   -1.536199    0.045098
      4          6                    0.675250    0.840409    0.021540
      5          8                    0.616782    1.401167    1.105266
      6          7                   -0.429368    0.632030   -0.771350
      7          6                   -1.767546    1.008806   -0.356509
      8          6                   -2.679488   -0.176543   -0.000334
      9          8                   -3.876458   -0.056236    0.067730
     10          8                   -2.062877   -1.348904    0.254332
     11          1                    4.118852    0.551396   -0.413283
     12          1                    3.160923    2.048436   -0.513605
     13          1                    3.219341    1.148273    1.006277
     14          1                    1.941192    0.154067   -1.605436
     15          1                    2.068611   -1.255407    1.366184
     16          1                   -0.303357    0.228481   -1.689913
     17          1                   -1.661749    1.634861    0.534865
     18          1                   -2.274055    1.598185   -1.125470
     19          1                   -1.098000   -1.246562    0.141627
 ---------------------------------------------------------------------
 Rotational constants (MHZ):
   2151.1173747    596.2875096    508.4008234
 Nuclear quadrupole coupling constants [Chi] (MHz):
  6  N(14) 
   aa=     2.2103   ba=    -0.7389   ca=     0.2672
   ab=    -0.7389   bb=    -3.3763   cb=     2.3373
   ac=     0.2672   bc=     2.3373   cc=     1.1660
 Dipole moment (Debye):
      4.2183071      1.1588493     -3.0131154  Tot=      5.3118651

 Atoms with significant hyperfine tensors:  N6-14

--------------------------------------------------------------------------------
 individuo_3673                                          
   99  1000  50  0.1760E-11  0.1000E+07  0.1000E+01 1.0000000000
a 3  1  0  0  0  1  1   1  0  1  0
     10000   0.21511174E+04    0.0000E+00   /  A  /
     20000   0.59628751E+03    0.0000E+00   /  B  /
     30000   0.50840082E+03    0.0000E+00   /  C  /
 110010000   0.33154490E+01    0.0000E+00   /  (6 N-14) 3/2*Chi_aa             /
 110040000  -0.11355762E+01    0.0000E+00   /  (6 N-14) 1/4*(Chi_bb-Chi_cc)    /
 110610000  -0.73887710E+00    0.0000E+00   /  (6 N-14) Chi_ab                 /
 110410000   0.26716184E+00    0.0000E+00   /  (6 N-14) Chi_ac                 /
 110210000   0.23372623E+01    0.0000E+00   /  (6 N-14) Chi_bc                 /
--------------------------------------------------------------------------------



 MODELS ARE TO BE USED, NOT BELIEVED.

    -- PARAPHRASED BY H. THIEL IN "PRINCIPLES OF ECONOMETRICS"
 Job cpu time:       0 days  0 hours 33 minutes  0.5 seconds.
 Elapsed time:       0 days  0 hours  4 minutes 57.0 seconds.
 File lengths (MBytes):  RWF=     26 Int=      0 D2E=      0 Chk=      4 Scr=      1
 Normal termination of Gaussian DV at Fri Mar 14 15:16:17 2025.
