%Nprocshared=8
%Mem=48GB
%chk=prova.chk
#P geom=readallgic OPT Output=Pickett

benzylpenicillin                                                                

  0  1
  6    4.561614   -0.269234   -0.528549
  6    3.367560    0.366347    0.212679
  6    2.967992   -0.405742    1.511799
  7    1.899860   -1.282413    1.100811
  6    1.374931   -1.297608   -0.229944
 16    1.909786    0.302634   -0.932274
  6    0.006771   -1.454885    0.213624
  6    0.533366   -1.533060    1.613104
  8    0.021284   -1.677446    2.753645
  7   -0.835861   -0.273655    0.011694
  6   -1.481655   -0.016835   -1.242491
  8   -1.341873   -0.818254   -2.206124
  6   -2.360657    1.184972   -1.403016
  6   -3.747082    0.879524   -0.908330
  6   -4.087758    1.108002    0.435887
  6   -5.367680    0.791026    0.901564
  6   -6.312366    0.238069    0.032582
  6   -5.977341   -0.003267   -1.302877
  6   -4.698154    0.311088   -1.772462
  6    4.078610   -1.176471    2.172191
  8    4.283373   -2.385944    1.879960
  8    4.913633   -0.532992    3.079982
  6    3.685177    1.835334    0.529259
  1    4.361757   -1.340499   -0.743752
  1    4.737538    0.249934   -1.495300
  1    5.491330   -0.191437    0.074860
  1    2.550309    0.300484    2.263412
  1    1.760720   -2.171925   -0.799713
  1   -0.480662   -2.402082   -0.105480
  1   -1.015703    0.376334    0.810755
  1   -1.928625    2.040316   -0.839403
  1   -2.393013    1.487655   -2.472648
  1   -3.363134    1.529010    1.121985
  1   -5.626301    0.971717    1.937074
  1   -7.302253   -0.007385    0.394786
  1   -6.707777   -0.437047   -1.973294
  1   -4.448296    0.110520   -2.806929
  1    5.679043   -1.027382    3.522454
  1    4.538320    1.902767    1.238304
  1    2.803598    2.333779    0.986629
  1    3.949618    2.386049   -0.399295
 
 Stre0001(Frozen,Value= 1.54245) = R(  1,  2)
 Stre0002(Frozen,Value= 1.11079) = R(  1, 24)
 Stre0003(Frozen,Value= 1.11135) = R(  1, 25)
 Stre0004(Frozen,Value= 1.11109) = R(  1, 26)
 Stre0005(Frozen,Value= 1.56317) = R(  2,  3)
 Stre0006(Frozen,Value= 1.85475) = R(  2,  6)
 Stre0007(Frozen,Value= 1.53591) = R(  2, 23)
 Stre0008(Frozen,Value= 1.44166) = R(  3,  4)
 Stre0009(Frozen,Value= 1.50453) = R(  3, 20)
 Stre0010(Frozen,Value= 1.11272) = R(  3, 27)
 Stre0011(Frozen,Value= 1.43063) = R(  4,  5)
 Stre0012(Frozen,Value= 1.48073) = R(  4,  8)
 Stre0013(Frozen,Value= 1.82760) = R(  5,  6)
 Stre0014(Frozen,Value= 1.44684) = R(  5,  7)
 Stre0015(Frozen,Value= 1.11261) = R(  5, 28)
 Stre0016(Frozen,Value= 1.49732) = R(  7,  8)
 Stre0017(Frozen,Value= 1.46496) = R(  7, 10)
 Stre0018(Frozen,Value= 1.11203) = R(  7, 29)
 Stre0019(Frozen,Value= 1.25853) = R(  8,  9)
 Stre0020(Frozen,Value= 1.43387) = R( 10, 11)
 Stre0021(Frozen,Value= 1.04562) = R( 10, 30)
 Stre0022(Frozen,Value= 1.26111) = R( 11, 12)
 Stre0023(Frozen,Value= 1.49758) = R( 11, 13)
 Stre0024(Frozen,Value= 1.50339) = R( 13, 14)
 Stre0025(Frozen,Value= 1.11172) = R( 13, 31)
 Stre0026(Frozen,Value= 1.11210) = R( 13, 32)
 Stre0027(Frozen,Value= 1.40541) = R( 14, 15)
 Stre0028(Frozen,Value= 1.40513) = R( 14, 19)
 Stre0029(Frozen,Value= 1.39840) = R( 15, 16)
 Stre0030(Frozen,Value= 1.08308) = R( 15, 33)
 Stre0031(Frozen,Value= 1.39761) = R( 16, 17)
 Stre0032(Frozen,Value= 1.08250) = R( 16, 34)
 Stre0033(Frozen,Value= 1.39783) = R( 17, 18)
 Stre0034(Frozen,Value= 1.08227) = R( 17, 35)
 Stre0035(Frozen,Value= 1.39845) = R( 18, 19)
 Stre0036(Frozen,Value= 1.08220) = R( 18, 36)
 Stre0037(Frozen,Value= 1.08295) = R( 19, 37)
 Stre0038(Frozen,Value= 1.26101) = R( 20, 21)
 Stre0039(Frozen,Value= 1.39119) = R( 20, 22)
 Stre0040(Frozen,Value= 1.01294) = R( 22, 38)
 Stre0041(Frozen,Value= 1.11137) = R( 23, 39)
 Stre0042(Frozen,Value= 1.11122) = R( 23, 40)
 Stre0043(Frozen,Value= 1.11150) = R( 23, 41)
 SymD0001(Frozen,Value= 0.01899)=[ 0.81650*A(  2,  1, 24)- 0.40825*A( 25,  1,  2)- 0.40825*A( 25,  1, 24)]
 Rock0002(Frozen,Value= 0.02816)=[ 0.70711*A( 25,  1,  2)- 0.70711*A( 25,  1, 24)]
 SymD0003(Frozen,Value= 0.00918)=[ 0.81650*A(  2,  1, 24)- 0.40825*A( 26,  1,  2)- 0.40825*A( 26,  1, 24)]
 Rock0004(Frozen,Value= 0.02605)=[ 0.70711*A( 26,  1,  2)- 0.70711*A( 26,  1, 24)]
 Bend0005(Frozen,Value= 107.89369) = A( 25,  1, 26)
 SymD0006(Frozen,Value=-0.03567)=[ 0.81650*A(  1,  2, 23)- 0.40825*A(  3,  2,  1)- 0.40825*A(  3,  2, 23)]
 Rock0007(Frozen,Value= 0.03032)=[ 0.70711*A(  3,  2,  1)- 0.70711*A(  3,  2, 23)]
 SymD0008(Frozen,Value= 0.01976)=[ 0.81650*A(  1,  2, 23)- 0.40825*A(  6,  2,  1)- 0.40825*A(  6,  2, 23)]
 Rock0009(Frozen,Value=-0.01859)=[ 0.70711*A(  6,  2,  1)- 0.70711*A(  6,  2, 23)]
 SymD0010(Frozen,Value=-0.07067)=[ 0.81650*A( 20,  3, 27)- 0.40825*A(  2,  3, 20)- 0.40825*A(  2,  3, 27)]
 Rock0011(Frozen,Value= 0.06542)=[ 0.70711*A(  2,  3, 20)- 0.70711*A(  2,  3, 27)]
 SymD0012(Frozen,Value=-0.02145)=[ 0.81650*A( 20,  3, 27)- 0.40825*A(  4,  3, 20)- 0.40825*A(  4,  3, 27)]
 Rock0013(Frozen,Value= 0.04507)=[ 0.70711*A(  4,  3, 20)- 0.70711*A(  4,  3, 27)]
 Rock0014(Frozen,Value= 0.01397)=[ 0.50000*A( 28,  5,  7)- 0.25000*A( 28,  5,  6)- 0.25000*A( 28,  5,  4)]
 Rock0015(Frozen,Value= 0.02464)=[ 0.70711*A( 28,  5,  6)- 0.70711*A( 28,  5,  4)]
 SymD0016(Frozen,Value=-0.01914)=[ 0.81650*A( 10,  7, 29)- 0.40825*A(  5,  7, 10)- 0.40825*A(  5,  7, 29)]
 Rock0017(Frozen,Value=-0.00397)=[ 0.70711*A(  5,  7, 10)- 0.70711*A(  5,  7, 29)]
 SymD0018(Frozen,Value= 0.01732)=[ 0.81650*A( 10,  7, 29)- 0.40825*A(  8,  7, 10)- 0.40825*A(  8,  7, 29)]
 Rock0019(Frozen,Value=-0.00356)=[ 0.70711*A(  8,  7, 10)- 0.70711*A(  8,  7, 29)]
 Rock0020(Frozen,Value= 0.00000)=[ 0.70711*A(  9,  8,  7)- 0.70711*A(  9,  8,  4)]
 SymD0021(Frozen,Value= 0.03483)=[ 0.81650*A( 11, 10,  7)- 0.40825*A( 30, 10, 11)- 0.40825*A( 30, 10,  7)]
 Rock0022(Frozen,Value=-0.01231)=[ 0.70711*A( 30, 10, 11)- 0.70711*A( 30, 10,  7)]
 SymD0023(Frozen,Value= 0.00279)=[ 0.81650*A( 10, 11, 13)- 0.40825*A( 12, 11, 10)- 0.40825*A( 12, 11, 13)]
 Rock0024(Frozen,Value= 0.00937)=[ 0.70711*A( 12, 11, 10)- 0.70711*A( 12, 11, 13)]
 SymD0025(Frozen,Value=-0.04065)=[ 0.81650*A( 31, 13, 32)- 0.40825*A( 11, 13, 31)- 0.40825*A( 11, 13, 32)]
 Rock0026(Frozen,Value=-0.00270)=[ 0.70711*A( 11, 13, 31)- 0.70711*A( 11, 13, 32)]
 SymD0027(Frozen,Value=-0.04901)=[ 0.81650*A( 31, 13, 32)- 0.40825*A( 14, 13, 31)- 0.40825*A( 14, 13, 32)]
 Rock0028(Frozen,Value= 0.00221)=[ 0.70711*A( 14, 13, 31)- 0.70711*A( 14, 13, 32)]
 Bend0029(Frozen,Value= 110.05767) = A( 11, 13, 14)
 Rock0030(Frozen,Value= 0.00000)=[ 0.70711*A( 13, 14, 15)- 0.70711*A( 13, 14, 19)]
 Rock0031(Frozen,Value=-0.01418)=[ 0.70711*A( 33, 15, 16)- 0.70711*A( 33, 15, 14)]
 Rock0032(Frozen,Value= 0.00000)=[ 0.70711*A( 34, 16, 17)- 0.70711*A( 34, 16, 15)]
 Rock0033(Frozen,Value= 0.00000)=[ 0.70711*A( 35, 17, 18)- 0.70711*A( 35, 17, 16)]
 Rock0034(Frozen,Value= 0.00000)=[ 0.70711*A( 36, 18, 19)- 0.70711*A( 36, 18, 17)]
 Rock0035(Frozen,Value=-0.01308)=[ 0.70711*A( 37, 19, 18)- 0.70711*A( 37, 19, 14)]
 SymD0036(Frozen,Value=-0.01026)=[ 0.81650*A(  3, 20, 22)- 0.40825*A( 21, 20,  3)- 0.40825*A( 21, 20, 22)]
 Rock0037(Frozen,Value= 0.00990)=[ 0.70711*A( 21, 20,  3)- 0.70711*A( 21, 20, 22)]
 Bend0038(Frozen,Value= 120.85243) = A( 20, 22, 38)
 SymD0039(Frozen,Value= 0.01440)=[ 0.81650*A(  2, 23, 41)- 0.40825*A( 39, 23,  2)- 0.40825*A( 39, 23, 41)]
 Rock0040(Frozen,Value= 0.02100)=[ 0.70711*A( 39, 23,  2)- 0.70711*A( 39, 23, 41)]
 SymD0041(Frozen,Value= 0.01802)=[ 0.81650*A(  2, 23, 41)- 0.40825*A( 40, 23,  2)- 0.40825*A( 40, 23, 41)]
 Rock0042(Frozen,Value= 0.02955)=[ 0.70711*A( 40, 23,  2)- 0.70711*A( 40, 23, 41)]
 Bend0043(Frozen,Value= 108.61454) = A( 39, 23, 40)
 RDef0044(Frozen,Value= 0.05715)=[ 0.50000*A(  4,  5,  7)- 0.50000*A(  5,  7,  8)+ 0.50000*A(  7,  8,  4)- 0.50000*A(  8,  4,  5)]
 RDef0045(Frozen,Value=-0.10102)=[ 0.63246*A(  5,  6,  2)- 0.51167*A(  6,  2,  3)+ 0.19544*A(  2,  3,  4)+ 0.19544*A(  3,  4,  5)- 0.51167*A(  4,  5,  6)]
 RDef0046(Frozen,Value= 0.21287)=[ 0.00000*A(  5,  6,  2)+ 0.37175*A(  6,  2,  3)- 0.60150*A(  2,  3,  4)+ 0.60150*A(  3,  4,  5)- 0.37175*A(  4,  5,  6)]
 RDef0047(Frozen,Value=-0.00970)=[ 0.57735*A( 19, 14, 15)- 0.28868*A( 14, 15, 16)- 0.28868*A( 15, 16, 17)+ 0.57735*A( 16, 17, 18)- 0.28868*A( 17, 18, 19)- 0.28868*A( 18, 19, 14)]
 RDef0048(Frozen,Value= 0.00000)=[ 0.00000*A( 19, 14, 15)+ 0.50000*A( 14, 15, 16)- 0.50000*A( 15, 16, 17)- 0.00000*A( 16, 17, 18)+ 0.50000*A( 17, 18, 19)- 0.50000*A( 18, 19, 14)]
 RDef0049(Frozen,Value=-0.00705)=[ 0.40825*A( 19, 14, 15)- 0.40825*A( 14, 15, 16)+ 0.40825*A( 15, 16, 17)- 0.40825*A( 16, 17, 18)+ 0.40825*A( 17, 18, 19)- 0.40825*A( 18, 19, 14)]
 Dihedmet0001(Frozen,Value= -60.00000) = D( 24,  1,  2,  6)
 Dihedmet0002(Frozen,Value=  60.00000) = D(  6,  2, 23, 40)
 Scan0003(Value=  60.00000, NSteps= 2, StepSize=120.0) = D(  4,  3, 20, 21)
 BtFl0004(Value=  -3.27409)=[   0.70711*D(  3,  4,  5,  7)-0.70711*D(  8,  4,  5,  6)]
 Scan0005(Value=-180.00000, NSteps= 2, StepSize=120.0) = D(  8,  7, 10, 11)
 Scan0006(Value=   0.00000, NSteps= 3, StepSize= 90.0) = D(  7, 10, 11, 12)
 Scan0007(Value= 180.00000, NSteps= 2, StepSize=120.0) = D( 12, 11, 13, 14)
 Scan0008(Value= -60.00000, NSteps= 2, StepSize=120.0) = D( 11, 13, 14, 19)
 Scan0009(Value=  -0.00000, NSteps= 3, StepSize= 90.0) = D( 21, 20, 22, 38)
 RPck0010(Value=   0.12010)=[   0.50000*D(  5,  7,  8,  4)-0.50000*D(  7,  8,  4,  5)+0.50000*D(  8,  4,  5,  7)-0.50000*D(  4,  5,  7,  8)]
 RPck0011(Value=  -0.06796)=[   0.63246*D(  2,  3,  4,  5)-0.51167*D(  3,  4,  5,  6)+0.19544*D(  4,  5,  6,  2)+0.19544*D(  5,  6,  2,  3)-0.51167*D(  6,  2,  3,  4)]
 RPck0012(Value=  -0.85424)=[   0.00000*D(  2,  3,  4,  5)+0.37175*D(  3,  4,  5,  6)-0.60150*D(  4,  5,  6,  2)+0.60150*D(  5,  6,  2,  3)-0.37175*D(  6,  2,  3,  4)]
 RPck0013(Value=   0.00000)=[   0.57735*D( 17, 18, 19, 14)-0.28868*D( 18, 19, 14, 15)-0.28868*D( 19, 14, 15, 16)+0.57735*D( 14, 15, 16, 17)-0.28868*D( 15, 16, 17, 18)-0.28868*D( 16, 17, 18, 19)]
 RPck0014(Value=   0.02085)=[   0.00000*D( 17, 18, 19, 14)+0.50000*D( 18, 19, 14, 15)-0.50000*D( 19, 14, 15, 16)-0.00000*D( 14, 15, 16, 17)+0.50000*D( 15, 16, 17, 18)-0.50000*D( 16, 17, 18, 19)]
 RPck0015(Value=  -0.01742)=[   0.40825*D( 17, 18, 19, 14)-0.40825*D( 18, 19, 14, 15)+0.40825*D( 19, 14, 15, 16)-0.40825*D( 14, 15, 16, 17)+0.40825*D( 15, 16, 17, 18)-0.40825*D( 16, 17, 18, 19)]
 ImpD0001(Frozen,Value= 175.18476) = D(  4,  8,  9,  7)
 ImpD0002(Frozen,Value=-176.86553) = D(  7, 10, 30, 11)
 ImpD0003(Frozen,Value=-178.16809) = D( 10, 11, 13, 12)
 ImpD0004(Frozen,Value= 177.38654) = D( 13, 14, 19, 15)
 ImpD0005(Frozen,Value=-179.89165) = D( 14, 15, 33, 16)
 ImpD0006(Frozen,Value=-179.83737) = D( 15, 16, 34, 17)
 ImpD0007(Frozen,Value=-179.73228) = D( 16, 17, 35, 18)
 ImpD0008(Frozen,Value=-179.79112) = D( 17, 18, 36, 19)
 ImpD0009(Frozen,Value= 179.89512) = D( 14, 19, 37, 18)
 ImpD0010(Frozen,Value=-177.85028) = D(  3, 20, 22, 21)
