11
	Energy:      -0.3024177
C         -3.26580       -1.16960       -1.17706
O         -4.42548       -0.84072       -1.37205
O         -2.37031       -1.14322       -2.18454
H         -2.95411       -1.48422       -0.18722
H         -2.62201       -0.86168       -3.07557
O         -0.65750        0.84539       -0.52694
H         -0.30154        1.63777       -1.00182
H         -0.78394        1.15088        0.40620
O         -4.10996        1.83950        0.89295
H         -3.15765        1.67162        0.68306
H         -4.60739        1.33979        0.19847
