 Entering Gaussian System, Link 0=gdv
 Input=../generations_tiopronin/population_40/temp_processing/individuo_1332.gjf
 Output=../generations_tiopronin/population_40/temp_processing/individuo_1332.log
 Initial command:
 /home/enzo/gaussian_versions/gdv.j21/gdv/l1.exe "/local/home/enzo/scratch/Gau-2337488.inp" -scrdir="/local/home/enzo/scratch/"
 Entering Link 1 = /home/enzo/gaussian_versions/gdv.j21/gdv/l1.exe PID=   2337489.
  
 Copyright (c) 1988-2022, Gaussian, Inc.  All Rights Reserved.
  
 This is the private, development version of
 the Gaussian(R) DV system of programs. It is based on
 the Gaussian(R) 16 system (copyright 2016, Gaussian, Inc.),
 the Gaussian(R) 09 system (copyright 2009, Gaussian, Inc.),
 the Gaussian(R) 03 system (copyright 2003, Gaussian, Inc.),
 the Gaussian(R) 98 system (copyright 1998, Gaussian, Inc.),
 the Gaussian(R) 94 system (copyright 1995, Gaussian, Inc.),
 the Gaussian 92(TM) system (copyright 1992, Gaussian, Inc.),
 the Gaussian 90(TM) system (copyright 1990, Gaussian, Inc.),
 the Gaussian 88(TM) system (copyright 1988, Gaussian, Inc.),
 the Gaussian 86(TM) system (copyright 1986, Carnegie Mellon
 University), and the Gaussian 82(TM) system (copyright 1983,
 Carnegie Mellon University). Gaussian is a federally registered
 trademark of Gaussian, Inc.
  
 This software contains proprietary and confidential information,
 including trade secrets, belonging to Gaussian, Inc.
  
 This software is provided under written license and may be
 used, copied, transmitted, or stored only in accord with that
 written license.
  
 The following legend is applicable only to US Government
 contracts under FAR:
  
                    RESTRICTED RIGHTS LEGEND
  
 Use, reproduction and disclosure by the US Government is
 subject to restrictions as set forth in subparagraphs (a)
 and (c) of the Commercial Computer Software - Restricted
 Rights clause in FAR 52.227-19.
  
 Gaussian, Inc.
 340 Quinnipiac St., Bldg. 40, Wallingford CT 06492
  
  
 ---------------------------------------------------------------
 Warning -- This program may not be used in any manner that
 competes with the business of Gaussian, Inc. or will provide
 assistance to any competitor of Gaussian, Inc.  The licensee
 of this program is prohibited from giving any competitor of
 Gaussian, Inc. access to this program.  By using this program,
 the user acknowledges that Gaussian, Inc. is engaged in the
 business of creating and licensing software in the field of
 computational chemistry and represents and warrants to the
 licensee that it is not a competitor of Gaussian, Inc. and that
 it will not use this program in any manner prohibited above.
 ---------------------------------------------------------------
  

 Cite this work as:
 Gaussian Development Version, Revision J.21,
 M. J. Frisch, G. W. Trucks, H. B. Schlegel, G. E. Scuseria, 
 M. A. Robb, J. R. Cheeseman, G. Scalmani, V. Barone, 
 G. A. Petersson, H. Nakatsuji, X. Li, A. V. Marenich, M. Caricato, 
 J. Bloino, B. G. Janesko, J. Zheng, R. Gomperts, B. Mennucci, 
 H. P. Hratchian, J. V. Ortiz, A. F. Izmaylov, J. L. Sonnenberg, 
 D. Williams-Young, F. Ding, F. Lipparini, F. Egidi, J. Goings, 
 B. Peng, A. Petrone, T. Henderson, D. Ranasinghe, V. G. Zakrzewski, 
 J. Gao, N. Rega, G. Zheng, W. Liang, M. Hada, M. Ehara, K. Toyota, 
 R. Fukuda, J. Hasegawa, M. Ishida, T. Nakajima, Y. Honda, O. Kitao, 
 H. Nakai, T. Vreven, K. Throssell, J. A. Montgomery, Jr., 
 J. E. Peralta, F. Ogliaro, M. J. Bearpark, J. J. Heyd, 
 E. N. Brothers, K. N. Kudin, V. N. Staroverov, T. A. Keith, 
 R. Kobayashi, J. Normand, K. Raghavachari, A. P. Rendell, 
 J. C. Burant, S. S. Iyengar, J. Tomasi, M. Cossi, J. M. Millam, 
 M. Klene, C. Adamo, R. Cammi, J. W. Ochterski, R. L. Martin, 
 K. Morokuma, O. Farkas, J. B. Foresman, and D. J. Fox, 
 Gaussian, Inc., Wallingford CT, 2020.
 
 ******************************************
 Gaussian DV:  ES64L-GDVRevJ.21 25-Jul-2022
                14-Mar-2025 
 ******************************************
 -------------------------------------
 #p UFF GEOM=READALLGIC OUTPUT=PICKETT
 -------------------------------------
 1/18=20,37=210000000,38=1,56=1,64=2,145=602,172=1/1;
 2/12=2/2;
 3/5=30,11=9,25=1,30=1,41=10020000,43=2/1;
 4/20=10,24=3/2;
 99/5=1,9=1,10=1024/99;
 Leave Link    1 at Fri Mar 14 15:10:52 2025, MaxMem=           0 cpu:               0.0 elap:               0.0
 (Enter /home/enzo/gaussian_versions/gdv.j21/gdv/l101.exe)
 ------------------
 individuo_1332.xyz
 ------------------
 Symbolic Z-matrix:
 Charge =     0 Multiplicity =     1
 6                    -3.00689   1.30665   0.28571 
 6                    -1.96011   0.22694   0.53236 
 16                   -2.54192  -1.36383  -0.12951 
 6                    -0.65317   0.60431  -0.10315 
 8                    -0.4574    1.79395  -0.46697 
 7                     0.37162  -0.37861  -0.28378 
 6                     1.65512  -0.03451  -0.8866 
 6                     2.75504  -0.14743   0.11655 
 8                     2.49617  -0.08467   1.34537 
 8                     4.06792  -0.29511  -0.31074 
 1                    -3.95765   1.03224   0.78741 
 1                    -2.65996   2.27577   0.70085 
 1                    -3.19824   1.42689  -0.80111 
 1                    -1.82873   0.11099   1.62853 
 1                    -3.8906   -1.06848   0.13711 
 1                     0.18919  -1.35969   0.02553 
 1                     1.85955  -0.71562  -1.73937 
 1                     1.61723   1.00663  -1.26928 
 1                     4.83506   0.08441   0.22919 
 
 Initializing the GIC definitions file.

 CrInp1: Reading the GIC input below.
 Dihed1 = D( 15, 3, 2, 14)
 Dihed2 = D( 3, 2, 4, 5)
 Dihed3 = D( 4, 6, 7, 8)
 Dihed4 = D( 6, 7, 8, 9)
 Dihed5 = D( 9, 8, 10, 19)
 
 Warning:  Number of GICs=     5 3N-6=    51.
 ITRead=  0  0  0  0  0  0  0  0  0  0  0  0  0  0  0  0  0  0  0
 MicOpt= -1 -1 -1 -1 -1 -1 -1 -1 -1 -1 -1 -1 -1 -1 -1 -1 -1 -1 -1
                           ----------------------------
                           !    Current Parameters    !
                           ! (Angstroms and Degrees)  !
 --------------------------                            --------------------------
 ! Name   Definition             Value                                          !
 --------------------------------------------------------------------------------
 ! Dihed1 D(15,3,2,14)          85.8782                                         !
 ! Dihed2 D(3,2,4,5)           137.4013                                         !
 ! Dihed3 D(4,6,7,8)           112.9174                                         !
 ! Dihed4 D(6,7,8,9)           -22.1809                                         !
 ! Dihed5 D(9,8,10,19)         -30.4319                                         !
 --------------------------------------------------------------------------------
 NAtoms=     19 NQM=       19 NQMF=       0 NMMI=      0 NMMIF=      0
                NMic=       0 NMicF=      0.
                    Isotopes and Nuclear Properties:
 (Nuclear quadrupole moments (NQMom) in fm**2, nuclear magnetic moments (NMagM)
  in nuclear magnetons)

  Atom         1           2           3           4           5           6           7           8           9          10
 IAtWgt=          12          12          32          12          16          14          12          12          16          16
 AtmWgt=  12.0000000  12.0000000  31.9720718  12.0000000  15.9949146  14.0030740  12.0000000  12.0000000  15.9949146  15.9949146
 NucSpn=           0           0           0           0           0           2           0           0           0           0
 AtZEff=  -0.0000000  -0.0000000  -0.0000000  -0.0000000  -0.0000000  -0.0000000  -0.0000000  -0.0000000  -0.0000000  -0.0000000
 NQMom=    0.0000000   0.0000000   0.0000000   0.0000000   0.0000000   2.0440000   0.0000000   0.0000000   0.0000000   0.0000000
 NMagM=    0.0000000   0.0000000   0.0000000   0.0000000   0.0000000   0.4037610   0.0000000   0.0000000   0.0000000   0.0000000
 AtZNuc=   6.0000000   6.0000000  16.0000000   6.0000000   8.0000000   7.0000000   6.0000000   6.0000000   8.0000000   8.0000000

  Atom        11          12          13          14          15          16          17          18          19
 IAtWgt=           1           1           1           1           1           1           1           1           1
 AtmWgt=   1.0078250   1.0078250   1.0078250   1.0078250   1.0078250   1.0078250   1.0078250   1.0078250   1.0078250
 NucSpn=           1           1           1           1           1           1           1           1           1
 AtZEff=  -0.0000000  -0.0000000  -0.0000000  -0.0000000  -0.0000000  -0.0000000  -0.0000000  -0.0000000  -0.0000000
 NQMom=    0.0000000   0.0000000   0.0000000   0.0000000   0.0000000   0.0000000   0.0000000   0.0000000   0.0000000
 NMagM=    2.7928460   2.7928460   2.7928460   2.7928460   2.7928460   2.7928460   2.7928460   2.7928460   2.7928460
 AtZNuc=   1.0000000   1.0000000   1.0000000   1.0000000   1.0000000   1.0000000   1.0000000   1.0000000   1.0000000
 Generating MM parameters.
 Include all MM classes

 MM sanity checks:
 All charges sum to:                0.00000000
 Charges of atoms sum to:           0.00000000
 MMInit generated parameter data with length LenPar=        2803.
 Leave Link  101 at Fri Mar 14 15:10:52 2025, MaxMem=   104857600 cpu:               0.1 elap:               0.1
 (Enter /home/enzo/gaussian_versions/gdv.j21/gdv/l202.exe)
                          Input orientation:                          
 ---------------------------------------------------------------------
 Center     Atomic      Atomic             Coordinates (Angstroms)
 Number     Number       Type             X           Y           Z
 ---------------------------------------------------------------------
      1          6    10061003       -3.006886    1.306654    0.285710
      2          6    10061003       -1.960114    0.226935    0.532361
      3         16    10161003       -2.541921   -1.363825   -0.129509
      4          6    10061002       -0.653173    0.604307   -0.103153
      5          8    10081002       -0.457395    1.793946   -0.466974
      6          7    10071000        0.371624   -0.378611   -0.283784
      7          6    10061003        1.655117   -0.034509   -0.886600
      8          6    10061000        2.755044   -0.147431    0.116550
      9          8    10081002        2.496169   -0.084669    1.345370
     10          8    10081000        4.067916   -0.295105   -0.310739
     11          1    10011000       -3.957653    1.032240    0.787413
     12          1    10011000       -2.659955    2.275766    0.700847
     13          1    10011000       -3.198236    1.426893   -0.801113
     14          1    10011000       -1.828731    0.110993    1.628534
     15          1    10011000       -3.890603   -1.068476    0.137109
     16          1    10011000        0.189185   -1.359693    0.025531
     17          1    10011000        1.859545   -0.715617   -1.739373
     18          1    10011000        1.617227    1.006632   -1.269282
     19          1    10011000        4.835063    0.084405    0.229188
 ---------------------------------------------------------------------
                    Distance matrix (angstroms):
                    1          2          3          4          5
     1  C    0.000000
     2  C    1.523930   0.000000
     3  S    2.742272   1.818540   0.000000
     4  C    2.486860   1.501460   2.727931   0.000000
     5  O    2.702571   2.390054   3.798769   1.259339   0.000000
     6  N    3.818216   2.543576   3.079479   1.431420   2.332560
     7  C    4.990721   3.892518   4.467146   2.519936   2.825251
     8  C    5.944982   4.748238   5.440404   3.497045   3.798580
     9  O    5.774277   4.540544   5.403134   3.534298   3.941741
    10  O    7.278338   6.109050   6.698130   4.810480   4.986681
    11  H    1.109489   2.168808   2.930217   3.449032   3.795456
    12  H    1.109900   2.171606   3.734976   2.732648   2.539139
    13  H    1.110070   2.179678   2.944471   2.764261   2.785424
    14  H    2.149612   1.110090   2.403007   2.150357   3.017291
    15  H    2.538559   2.358199   1.406151   3.651970   4.510576
    16  H    4.170368   2.719145   2.735506   2.140893   3.256696
    17  H    5.645590   4.543014   4.731251   3.276151   3.644875
    18  H    4.887784   4.080590   4.921043   2.583880   2.359580
    19  H    7.936829   6.803430   7.526349   5.522815   5.605112
                    6          7          8          9         10
     6  N    0.000000
     7  C    1.459160   0.000000
     8  C    2.427839   1.492950   0.000000
     9  O    2.693369   2.385702   1.257360   0.000000
    10  O    3.697333   2.494218   1.388530   2.292895   0.000000
    11  H    4.677671   5.953441   6.848502   6.573479   8.208382
    12  H    4.147974   5.145601   5.961166   5.707248   7.273028
    13  H    4.033779   5.069323   6.225925   6.270443   7.483496
    14  H    2.956050   4.299333   4.833619   4.338574   6.220622
    15  H    4.338161   5.733418   6.709200   6.574088   8.008539
    16  H    1.044740   2.176477   2.839277   2.947853   4.036209
    17  H    2.108606   1.110370   2.137570   3.212324   2.663593
    18  H    2.107518   1.109890   2.132374   2.966460   2.935847
    19  H    4.516615   3.372118   2.095928   2.597089   1.011960
                   11         12         13         14         15
    11  H    0.000000
    12  H    1.799408   0.000000
    13  H    1.804406   1.807267   0.000000
    14  H    2.467486   2.497555   3.083881   0.000000
    15  H    2.200091   3.607804   2.754360   2.804784   0.000000
    16  H    4.847481   4.667999   4.463521   2.967241   4.091690
    17  H    6.578711   5.943814   5.572417   5.062555   6.058869
    18  H    5.942217   4.877130   4.856386   4.590657   6.051463
    19  H    8.861256   7.823031   8.209609   6.809187   8.801980
                   16         17         18         19
    16  H    0.000000
    17  H    2.513926   0.000000
    18  H    3.052104   1.801623   0.000000
    19  H    4.869402   3.656361   3.667476   0.000000
 Stoichiometry    C5H9NO3S
 Framework group  C1[X(C5H9NO3S)]
 Deg. of freedom    51
 Full point group                 C1      NOp   1
 Largest Abelian subgroup         C1      NOp   1
 Largest concise Abelian subgroup C1      NOp   1
                         Standard orientation:                         
 ---------------------------------------------------------------------
 Center     Atomic      Atomic             Coordinates (Angstroms)
 Number     Number       Type             X           Y           Z
 ---------------------------------------------------------------------
      1          6    10061003       -2.983853    1.258730    0.241599
      2          6    10061003       -1.927149    0.194396    0.511659
      3         16    10161003       -2.483282   -1.410664   -0.137638
      4          6    10061002       -0.618112    0.579868   -0.114612
      5          8    10081002       -0.432476    1.767469   -0.490214
      6          7    10071000        0.419977   -0.392863   -0.273138
      7          6    10061003        1.705616   -0.040558   -0.866571
      8          6    10061000        2.796183   -0.128879    0.149186
      9          8    10081002        2.523686   -0.055029    1.374439
     10          8    10081000        4.115116   -0.265912   -0.262708
     11          1    10011000       -3.936560    0.978878    0.736572
     12          1    10011000       -2.652687    2.236602    0.648997
     13          1    10011000       -3.165162    1.364161   -0.848478
     14          1    10011000       -1.805948    0.092659    1.610412
     15          1    10011000       -3.838061   -1.128252    0.111512
     16          1    10011000        0.245807   -1.372407    0.045674
     17          1    10011000        1.926966   -0.728981   -1.709185
     18          1    10011000        1.659551    0.995582   -1.261727
     19          1    10011000        4.872043    0.128853    0.280693
 ---------------------------------------------------------------------
 Rotational constants (GHZ):           2.3830203           0.5051822           0.4617053
 Leave Link  202 at Fri Mar 14 15:10:52 2025, MaxMem=   104857600 cpu:               0.0 elap:               0.0
 (Enter /home/enzo/gaussian_versions/gdv.j21/gdv/l301.exe)
 Standard basis: Dummy (5D, 7F)
 There are    19 symmetry adapted cartesian basis functions of A   symmetry.
 There are    19 symmetry adapted basis functions of A   symmetry.
    19 basis functions,    19 primitive gaussians,    19 cartesian basis functions
    14 alpha electrons       14 beta electrons
       nuclear repulsion energy        67.7013132550 Hartrees.
 IExCor=         0 DFT=F Ex=HF Corr=None N6=None ScaHFX=  1.000000
 ScaDFX=  1.000000  1.000000  1.000000  1.000000  1.000000  0.000000
 ScaDFX=  0.000000  0.000000  0.000000  0.000000  0.000000  0.000000
 IRadAn=      5 IRanWt=     -1 IRanGd=            0 ICorTp=0 IEmpDi=  4
 NAtoms=   19 NActive=   19 NUniq=   19 SFac= 1.00D+00 NAtFMM=   60 NAOKFM=F Big=F
 Integral buffers will be    131072 words long.
 Raffenetti 1 integral format.
 Two-electron integral symmetry is turned on.
 Leave Link  301 at Fri Mar 14 15:10:52 2025, MaxMem=   104857600 cpu:               0.0 elap:               0.0
 (Enter /home/enzo/gaussian_versions/gdv.j21/gdv/l402.exe)
 UFF calculation of energy.
 Energy per function type:
 Direct Coulomb + vdW (small)                           0.029355599
 Direct Coulomb (large)                                 0.000000000
 Direct vdW (large)                                   682.407227556
 Non-direct Coulomb + vdW (small)                      -0.014071855
 Non-direct Coulomb (large)                             0.000000000
 Non-direct vdW (large)                              -682.407227556
 Harmonic stretch III                                   0.010506251
 UFF 3-term bend                                        0.004904379
 UFF 2-term bend                                        0.000135020
 UFF torsion fixed V                                    0.002343575
 UFF torsion w/ bond order V                            0.011444537
 UFF torsion w/ sp3 V                                   0.000667639
 Three term Wilson angle                                0.000018417
 Energy per function class:
        Coulomb               0.000000000
    Vanderwaals               0.015283744
     Stretching               0.010506251
        Bending               0.005039399
        Torsion               0.014455751
   Out-of-plane               0.000018417
 Energy=    4.530356104E-02 NIter=   0.
 Dipole moment=       0.000000       0.000000       0.000000
 Leave Link  402 at Fri Mar 14 15:10:52 2025, MaxMem=   104857600 cpu:               0.0 elap:               0.0
 (Enter /home/enzo/gaussian_versions/gdv.j21/gdv/l9999.exe)
 Unable to Open any file for archive entry.
 1\1\GINC-ORACLE\SP\UFF\ZDO\C5H9N1O3S1\ENZO\14-Mar-2025\0\\#p UFF GEOM=
 READALLGIC OUTPUT=PICKETT\\individuo_1332.xyz\\0,1\C,0,-3.006886,1.306
 654,0.28571\C,0,-1.960114,0.226935,0.532361\S,0,-2.541921,-1.363825,-0
 .129509\C,0,-0.653173,0.604307,-0.103153\O,0,-0.457395,1.793946,-0.466
 974\N,0,0.371624,-0.378611,-0.283784\C,0,1.655117,-0.034509,-0.8866\C,
 0,2.755044,-0.147431,0.11655\O,0,2.496169,-0.084669,1.34537\O,0,4.0679
 16,-0.295105,-0.310739\H,0,-3.957653,1.03224,0.787413\H,0,-2.659955,2.
 275766,0.700847\H,0,-3.198236,1.426893,-0.801113\H,0,-1.828731,0.11099
 3,1.628534\H,0,-3.890603,-1.068476,0.137109\H,0,0.189185,-1.359693,0.0
 25531\H,0,1.859545,-0.715617,-1.739373\H,0,1.617227,1.006632,-1.269282
 \H,0,4.835063,0.084405,0.229188\\Version=ES64L-GDVRevJ.21\HF=0.0453036
 \RMSD=0.000e+00\Dipole=0.,0.,0.\PG=C01 [X(C5H9N1O3S1)]\\@
 The archive entry for this job was punched.
 DoSRE=F DoSRN=F DoDH=F DoFC=F DoNQ=F DoQCD=F DoSCD=F
 Inertia tensor (amu-bohr**2): 
                 1             2             3 
      1   0.757334D+03 -0.510835D-04  0.231803D-03
      2  -0.510835D-04  0.357246D+04  0.583426D-04
      3   0.231803D-03  0.583426D-04  0.390886D+04
 Principal inertia moments (amu-bohr**2):
 Iaa = 0.757334D+03 Ibb= 0.357246D+04 Icc= 0.390886D+04
 Rotation matrix to Principal Axis frame: 
                 1             2             3 
      1   0.100000D+01  0.000000D+00  0.000000D+00
      2   0.000000D+00  0.100000D+01  0.000000D+00
      3   0.000000D+00  0.000000D+00  0.100000D+01
                Principal axis orientation:                
 ---------------------------------------------------------------------
 Center     Atomic                     Coordinates (Angstroms)
 Number     Number                        X           Y           Z
 ---------------------------------------------------------------------
      1          6                   -3.006886    1.306654    0.285710
      2          6                   -1.960114    0.226935    0.532361
      3         16                   -2.541921   -1.363825   -0.129510
      4          6                   -0.653173    0.604307   -0.103153
      5          8                   -0.457395    1.793946   -0.466974
      6          7                    0.371624   -0.378611   -0.283784
      7          6                    1.655117   -0.034509   -0.886600
      8          6                    2.755044   -0.147431    0.116550
      9          8                    2.496169   -0.084669    1.345370
     10          8                    4.067916   -0.295105   -0.310739
     11          1                   -3.957653    1.032240    0.787413
     12          1                   -2.659955    2.275766    0.700847
     13          1                   -3.198236    1.426893   -0.801113
     14          1                   -1.828731    0.110993    1.628534
     15          1                   -3.890603   -1.068476    0.137108
     16          1                    0.189185   -1.359693    0.025531
     17          1                    1.859545   -0.715617   -1.739373
     18          1                    1.617227    1.006632   -1.269282
     19          1                    4.835063    0.084405    0.229188
 ---------------------------------------------------------------------
 Rotational constants (MHZ):
   2383.0202684    505.1821688    461.7053030
 Dipole moment (Debye):
      0.0000000      0.0000000      0.0000000  Tot=      0.0000000

 Atoms with significant hyperfine tensors: 

--------------------------------------------------------------------------------
 individuo_1332.xyz                                      
   99  1000  50  0.1760E-11  0.1000E+07  0.1000E+01 1.0000000000
a   1  0  0  0  1  1   1  0  1  0
     10000   0.23830203E+04    0.0000E+00   /  A  /
     20000   0.50518217E+03    0.0000E+00   /  B  /
     30000   0.46170530E+03    0.0000E+00   /  C  /
--------------------------------------------------------------------------------



 IF AT FIRST YOU DON'T SUCCEED, TRY, TRY AGAIN.
 THEN GIVE UP;
 THERE'S NO USE BEING A DAMN FOOL ABOUT IT.

                                 -- W. C. FIELDS
 Job cpu time:       0 days  0 hours  0 minutes  0.2 seconds.
 Elapsed time:       0 days  0 hours  0 minutes  0.2 seconds.
 File lengths (MBytes):  RWF=     14 Int=      0 D2E=      0 Chk=      9 Scr=      1
 Normal termination of Gaussian DV at Fri Mar 14 15:10:52 2025.
