#p UFF GEOM=READALLGIC OUTPUT=PICKETT

individuo_5092.xyz

0 1
6 2.977485 1.044070 0.614504
6 2.055699 0.369054 -0.393974
16 2.157860 -1.437802 -0.215307
6 0.638897 0.828079 -0.203313
8 0.201340 1.797044 -0.878284
7 -0.216069 0.160934 0.730986
6 -1.600449 0.579186 0.925163
6 -2.527342 -0.286402 0.137427
8 -2.200282 -1.467391 -0.144086
8 -3.739939 0.223876 -0.306690
1 4.025279 0.722341 0.442492
1 2.927161 2.146731 0.498381
1 2.687365 0.776388 1.652016
1 2.404027 0.629526 -1.415307
1 2.701977 -1.355666 1.078698
1 0.166380 -0.641106 1.280482
1 -1.859959 0.515920 2.002926
1 -1.718628 1.632593 0.596187
1 -4.094448 -0.006870 -1.226007

Dihed1 = D( 15, 3, 2, 14)
Dihed2 = D(  3, 2, 4, 5)
Dihed3 = D(  4, 6, 7, 8)
Dihed4 = D(  6, 7, 8, 9)
Dihed5 = D(  9, 8, 10, 19)

