 Entering Gaussian System, Link 0=gdv
 Input=../generations_tiopronin/population_40/temp_processing/individuo_5092.gjf
 Output=../generations_tiopronin/population_40/temp_processing/individuo_5092.log
 Initial command:
 /home/enzo/gaussian_versions/gdv.j21/gdv/l1.exe "/local/home/enzo/scratch/Gau-2337542.inp" -scrdir="/local/home/enzo/scratch/"
 Entering Link 1 = /home/enzo/gaussian_versions/gdv.j21/gdv/l1.exe PID=   2337543.
  
 Copyright (c) 1988-2022, Gaussian, Inc.  All Rights Reserved.
  
 This is the private, development version of
 the Gaussian(R) DV system of programs. It is based on
 the Gaussian(R) 16 system (copyright 2016, Gaussian, Inc.),
 the Gaussian(R) 09 system (copyright 2009, Gaussian, Inc.),
 the Gaussian(R) 03 system (copyright 2003, Gaussian, Inc.),
 the Gaussian(R) 98 system (copyright 1998, Gaussian, Inc.),
 the Gaussian(R) 94 system (copyright 1995, Gaussian, Inc.),
 the Gaussian 92(TM) system (copyright 1992, Gaussian, Inc.),
 the Gaussian 90(TM) system (copyright 1990, Gaussian, Inc.),
 the Gaussian 88(TM) system (copyright 1988, Gaussian, Inc.),
 the Gaussian 86(TM) system (copyright 1986, Carnegie Mellon
 University), and the Gaussian 82(TM) system (copyright 1983,
 Carnegie Mellon University). Gaussian is a federally registered
 trademark of Gaussian, Inc.
  
 This software contains proprietary and confidential information,
 including trade secrets, belonging to Gaussian, Inc.
  
 This software is provided under written license and may be
 used, copied, transmitted, or stored only in accord with that
 written license.
  
 The following legend is applicable only to US Government
 contracts under FAR:
  
                    RESTRICTED RIGHTS LEGEND
  
 Use, reproduction and disclosure by the US Government is
 subject to restrictions as set forth in subparagraphs (a)
 and (c) of the Commercial Computer Software - Restricted
 Rights clause in FAR 52.227-19.
  
 Gaussian, Inc.
 340 Quinnipiac St., Bldg. 40, Wallingford CT 06492
  
  
 ---------------------------------------------------------------
 Warning -- This program may not be used in any manner that
 competes with the business of Gaussian, Inc. or will provide
 assistance to any competitor of Gaussian, Inc.  The licensee
 of this program is prohibited from giving any competitor of
 Gaussian, Inc. access to this program.  By using this program,
 the user acknowledges that Gaussian, Inc. is engaged in the
 business of creating and licensing software in the field of
 computational chemistry and represents and warrants to the
 licensee that it is not a competitor of Gaussian, Inc. and that
 it will not use this program in any manner prohibited above.
 ---------------------------------------------------------------
  

 Cite this work as:
 Gaussian Development Version, Revision J.21,
 M. J. Frisch, G. W. Trucks, H. B. Schlegel, G. E. Scuseria, 
 M. A. Robb, J. R. Cheeseman, G. Scalmani, V. Barone, 
 G. A. Petersson, H. Nakatsuji, X. Li, A. V. Marenich, M. Caricato, 
 J. Bloino, B. G. Janesko, J. Zheng, R. Gomperts, B. Mennucci, 
 H. P. Hratchian, J. V. Ortiz, A. F. Izmaylov, J. L. Sonnenberg, 
 D. Williams-Young, F. Ding, F. Lipparini, F. Egidi, J. Goings, 
 B. Peng, A. Petrone, T. Henderson, D. Ranasinghe, V. G. Zakrzewski, 
 J. Gao, N. Rega, G. Zheng, W. Liang, M. Hada, M. Ehara, K. Toyota, 
 R. Fukuda, J. Hasegawa, M. Ishida, T. Nakajima, Y. Honda, O. Kitao, 
 H. Nakai, T. Vreven, K. Throssell, J. A. Montgomery, Jr., 
 J. E. Peralta, F. Ogliaro, M. J. Bearpark, J. J. Heyd, 
 E. N. Brothers, K. N. Kudin, V. N. Staroverov, T. A. Keith, 
 R. Kobayashi, J. Normand, K. Raghavachari, A. P. Rendell, 
 J. C. Burant, S. S. Iyengar, J. Tomasi, M. Cossi, J. M. Millam, 
 M. Klene, C. Adamo, R. Cammi, J. W. Ochterski, R. L. Martin, 
 K. Morokuma, O. Farkas, J. B. Foresman, and D. J. Fox, 
 Gaussian, Inc., Wallingford CT, 2020.
 
 ******************************************
 Gaussian DV:  ES64L-GDVRevJ.21 25-Jul-2022
                14-Mar-2025 
 ******************************************
 -------------------------------------
 #p UFF GEOM=READALLGIC OUTPUT=PICKETT
 -------------------------------------
 1/18=20,37=210000000,38=1,56=1,64=2,145=602,172=1/1;
 2/12=2/2;
 3/5=30,11=9,25=1,30=1,41=10020000,43=2/1;
 4/20=10,24=3/2;
 99/5=1,9=1,10=1024/99;
 Leave Link    1 at Fri Mar 14 15:10:58 2025, MaxMem=           0 cpu:               0.0 elap:               0.0
 (Enter /home/enzo/gaussian_versions/gdv.j21/gdv/l101.exe)
 ------------------
 individuo_5092.xyz
 ------------------
 Symbolic Z-matrix:
 Charge =     0 Multiplicity =     1
 6                     2.97749   1.04407   0.6145 
 6                     2.0557    0.36905  -0.39397 
 16                    2.15786  -1.4378   -0.21531 
 6                     0.6389    0.82808  -0.20331 
 8                     0.20134   1.79704  -0.87828 
 7                    -0.21607   0.16093   0.73099 
 6                    -1.60045   0.57919   0.92516 
 6                    -2.52734  -0.2864    0.13743 
 8                    -2.20028  -1.46739  -0.14409 
 8                    -3.73994   0.22388  -0.30669 
 1                     4.02528   0.72234   0.44249 
 1                     2.92716   2.14673   0.49838 
 1                     2.68737   0.77639   1.65202 
 1                     2.40403   0.62953  -1.41531 
 1                     2.70198  -1.35567   1.0787 
 1                     0.16638  -0.64111   1.28048 
 1                    -1.85996   0.51592   2.00293 
 1                    -1.71863   1.63259   0.59619 
 1                    -4.09445  -0.00687  -1.22601 
 
 Initializing the GIC definitions file.

 CrInp1: Reading the GIC input below.
 Dihed1 = D( 15, 3, 2, 14)
 Dihed2 = D( 3, 2, 4, 5)
 Dihed3 = D( 4, 6, 7, 8)
 Dihed4 = D( 6, 7, 8, 9)
 Dihed5 = D( 9, 8, 10, 19)
 
 Warning:  Number of GICs=     5 3N-6=    51.
 ITRead=  0  0  0  0  0  0  0  0  0  0  0  0  0  0  0  0  0  0  0
 MicOpt= -1 -1 -1 -1 -1 -1 -1 -1 -1 -1 -1 -1 -1 -1 -1 -1 -1 -1 -1
                           ----------------------------
                           !    Current Parameters    !
                           ! (Angstroms and Degrees)  !
 --------------------------                            --------------------------
 ! Name   Definition             Value                                          !
 --------------------------------------------------------------------------------
 ! Dihed1 D(15,3,2,14)         136.9747                                         !
 ! Dihed2 D(3,2,4,5)          -144.7552                                         !
 ! Dihed3 D(4,6,7,8)            98.1492                                         !
 ! Dihed4 D(6,7,8,9)            26.8338                                         !
 ! Dihed5 D(9,8,10,19)         -38.3088                                         !
 --------------------------------------------------------------------------------
 NAtoms=     19 NQM=       19 NQMF=       0 NMMI=      0 NMMIF=      0
                NMic=       0 NMicF=      0.
                    Isotopes and Nuclear Properties:
 (Nuclear quadrupole moments (NQMom) in fm**2, nuclear magnetic moments (NMagM)
  in nuclear magnetons)

  Atom         1           2           3           4           5           6           7           8           9          10
 IAtWgt=          12          12          32          12          16          14          12          12          16          16
 AtmWgt=  12.0000000  12.0000000  31.9720718  12.0000000  15.9949146  14.0030740  12.0000000  12.0000000  15.9949146  15.9949146
 NucSpn=           0           0           0           0           0           2           0           0           0           0
 AtZEff=  -0.0000000  -0.0000000  -0.0000000  -0.0000000  -0.0000000  -0.0000000  -0.0000000  -0.0000000  -0.0000000  -0.0000000
 NQMom=    0.0000000   0.0000000   0.0000000   0.0000000   0.0000000   2.0440000   0.0000000   0.0000000   0.0000000   0.0000000
 NMagM=    0.0000000   0.0000000   0.0000000   0.0000000   0.0000000   0.4037610   0.0000000   0.0000000   0.0000000   0.0000000
 AtZNuc=   6.0000000   6.0000000  16.0000000   6.0000000   8.0000000   7.0000000   6.0000000   6.0000000   8.0000000   8.0000000

  Atom        11          12          13          14          15          16          17          18          19
 IAtWgt=           1           1           1           1           1           1           1           1           1
 AtmWgt=   1.0078250   1.0078250   1.0078250   1.0078250   1.0078250   1.0078250   1.0078250   1.0078250   1.0078250
 NucSpn=           1           1           1           1           1           1           1           1           1
 AtZEff=  -0.0000000  -0.0000000  -0.0000000  -0.0000000  -0.0000000  -0.0000000  -0.0000000  -0.0000000  -0.0000000
 NQMom=    0.0000000   0.0000000   0.0000000   0.0000000   0.0000000   0.0000000   0.0000000   0.0000000   0.0000000
 NMagM=    2.7928460   2.7928460   2.7928460   2.7928460   2.7928460   2.7928460   2.7928460   2.7928460   2.7928460
 AtZNuc=   1.0000000   1.0000000   1.0000000   1.0000000   1.0000000   1.0000000   1.0000000   1.0000000   1.0000000
 Generating MM parameters.
 Include all MM classes

 MM sanity checks:
 All charges sum to:                0.00000000
 Charges of atoms sum to:           0.00000000
 MMInit generated parameter data with length LenPar=        2803.
 Leave Link  101 at Fri Mar 14 15:10:58 2025, MaxMem=   104857600 cpu:               0.1 elap:               0.1
 (Enter /home/enzo/gaussian_versions/gdv.j21/gdv/l202.exe)
                          Input orientation:                          
 ---------------------------------------------------------------------
 Center     Atomic      Atomic             Coordinates (Angstroms)
 Number     Number       Type             X           Y           Z
 ---------------------------------------------------------------------
      1          6    10061003        2.977485    1.044070    0.614504
      2          6    10061003        2.055699    0.369054   -0.393974
      3         16    10161003        2.157860   -1.437802   -0.215307
      4          6    10061002        0.638897    0.828079   -0.203313
      5          8    10081002        0.201340    1.797044   -0.878284
      6          7    10071000       -0.216069    0.160934    0.730986
      7          6    10061003       -1.600449    0.579186    0.925163
      8          6    10061000       -2.527342   -0.286402    0.137427
      9          8    10081002       -2.200282   -1.467391   -0.144086
     10          8    10081000       -3.739939    0.223876   -0.306690
     11          1    10011000        4.025279    0.722341    0.442492
     12          1    10011000        2.927161    2.146731    0.498381
     13          1    10011000        2.687365    0.776388    1.652016
     14          1    10011000        2.404027    0.629526   -1.415307
     15          1    10011000        2.701977   -1.355666    1.078698
     16          1    10011000        0.166380   -0.641106    1.280482
     17          1    10011000       -1.859959    0.515920    2.002926
     18          1    10011000       -1.718628    1.632593    0.596187
     19          1    10011000       -4.094448   -0.006870   -1.226007
 ---------------------------------------------------------------------
                    Distance matrix (angstroms):
                    1          2          3          4          5
     1  C    0.000000
     2  C    1.523930   0.000000
     3  S    2.742273   1.818540   0.000000
     4  C    2.486860   1.501460   2.727931   0.000000
     5  O    3.240736   2.390054   3.838195   1.259339   0.000000
     6  N    3.315461   2.543576   3.014460   1.431420   2.332560
     7  C    4.611952   3.892518   4.415178   2.519936   2.825251
     8  C    5.683386   4.660072   4.837485   3.373906   3.580240
     9  O    5.804495   4.642020   4.358824   3.651524   4.118661
    10  O    6.829722   5.798113   6.128096   4.421533   4.281969
    11  H    1.109491   2.168809   2.930217   3.449033   4.185922
    12  H    1.109900   2.171607   3.734977   2.732649   3.073693
    13  H    1.110070   2.179678   2.944471   2.764261   3.691135
    14  H    2.149612   1.110090   2.403007   2.150357   2.550161
    15  H    2.459698   2.358198   1.406150   3.266281   4.474656
    16  H    3.344496   2.719146   2.614976   2.140893   3.256696
    17  H    5.060388   4.593373   4.988031   3.348017   3.767174
    18  H    4.732882   4.101523   5.011288   2.616174   2.426394
    19  H    7.382695   6.217548   6.493107   4.914021   4.672131
                    6          7          8          9         10
     6  N    0.000000
     7  C    1.459160   0.000000
     8  C    2.427840   1.492951   0.000000
     9  O    2.711880   2.385701   1.257359   0.000000
    10  O    3.674016   2.494218   1.388530   2.292895   0.000000
    11  H    4.288058   5.648210   6.636827   6.625452   7.817183
    12  H    3.725237   4.810259   5.983480   6.305974   6.985394
    13  H    3.107573   4.353453   5.533233   5.670063   6.741812
    14  H    3.419219   4.638552   5.250553   5.216582   6.256349
    15  H    3.306958   4.719968   5.419880   5.053694   6.775879
    16  H    1.044740   2.176476   2.947631   2.883267   4.304258
    17  H    2.108606   1.110370   2.137570   2.942618   2.992314
    18  H    2.107519   1.109891   2.132374   3.223336   2.623999
    19  H    4.347390   3.345299   2.095927   2.625174   1.011961
                   11         12         13         14         15
    11  H    0.000000
    12  H    1.799409   0.000000
    13  H    1.804407   1.807267   0.000000
    14  H    2.467487   2.497555   3.083881   0.000000
    15  H    2.544406   3.557283   2.207841   3.201534   0.000000
    16  H    4.177597   4.000704   2.915938   3.726774   2.642076
    17  H    6.092092   5.276336   4.568275   5.466150   5.016801
    18  H    5.817615   4.675175   4.610926   4.695587   5.357635
    19  H    8.321394   7.544170   7.408745   6.532305   7.302213
                   16         17         18         19
    16  H    0.000000
    17  H    2.442680   0.000000
    18  H    3.031703   1.801624   0.000000
    19  H    4.983914   3.961346   3.413613   0.000000
 Stoichiometry    C5H9NO3S
 Framework group  C1[X(C5H9NO3S)]
 Deg. of freedom    51
 Full point group                 C1      NOp   1
 Largest Abelian subgroup         C1      NOp   1
 Largest concise Abelian subgroup C1      NOp   1
                         Standard orientation:                         
 ---------------------------------------------------------------------
 Center     Atomic      Atomic             Coordinates (Angstroms)
 Number     Number       Type             X           Y           Z
 ---------------------------------------------------------------------
      1          6    10061003       -2.948632   -1.001688    0.548864
      2          6    10061003       -2.012272   -0.324045   -0.444311
      3         16    10161003       -2.102276    1.481723   -0.248891
      4          6    10061002       -0.600879   -0.795864   -0.244964
      5          8    10081002       -0.164428   -1.761571   -0.925298
      6          7    10071000        0.250353   -0.144488    0.703761
      7          6    10061003        1.629605   -0.575319    0.906721
      8          6    10061000        2.570456    0.290692    0.136185
      9          8    10081002        2.255104    1.476863   -0.136768
     10          8    10081000        3.783231   -0.224614   -0.301595
     11          1    10011000       -3.992270   -0.670194    0.370257
     12          1    10011000       -2.905659   -2.103523    0.422406
     13          1    10011000       -2.666232   -0.746374    1.591610
     14          1    10011000       -2.352972   -0.571856   -1.471351
     15          1    10011000       -2.659139    1.391209    1.039119
     16          1    10011000       -0.131093    0.655103    1.257508
     17          1    10011000        1.879455   -0.524561    1.987424
     18          1    10011000        1.742805   -1.626357    0.568545
     19          1    10011000        4.148118    0.012319   -1.215260
 ---------------------------------------------------------------------
 Rotational constants (GHZ):           2.0444880           0.5987812           0.5145204
 Leave Link  202 at Fri Mar 14 15:10:58 2025, MaxMem=   104857600 cpu:               0.0 elap:               0.0
 (Enter /home/enzo/gaussian_versions/gdv.j21/gdv/l301.exe)
 Standard basis: Dummy (5D, 7F)
 There are    19 symmetry adapted cartesian basis functions of A   symmetry.
 There are    19 symmetry adapted basis functions of A   symmetry.
    19 basis functions,    19 primitive gaussians,    19 cartesian basis functions
    14 alpha electrons       14 beta electrons
       nuclear repulsion energy        68.5592678446 Hartrees.
 IExCor=         0 DFT=F Ex=HF Corr=None N6=None ScaHFX=  1.000000
 ScaDFX=  1.000000  1.000000  1.000000  1.000000  1.000000  0.000000
 ScaDFX=  0.000000  0.000000  0.000000  0.000000  0.000000  0.000000
 IRadAn=      5 IRanWt=     -1 IRanGd=            0 ICorTp=0 IEmpDi=  4
 NAtoms=   19 NActive=   19 NUniq=   19 SFac= 1.00D+00 NAtFMM=   60 NAOKFM=F Big=F
 Integral buffers will be    131072 words long.
 Raffenetti 1 integral format.
 Two-electron integral symmetry is turned on.
 Leave Link  301 at Fri Mar 14 15:10:58 2025, MaxMem=   104857600 cpu:               0.0 elap:               0.0
 (Enter /home/enzo/gaussian_versions/gdv.j21/gdv/l402.exe)
 UFF calculation of energy.
 Energy per function type:
 Direct Coulomb + vdW (small)                           0.027535436
 Direct Coulomb (large)                                 0.000000000
 Direct vdW (large)                                   682.406322847
 Non-direct Coulomb + vdW (small)                      -0.014071884
 Non-direct Coulomb (large)                             0.000000000
 Non-direct vdW (large)                              -682.406322847
 Harmonic stretch III                                   0.010506117
 UFF 3-term bend                                        0.004904342
 UFF 2-term bend                                        0.000135014
 UFF torsion fixed V                                    0.004198892
 UFF torsion w/ bond order V                            0.016974514
 UFF torsion w/ sp3 V                                   0.001298018
 Three term Wilson angle                                0.000018414
 Energy per function class:
        Coulomb               0.000000000
    Vanderwaals               0.013463552
     Stretching               0.010506117
        Bending               0.005039356
        Torsion               0.022471425
   Out-of-plane               0.000018414
 Energy=    5.149886394E-02 NIter=   0.
 Dipole moment=       0.000000       0.000000       0.000000
 Leave Link  402 at Fri Mar 14 15:10:58 2025, MaxMem=   104857600 cpu:               0.0 elap:               0.0
 (Enter /home/enzo/gaussian_versions/gdv.j21/gdv/l9999.exe)
 Unable to Open any file for archive entry.
 1\1\GINC-ORACLE\SP\UFF\ZDO\C5H9N1O3S1\ENZO\14-Mar-2025\0\\#p UFF GEOM=
 READALLGIC OUTPUT=PICKETT\\individuo_5092.xyz\\0,1\C,0,2.977485,1.0440
 7,0.614504\C,0,2.055699,0.369054,-0.393974\S,0,2.15786,-1.437802,-0.21
 5307\C,0,0.638897,0.828079,-0.203313\O,0,0.20134,1.797044,-0.878284\N,
 0,-0.216069,0.160934,0.730986\C,0,-1.600449,0.579186,0.925163\C,0,-2.5
 27342,-0.286402,0.137427\O,0,-2.200282,-1.467391,-0.144086\O,0,-3.7399
 39,0.223876,-0.30669\H,0,4.025279,0.722341,0.442492\H,0,2.927161,2.146
 731,0.498381\H,0,2.687365,0.776388,1.652016\H,0,2.404027,0.629526,-1.4
 15307\H,0,2.701977,-1.355666,1.078698\H,0,0.16638,-0.641106,1.280482\H
 ,0,-1.859959,0.51592,2.002926\H,0,-1.718628,1.632593,0.596187\H,0,-4.0
 94448,-0.00687,-1.226007\\Version=ES64L-GDVRevJ.21\HF=0.0514989\RMSD=0
 .000e+00\Dipole=0.,0.,0.\PG=C01 [X(C5H9N1O3S1)]\\@
 The archive entry for this job was punched.
 DoSRE=F DoSRN=F DoDH=F DoFC=F DoNQ=F DoQCD=F DoSCD=F
 Inertia tensor (amu-bohr**2): 
                 1             2             3 
      1   0.882735D+03  0.897290D-04  0.141581D-03
      2   0.897290D-04  0.301402D+04 -0.218934D-04
      3   0.141581D-03 -0.218934D-04  0.350762D+04
 Principal inertia moments (amu-bohr**2):
 Iaa = 0.882735D+03 Ibb= 0.301402D+04 Icc= 0.350762D+04
 Rotation matrix to Principal Axis frame: 
                 1             2             3 
      1   0.100000D+01  0.000000D+00  0.000000D+00
      2   0.000000D+00  0.100000D+01  0.000000D+00
      3   0.000000D+00  0.000000D+00  0.100000D+01
                Principal axis orientation:                
 ---------------------------------------------------------------------
 Center     Atomic                     Coordinates (Angstroms)
 Number     Number                        X           Y           Z
 ---------------------------------------------------------------------
      1          6                    2.977485    1.044070    0.614504
      2          6                    2.055699    0.369054   -0.393974
      3         16                    2.157860   -1.437802   -0.215307
      4          6                    0.638897    0.828079   -0.203313
      5          8                    0.201340    1.797044   -0.878284
      6          7                   -0.216069    0.160934    0.730986
      7          6                   -1.600449    0.579186    0.925163
      8          6                   -2.527342   -0.286402    0.137427
      9          8                   -2.200282   -1.467391   -0.144086
     10          8                   -3.739939    0.223876   -0.306690
     11          1                    4.025279    0.722341    0.442492
     12          1                    2.927161    2.146731    0.498381
     13          1                    2.687365    0.776388    1.652016
     14          1                    2.404027    0.629526   -1.415307
     15          1                    2.701977   -1.355666    1.078698
     16          1                    0.166380   -0.641106    1.280482
     17          1                   -1.859959    0.515920    2.002926
     18          1                   -1.718628    1.632593    0.596187
     19          1                   -4.094448   -0.006870   -1.226007
 ---------------------------------------------------------------------
 Rotational constants (MHZ):
   2044.4879606    598.7812066    514.5203945
 Dipole moment (Debye):
      0.0000000      0.0000000      0.0000000  Tot=      0.0000000

 Atoms with significant hyperfine tensors: 

--------------------------------------------------------------------------------
 individuo_5092.xyz                                      
   99  1000  50  0.1760E-11  0.1000E+07  0.1000E+01 1.0000000000
a   1  0  0  0  1  1   1  0  1  0
     10000   0.20444880E+04    0.0000E+00   /  A  /
     20000   0.59878121E+03    0.0000E+00   /  B  /
     30000   0.51452039E+03    0.0000E+00   /  C  /
--------------------------------------------------------------------------------



 HEAVEN'S NET CASTS WIDE.
 THOUGH ITS MESHES ARE COARSE, NOTHING SLIPS THROUGH.

                                          -- LAO-TSU
 Job cpu time:       0 days  0 hours  0 minutes  0.2 seconds.
 Elapsed time:       0 days  0 hours  0 minutes  0.2 seconds.
 File lengths (MBytes):  RWF=     14 Int=      0 D2E=      0 Chk=      9 Scr=      1
 Normal termination of Gaussian DV at Fri Mar 14 15:10:58 2025.
