#p UFF GEOM=READALLGIC OUTPUT=PICKETT

individuo_5047.xyz

0 1
6 -1.851199 1.789363 -0.310468
6 -1.797866 0.454588 0.422944
16 -3.014054 -0.694066 -0.290198
6 -0.419927 -0.136432 0.343173
8 -0.152029 -0.973886 -0.558402
7 0.589589 0.258233 1.278095
6 1.939757 -0.291365 1.213784
6 2.555005 -0.021614 -0.119484
8 3.398270 -0.822164 -0.598001
8 2.214097 1.128898 -0.818140
1 -2.864485 2.231406 -0.216566
1 -1.119179 2.496767 0.131804
1 -1.618487 1.655015 -1.387524
1 -2.075157 0.627090 1.483912
1 -3.991781 -0.374572 0.668567
1 0.346806 0.954808 2.017908
1 2.564934 0.165005 2.009900
1 1.901620 -1.387814 1.381717
1 2.552024 1.283628 -1.759377

Dihed1 = D( 15, 3, 2, 14)
Dihed2 = D(  3, 2, 4, 5)
Dihed3 = D(  4, 6, 7, 8)
Dihed4 = D(  6, 7, 8, 9)
Dihed5 = D(  9, 8, 10, 19)

