#p UFF GEOM=READALLGIC OUTPUT=PICKETT

individuo_7386.xyz

0 1
6 2.776091 1.341181 0.581962
6 1.960282 0.443850 -0.340868
16 2.390971 -1.299050 -0.051223
6 0.490544 0.656784 -0.119710
8 0.076582 1.018548 1.013294
7 -0.436123 0.462802 -1.193313
6 -1.867657 0.675923 -1.007741
6 -2.411340 -0.263858 0.017013
8 -1.750846 -1.279156 0.354461
8 -3.659899 -0.028861 0.577274
1 3.858897 1.198928 0.386352
1 2.524859 2.406441 0.397622
1 2.570646 1.100376 1.645946
1 2.224750 0.689039 -1.390743
1 1.114802 -1.610426 0.450468
1 -0.071925 0.163202 -2.125559
1 -2.048556 1.722582 -0.684164
1 -2.394672 0.509259 -1.970204
1 -4.199619 -0.785450 0.977696

Dihed1 = D( 15, 3, 2, 14)
Dihed2 = D(  3, 2, 4, 5)
Dihed3 = D(  4, 6, 7, 8)
Dihed4 = D(  6, 7, 8, 9)
Dihed5 = D(  9, 8, 10, 19)

