 Entering Gaussian System, Link 0=gdv
 Input=../generations_tiopronin/population_40/temp_processing/individuo_1382.gjf
 Output=../generations_tiopronin/population_40/temp_processing/individuo_1382.log
 Initial command:
 /home/enzo/gaussian_versions/gdv.j21/gdv/l1.exe "/local/home/enzo/scratch/Gau-2337476.inp" -scrdir="/local/home/enzo/scratch/"
 Entering Link 1 = /home/enzo/gaussian_versions/gdv.j21/gdv/l1.exe PID=   2337477.
  
 Copyright (c) 1988-2022, Gaussian, Inc.  All Rights Reserved.
  
 This is the private, development version of
 the Gaussian(R) DV system of programs. It is based on
 the Gaussian(R) 16 system (copyright 2016, Gaussian, Inc.),
 the Gaussian(R) 09 system (copyright 2009, Gaussian, Inc.),
 the Gaussian(R) 03 system (copyright 2003, Gaussian, Inc.),
 the Gaussian(R) 98 system (copyright 1998, Gaussian, Inc.),
 the Gaussian(R) 94 system (copyright 1995, Gaussian, Inc.),
 the Gaussian 92(TM) system (copyright 1992, Gaussian, Inc.),
 the Gaussian 90(TM) system (copyright 1990, Gaussian, Inc.),
 the Gaussian 88(TM) system (copyright 1988, Gaussian, Inc.),
 the Gaussian 86(TM) system (copyright 1986, Carnegie Mellon
 University), and the Gaussian 82(TM) system (copyright 1983,
 Carnegie Mellon University). Gaussian is a federally registered
 trademark of Gaussian, Inc.
  
 This software contains proprietary and confidential information,
 including trade secrets, belonging to Gaussian, Inc.
  
 This software is provided under written license and may be
 used, copied, transmitted, or stored only in accord with that
 written license.
  
 The following legend is applicable only to US Government
 contracts under FAR:
  
                    RESTRICTED RIGHTS LEGEND
  
 Use, reproduction and disclosure by the US Government is
 subject to restrictions as set forth in subparagraphs (a)
 and (c) of the Commercial Computer Software - Restricted
 Rights clause in FAR 52.227-19.
  
 Gaussian, Inc.
 340 Quinnipiac St., Bldg. 40, Wallingford CT 06492
  
  
 ---------------------------------------------------------------
 Warning -- This program may not be used in any manner that
 competes with the business of Gaussian, Inc. or will provide
 assistance to any competitor of Gaussian, Inc.  The licensee
 of this program is prohibited from giving any competitor of
 Gaussian, Inc. access to this program.  By using this program,
 the user acknowledges that Gaussian, Inc. is engaged in the
 business of creating and licensing software in the field of
 computational chemistry and represents and warrants to the
 licensee that it is not a competitor of Gaussian, Inc. and that
 it will not use this program in any manner prohibited above.
 ---------------------------------------------------------------
  

 Cite this work as:
 Gaussian Development Version, Revision J.21,
 M. J. Frisch, G. W. Trucks, H. B. Schlegel, G. E. Scuseria, 
 M. A. Robb, J. R. Cheeseman, G. Scalmani, V. Barone, 
 G. A. Petersson, H. Nakatsuji, X. Li, A. V. Marenich, M. Caricato, 
 J. Bloino, B. G. Janesko, J. Zheng, R. Gomperts, B. Mennucci, 
 H. P. Hratchian, J. V. Ortiz, A. F. Izmaylov, J. L. Sonnenberg, 
 D. Williams-Young, F. Ding, F. Lipparini, F. Egidi, J. Goings, 
 B. Peng, A. Petrone, T. Henderson, D. Ranasinghe, V. G. Zakrzewski, 
 J. Gao, N. Rega, G. Zheng, W. Liang, M. Hada, M. Ehara, K. Toyota, 
 R. Fukuda, J. Hasegawa, M. Ishida, T. Nakajima, Y. Honda, O. Kitao, 
 H. Nakai, T. Vreven, K. Throssell, J. A. Montgomery, Jr., 
 J. E. Peralta, F. Ogliaro, M. J. Bearpark, J. J. Heyd, 
 E. N. Brothers, K. N. Kudin, V. N. Staroverov, T. A. Keith, 
 R. Kobayashi, J. Normand, K. Raghavachari, A. P. Rendell, 
 J. C. Burant, S. S. Iyengar, J. Tomasi, M. Cossi, J. M. Millam, 
 M. Klene, C. Adamo, R. Cammi, J. W. Ochterski, R. L. Martin, 
 K. Morokuma, O. Farkas, J. B. Foresman, and D. J. Fox, 
 Gaussian, Inc., Wallingford CT, 2020.
 
 ******************************************
 Gaussian DV:  ES64L-GDVRevJ.21 25-Jul-2022
                14-Mar-2025 
 ******************************************
 -------------------------------------
 #p UFF GEOM=READALLGIC OUTPUT=PICKETT
 -------------------------------------
 1/18=20,37=210000000,38=1,56=1,64=2,145=602,172=1/1;
 2/12=2/2;
 3/5=30,11=9,25=1,30=1,41=10020000,43=2/1;
 4/20=10,24=3/2;
 99/5=1,9=1,10=1024/99;
 Leave Link    1 at Fri Mar 14 15:10:50 2025, MaxMem=           0 cpu:               0.0 elap:               0.0
 (Enter /home/enzo/gaussian_versions/gdv.j21/gdv/l101.exe)
 ------------------
 individuo_1382.xyz
 ------------------
 Symbolic Z-matrix:
 Charge =     0 Multiplicity =     1
 6                    -2.36509   1.75179   0.14322 
 6                    -1.79252   0.38792   0.50982 
 16                   -2.97525  -0.92067   0.0673 
 6                    -0.4837    0.15994  -0.18975 
 8                    -0.16868   0.88067  -1.17324 
 7                     0.40903  -0.86233   0.26518 
 6                     1.69233  -1.09514  -0.38911 
 6                     2.70507  -0.09821   0.06847 
 8                     3.92285  -0.40891   0.10629 
 8                     2.2966    1.16422   0.47764 
 1                    -3.31466   1.92218   0.69118 
 1                    -1.65073   2.55323   0.42475 
 1                    -2.56574   1.81315  -0.94684 
 1                    -1.645     0.3546    1.60956 
 1                    -1.95854  -1.85194  -0.2089 
 1                     0.12888  -1.44871   1.0832 
 1                     2.04855  -2.12024  -0.15416 
 1                     1.56832  -1.00928  -1.4887 
 1                     2.96609   1.83895   0.82489 
 
 Initializing the GIC definitions file.

 CrInp1: Reading the GIC input below.
 Dihed1 = D( 15, 3, 2, 14)
 Dihed2 = D( 3, 2, 4, 5)
 Dihed3 = D( 4, 6, 7, 8)
 Dihed4 = D( 6, 7, 8, 9)
 Dihed5 = D( 9, 8, 10, 19)
 
 Warning:  Number of GICs=     5 3N-6=    51.
 ITRead=  0  0  0  0  0  0  0  0  0  0  0  0  0  0  0  0  0  0  0
 MicOpt= -1 -1 -1 -1 -1 -1 -1 -1 -1 -1 -1 -1 -1 -1 -1 -1 -1 -1 -1
                           ----------------------------
                           !    Current Parameters    !
                           ! (Angstroms and Degrees)  !
 --------------------------                            --------------------------
 ! Name   Definition             Value                                          !
 --------------------------------------------------------------------------------
 ! Dihed1 D(15,3,2,14)         -93.7436                                         !
 ! Dihed2 D(3,2,4,5)           105.2116                                         !
 ! Dihed3 D(4,6,7,8)            79.93                                           !
 ! Dihed4 D(6,7,8,9)           149.9626                                         !
 ! Dihed5 D(9,8,10,19)          -1.138                                          !
 --------------------------------------------------------------------------------
 NAtoms=     19 NQM=       19 NQMF=       0 NMMI=      0 NMMIF=      0
                NMic=       0 NMicF=      0.
                    Isotopes and Nuclear Properties:
 (Nuclear quadrupole moments (NQMom) in fm**2, nuclear magnetic moments (NMagM)
  in nuclear magnetons)

  Atom         1           2           3           4           5           6           7           8           9          10
 IAtWgt=          12          12          32          12          16          14          12          12          16          16
 AtmWgt=  12.0000000  12.0000000  31.9720718  12.0000000  15.9949146  14.0030740  12.0000000  12.0000000  15.9949146  15.9949146
 NucSpn=           0           0           0           0           0           2           0           0           0           0
 AtZEff=  -0.0000000  -0.0000000  -0.0000000  -0.0000000  -0.0000000  -0.0000000  -0.0000000  -0.0000000  -0.0000000  -0.0000000
 NQMom=    0.0000000   0.0000000   0.0000000   0.0000000   0.0000000   2.0440000   0.0000000   0.0000000   0.0000000   0.0000000
 NMagM=    0.0000000   0.0000000   0.0000000   0.0000000   0.0000000   0.4037610   0.0000000   0.0000000   0.0000000   0.0000000
 AtZNuc=   6.0000000   6.0000000  16.0000000   6.0000000   8.0000000   7.0000000   6.0000000   6.0000000   8.0000000   8.0000000

  Atom        11          12          13          14          15          16          17          18          19
 IAtWgt=           1           1           1           1           1           1           1           1           1
 AtmWgt=   1.0078250   1.0078250   1.0078250   1.0078250   1.0078250   1.0078250   1.0078250   1.0078250   1.0078250
 NucSpn=           1           1           1           1           1           1           1           1           1
 AtZEff=  -0.0000000  -0.0000000  -0.0000000  -0.0000000  -0.0000000  -0.0000000  -0.0000000  -0.0000000  -0.0000000
 NQMom=    0.0000000   0.0000000   0.0000000   0.0000000   0.0000000   0.0000000   0.0000000   0.0000000   0.0000000
 NMagM=    2.7928460   2.7928460   2.7928460   2.7928460   2.7928460   2.7928460   2.7928460   2.7928460   2.7928460
 AtZNuc=   1.0000000   1.0000000   1.0000000   1.0000000   1.0000000   1.0000000   1.0000000   1.0000000   1.0000000
 Generating MM parameters.
 Include all MM classes

 MM sanity checks:
 All charges sum to:                0.00000000
 Charges of atoms sum to:           0.00000000
 MMInit generated parameter data with length LenPar=        2803.
 Leave Link  101 at Fri Mar 14 15:10:50 2025, MaxMem=   104857600 cpu:               0.1 elap:               0.1
 (Enter /home/enzo/gaussian_versions/gdv.j21/gdv/l202.exe)
                          Input orientation:                          
 ---------------------------------------------------------------------
 Center     Atomic      Atomic             Coordinates (Angstroms)
 Number     Number       Type             X           Y           Z
 ---------------------------------------------------------------------
      1          6    10061003       -2.365090    1.751787    0.143219
      2          6    10061003       -1.792517    0.387923    0.509822
      3         16    10161003       -2.975250   -0.920665    0.067298
      4          6    10061002       -0.483700    0.159941   -0.189754
      5          8    10081002       -0.168677    0.880669   -1.173242
      6          7    10071000        0.409026   -0.862331    0.265177
      7          6    10061003        1.692327   -1.095144   -0.389105
      8          6    10061000        2.705073   -0.098211    0.068465
      9          8    10081002        3.922853   -0.408914    0.106291
     10          8    10081000        2.296597    1.164223    0.477637
     11          1    10011000       -3.314656    1.922177    0.691179
     12          1    10011000       -1.650725    2.553225    0.424747
     13          1    10011000       -2.565735    1.813147   -0.946842
     14          1    10011000       -1.644997    0.354598    1.609561
     15          1    10011000       -1.958538   -1.851936   -0.208902
     16          1    10011000        0.128878   -1.448714    1.083195
     17          1    10011000        2.048548   -2.120244   -0.154161
     18          1    10011000        1.568319   -1.009283   -1.488699
     19          1    10011000        2.966087    1.838951    0.824894
 ---------------------------------------------------------------------
                    Distance matrix (angstroms):
                    1          2          3          4          5
     1  C    0.000000
     2  C    1.523930   0.000000
     3  S    2.742273   1.818540   0.000000
     4  C    2.486860   1.501461   2.727931   0.000000
     5  O    2.704838   2.390054   3.558173   1.259340   0.000000
     6  N    3.813687   2.543576   3.390558   1.431420   2.332561
     7  C    4.985080   3.892518   4.693082   2.519935   2.825251
     8  C    5.397651   4.545265   5.739556   3.209609   3.280012
     9  O    6.648926   5.784742   6.917170   4.452971   4.476700
    10  O    4.710456   4.162275   5.683969   3.030519   2.980500
    11  H    1.109490   2.168809   2.930217   3.449033   3.802366
    12  H    1.109900   2.171607   3.734976   2.732648   2.747267
    13  H    1.110070   2.179679   2.944471   2.764262   2.581987
    14  H    2.149612   1.110089   2.403007   2.150357   3.193785
    15  H    3.643637   2.358198   1.406149   2.494627   3.405978
    16  H    4.164930   2.719145   3.308548   2.140893   3.256696
    17  H    5.878882   4.635251   5.169776   3.407754   3.867828
    18  H    5.075270   4.152287   4.803436   2.695390   2.586230
    19  H    5.375289   4.984884   6.594613   3.968579   3.838958
                    6          7          8          9         10
     6  N    0.000000
     7  C    1.459160   0.000000
     8  C    2.427840   1.492950   0.000000
     9  O    3.546521   2.385702   1.257360   0.000000
    10  O    2.777586   2.494218   1.388529   2.292895   0.000000
    11  H    4.669129   5.944840   6.380194   7.626114   5.666238
    12  H    3.991749   5.014873   5.111754   6.319846   4.184910
    13  H    4.180476   5.186552   5.697855   6.938906   5.108083
    14  H    2.739944   4.151403   4.637146   5.817536   4.180061
    15  H    2.609488   3.732830   4.990165   6.064027   5.260677
    16  H    1.044740   2.176477   3.080636   4.053365   3.448644
    17  H    2.108607   1.110370   2.137570   2.551373   3.353866
    18  H    2.107519   1.109891   2.132375   2.906590   3.020098
    19  H    3.761485   3.421282   2.095927   2.546505   1.011960
                   11         12         13         14         15
    11  H    0.000000
    12  H    1.799409   0.000000
    13  H    1.804407   1.807267   0.000000
    14  H    2.467487   2.497554   3.083881   0.000000
    15  H    4.110125   4.461133   3.787622   2.876440   0.000000
    16  H    4.834719   4.429002   4.692731   2.583724   2.487852
    17  H    6.769027   5.988411   6.114860   4.783078   4.016432
    18  H    6.098260   5.168654   5.034891   4.667418   3.845343
    19  H    6.282717   4.688844   5.808680   4.907250   6.240458
                   16         17         18         19
    16  H    0.000000
    17  H    2.380575   0.000000
    18  H    2.979887   1.801623   0.000000
    19  H    4.350312   4.180389   3.926691   0.000000
 Stoichiometry    C5H9NO3S
 Framework group  C1[X(C5H9NO3S)]
 Deg. of freedom    51
 Full point group                 C1      NOp   1
 Largest Abelian subgroup         C1      NOp   1
 Largest concise Abelian subgroup C1      NOp   1
                         Standard orientation:                         
 ---------------------------------------------------------------------
 Center     Atomic      Atomic             Coordinates (Angstroms)
 Number     Number       Type             X           Y           Z
 ---------------------------------------------------------------------
      1          6    10061003        2.368712    1.702886   -0.082861
      2          6    10061003        1.774392    0.358418   -0.484797
      3         16    10161003        2.933438   -0.980585   -0.071556
      4          6    10061002        0.459662    0.135402    0.205228
      5          8    10081002        0.153673    0.836794    1.205407
      6          7    10071000       -0.448715   -0.860013   -0.277432
      7          6    10061003       -1.737867   -1.087169    0.367265
      8          6    10061000       -2.732163   -0.062189   -0.068272
      9          8    10081002       -3.954884   -0.351174   -0.117216
     10          8    10081000       -2.301122    1.202883   -0.444847
     11          1    10011000        3.322783    1.870671   -0.623755
     12          1    10011000        1.668886    2.523042   -0.346423
     13          1    10011000        2.566844    1.733827    1.008946
     14          1    10011000        1.629881    0.354838   -1.585434
     15          1    10011000        1.900269   -1.901042    0.178596
     16          1    10011000       -0.175863   -1.430627   -1.108957
     17          1    10011000       -2.110576   -2.099952    0.105960
     18          1    10011000       -1.615978   -1.030675    1.468995
     19          1    10011000       -2.958006    1.897254   -0.777136
 ---------------------------------------------------------------------
 Rotational constants (GHZ):           2.5655940           0.5430557           0.4833313
 Leave Link  202 at Fri Mar 14 15:10:50 2025, MaxMem=   104857600 cpu:               0.0 elap:               0.0
 (Enter /home/enzo/gaussian_versions/gdv.j21/gdv/l301.exe)
 Standard basis: Dummy (5D, 7F)
 There are    19 symmetry adapted cartesian basis functions of A   symmetry.
 There are    19 symmetry adapted basis functions of A   symmetry.
    19 basis functions,    19 primitive gaussians,    19 cartesian basis functions
    14 alpha electrons       14 beta electrons
       nuclear repulsion energy        69.2256871941 Hartrees.
 IExCor=         0 DFT=F Ex=HF Corr=None N6=None ScaHFX=  1.000000
 ScaDFX=  1.000000  1.000000  1.000000  1.000000  1.000000  0.000000
 ScaDFX=  0.000000  0.000000  0.000000  0.000000  0.000000  0.000000
 IRadAn=      5 IRanWt=     -1 IRanGd=            0 ICorTp=0 IEmpDi=  4
 NAtoms=   19 NActive=   19 NUniq=   19 SFac= 1.00D+00 NAtFMM=   60 NAOKFM=F Big=F
 Integral buffers will be    131072 words long.
 Raffenetti 1 integral format.
 Two-electron integral symmetry is turned on.
 Leave Link  301 at Fri Mar 14 15:10:50 2025, MaxMem=   104857600 cpu:               0.0 elap:               0.0
 (Enter /home/enzo/gaussian_versions/gdv.j21/gdv/l402.exe)
 UFF calculation of energy.
 Energy per function type:
 Direct Coulomb + vdW (small)                           0.025406908
 Direct Coulomb (large)                                 0.000000000
 Direct vdW (large)                                   682.406528682
 Non-direct Coulomb + vdW (small)                      -0.014071888
 Non-direct Coulomb (large)                             0.000000000
 Non-direct vdW (large)                              -682.406528682
 Harmonic stretch III                                   0.010506230
 UFF 3-term bend                                        0.004904404
 UFF 2-term bend                                        0.000135013
 UFF torsion fixed V                                    0.004268735
 UFF torsion w/ bond order V                            0.000047696
 UFF torsion w/ sp3 V                                   0.000941397
 Three term Wilson angle                                0.000018415
 Energy per function class:
        Coulomb               0.000000000
    Vanderwaals               0.011335021
     Stretching               0.010506230
        Bending               0.005039417
        Torsion               0.005257827
   Out-of-plane               0.000018415
 Energy=    3.215690975E-02 NIter=   0.
 Dipole moment=       0.000000       0.000000       0.000000
 Leave Link  402 at Fri Mar 14 15:10:50 2025, MaxMem=   104857600 cpu:               0.0 elap:               0.0
 (Enter /home/enzo/gaussian_versions/gdv.j21/gdv/l9999.exe)
 Unable to Open any file for archive entry.
 1\1\GINC-ORACLE\SP\UFF\ZDO\C5H9N1O3S1\ENZO\14-Mar-2025\0\\#p UFF GEOM=
 READALLGIC OUTPUT=PICKETT\\individuo_1382.xyz\\0,1\C,0,-2.36509,1.7517
 87,0.143219\C,0,-1.792517,0.387923,0.509822\S,0,-2.97525,-0.920665,0.0
 67298\C,0,-0.4837,0.159941,-0.189754\O,0,-0.168677,0.880669,-1.173242\
 N,0,0.409026,-0.862331,0.265177\C,0,1.692327,-1.095144,-0.389105\C,0,2
 .705073,-0.098211,0.068465\O,0,3.922853,-0.408914,0.106291\O,0,2.29659
 7,1.164223,0.477637\H,0,-3.314656,1.922177,0.691179\H,0,-1.650725,2.55
 3225,0.424747\H,0,-2.565735,1.813147,-0.946842\H,0,-1.644997,0.354598,
 1.609561\H,0,-1.958538,-1.851936,-0.208902\H,0,0.128878,-1.448714,1.08
 3195\H,0,2.048548,-2.120244,-0.154161\H,0,1.568319,-1.009283,-1.488699
 \H,0,2.966087,1.838951,0.824894\\Version=ES64L-GDVRevJ.21\HF=0.0321569
 \RMSD=0.000e+00\Dipole=0.,0.,0.\PG=C01 [X(C5H9N1O3S1)]\\@
 The archive entry for this job was punched.
 DoSRE=F DoSRN=F DoDH=F DoFC=F DoNQ=F DoQCD=F DoSCD=F
 Inertia tensor (amu-bohr**2): 
                 1             2             3 
      1   0.703440D+03 -0.292374D-03 -0.809911D-04
      2  -0.292374D-03  0.332331D+04  0.777417D-04
      3  -0.809911D-04  0.777417D-04  0.373396D+04
 Principal inertia moments (amu-bohr**2):
 Iaa = 0.703440D+03 Ibb= 0.332331D+04 Icc= 0.373396D+04
 Rotation matrix to Principal Axis frame: 
                 1             2             3 
      1   0.100000D+01  0.000000D+00  0.000000D+00
      2   0.000000D+00  0.100000D+01  0.000000D+00
      3   0.000000D+00  0.000000D+00  0.100000D+01
                Principal axis orientation:                
 ---------------------------------------------------------------------
 Center     Atomic                     Coordinates (Angstroms)
 Number     Number                        X           Y           Z
 ---------------------------------------------------------------------
      1          6                   -2.365090    1.751787    0.143219
      2          6                   -1.792517    0.387923    0.509822
      3         16                   -2.975250   -0.920665    0.067298
      4          6                   -0.483700    0.159941   -0.189754
      5          8                   -0.168677    0.880669   -1.173242
      6          7                    0.409026   -0.862331    0.265177
      7          6                    1.692327   -1.095144   -0.389105
      8          6                    2.705073   -0.098211    0.068465
      9          8                    3.922853   -0.408914    0.106291
     10          8                    2.296597    1.164223    0.477637
     11          1                   -3.314656    1.922177    0.691179
     12          1                   -1.650725    2.553225    0.424747
     13          1                   -2.565735    1.813147   -0.946842
     14          1                   -1.644997    0.354598    1.609561
     15          1                   -1.958538   -1.851936   -0.208902
     16          1                    0.128878   -1.448714    1.083195
     17          1                    2.048548   -2.120244   -0.154162
     18          1                    1.568319   -1.009283   -1.488699
     19          1                    2.966087    1.838950    0.824894
 ---------------------------------------------------------------------
 Rotational constants (MHZ):
   2565.5940284    543.0556568    483.3312790
 Dipole moment (Debye):
      0.0000000      0.0000000      0.0000000  Tot=      0.0000000

 Atoms with significant hyperfine tensors: 

--------------------------------------------------------------------------------
 individuo_1382.xyz                                      
   99  1000  50  0.1760E-11  0.1000E+07  0.1000E+01 1.0000000000
a   1  0  0  0  1  1   1  0  1  0
     10000   0.25655940E+04    0.0000E+00   /  A  /
     20000   0.54305566E+03    0.0000E+00   /  B  /
     30000   0.48333128E+03    0.0000E+00   /  C  /
--------------------------------------------------------------------------------



 GOD DOES NOT PLAY WITH DICE.
               -- A. EINSTEIN
 Job cpu time:       0 days  0 hours  0 minutes  0.2 seconds.
 Elapsed time:       0 days  0 hours  0 minutes  0.2 seconds.
 File lengths (MBytes):  RWF=     14 Int=      0 D2E=      0 Chk=      9 Scr=      1
 Normal termination of Gaussian DV at Fri Mar 14 15:10:50 2025.
