#p UFF GEOM=READALLGIC OUTPUT=PICKETT

individuo_6713.xyz

0 1
6 2.652743 1.550780 -0.617916
6 1.869235 0.243792 -0.601722
16 2.849056 -1.056825 0.207866
6 0.559356 0.422803 0.110004
8 0.278574 1.535570 0.628509
7 -0.372835 -0.660604 0.188827
6 -1.657782 -0.508313 0.863266
6 -2.741893 -0.232599 -0.125463
8 -2.632620 -0.639186 -1.310242
8 -3.859045 0.496897 0.259015
1 3.602804 1.414441 -1.174481
1 2.062260 2.342888 -1.123657
1 2.888337 1.880040 0.415688
1 1.690160 -0.069736 -1.651451
1 2.797548 -0.421756 1.461378
1 -0.120718 -1.575294 -0.248507
1 -1.895038 -1.436514 1.424579
1 -1.600119 0.333629 1.584144
1 -4.138046 0.545141 1.230557

Dihed1 = D( 15, 3, 2, 14)
Dihed2 = D(  3, 2, 4, 5)
Dihed3 = D(  4, 6, 7, 8)
Dihed4 = D(  6, 7, 8, 9)
Dihed5 = D(  9, 8, 10, 19)

