 Entering Gaussian System, Link 0=gdv
 Input=../generations_tiopronin/population_40/temp_processing/individuo_4355.gjf
 Output=../generations_tiopronin/population_40/temp_processing/individuo_4355.log
 Initial command:
 /home/enzo/gaussian_versions/gdv.j21/gdv/l1.exe "/local/home/enzo/scratch/Gau-2337498.inp" -scrdir="/local/home/enzo/scratch/"
 Entering Link 1 = /home/enzo/gaussian_versions/gdv.j21/gdv/l1.exe PID=   2337499.
  
 Copyright (c) 1988-2022, Gaussian, Inc.  All Rights Reserved.
  
 This is the private, development version of
 the Gaussian(R) DV system of programs. It is based on
 the Gaussian(R) 16 system (copyright 2016, Gaussian, Inc.),
 the Gaussian(R) 09 system (copyright 2009, Gaussian, Inc.),
 the Gaussian(R) 03 system (copyright 2003, Gaussian, Inc.),
 the Gaussian(R) 98 system (copyright 1998, Gaussian, Inc.),
 the Gaussian(R) 94 system (copyright 1995, Gaussian, Inc.),
 the Gaussian 92(TM) system (copyright 1992, Gaussian, Inc.),
 the Gaussian 90(TM) system (copyright 1990, Gaussian, Inc.),
 the Gaussian 88(TM) system (copyright 1988, Gaussian, Inc.),
 the Gaussian 86(TM) system (copyright 1986, Carnegie Mellon
 University), and the Gaussian 82(TM) system (copyright 1983,
 Carnegie Mellon University). Gaussian is a federally registered
 trademark of Gaussian, Inc.
  
 This software contains proprietary and confidential information,
 including trade secrets, belonging to Gaussian, Inc.
  
 This software is provided under written license and may be
 used, copied, transmitted, or stored only in accord with that
 written license.
  
 The following legend is applicable only to US Government
 contracts under FAR:
  
                    RESTRICTED RIGHTS LEGEND
  
 Use, reproduction and disclosure by the US Government is
 subject to restrictions as set forth in subparagraphs (a)
 and (c) of the Commercial Computer Software - Restricted
 Rights clause in FAR 52.227-19.
  
 Gaussian, Inc.
 340 Quinnipiac St., Bldg. 40, Wallingford CT 06492
  
  
 ---------------------------------------------------------------
 Warning -- This program may not be used in any manner that
 competes with the business of Gaussian, Inc. or will provide
 assistance to any competitor of Gaussian, Inc.  The licensee
 of this program is prohibited from giving any competitor of
 Gaussian, Inc. access to this program.  By using this program,
 the user acknowledges that Gaussian, Inc. is engaged in the
 business of creating and licensing software in the field of
 computational chemistry and represents and warrants to the
 licensee that it is not a competitor of Gaussian, Inc. and that
 it will not use this program in any manner prohibited above.
 ---------------------------------------------------------------
  

 Cite this work as:
 Gaussian Development Version, Revision J.21,
 M. J. Frisch, G. W. Trucks, H. B. Schlegel, G. E. Scuseria, 
 M. A. Robb, J. R. Cheeseman, G. Scalmani, V. Barone, 
 G. A. Petersson, H. Nakatsuji, X. Li, A. V. Marenich, M. Caricato, 
 J. Bloino, B. G. Janesko, J. Zheng, R. Gomperts, B. Mennucci, 
 H. P. Hratchian, J. V. Ortiz, A. F. Izmaylov, J. L. Sonnenberg, 
 D. Williams-Young, F. Ding, F. Lipparini, F. Egidi, J. Goings, 
 B. Peng, A. Petrone, T. Henderson, D. Ranasinghe, V. G. Zakrzewski, 
 J. Gao, N. Rega, G. Zheng, W. Liang, M. Hada, M. Ehara, K. Toyota, 
 R. Fukuda, J. Hasegawa, M. Ishida, T. Nakajima, Y. Honda, O. Kitao, 
 H. Nakai, T. Vreven, K. Throssell, J. A. Montgomery, Jr., 
 J. E. Peralta, F. Ogliaro, M. J. Bearpark, J. J. Heyd, 
 E. N. Brothers, K. N. Kudin, V. N. Staroverov, T. A. Keith, 
 R. Kobayashi, J. Normand, K. Raghavachari, A. P. Rendell, 
 J. C. Burant, S. S. Iyengar, J. Tomasi, M. Cossi, J. M. Millam, 
 M. Klene, C. Adamo, R. Cammi, J. W. Ochterski, R. L. Martin, 
 K. Morokuma, O. Farkas, J. B. Foresman, and D. J. Fox, 
 Gaussian, Inc., Wallingford CT, 2020.
 
 ******************************************
 Gaussian DV:  ES64L-GDVRevJ.21 25-Jul-2022
                14-Mar-2025 
 ******************************************
 -------------------------------------
 #p UFF GEOM=READALLGIC OUTPUT=PICKETT
 -------------------------------------
 1/18=20,37=210000000,38=1,56=1,64=2,145=602,172=1/1;
 2/12=2/2;
 3/5=30,11=9,25=1,30=1,41=10020000,43=2/1;
 4/20=10,24=3/2;
 99/5=1,9=1,10=1024/99;
 Leave Link    1 at Fri Mar 14 15:10:53 2025, MaxMem=           0 cpu:               0.0 elap:               0.0
 (Enter /home/enzo/gaussian_versions/gdv.j21/gdv/l101.exe)
 ------------------
 individuo_4355.xyz
 ------------------
 Symbolic Z-matrix:
 Charge =     0 Multiplicity =     1
 6                     3.01262   1.14224   0.25463 
 6                     1.97826   0.29578  -0.47748 
 16                    2.24974  -1.46562  -0.11574 
 6                     0.58831   0.69765  -0.07633 
 8                     0.38397   1.17468   1.07111 
 7                    -0.49856   0.55235  -0.99643 
 6                    -1.85603   0.94764  -0.63562 
 6                    -2.53648  -0.14117   0.12621 
 8                    -1.9696   -0.6651    1.11874 
 8                    -3.7853   -0.5926   -0.27961 
 1                     4.03358   0.85868  -0.07431 
 1                     2.85745   2.21691   0.02469 
 1                     2.93649   0.99286   1.35197 
 1                     2.11495   0.44323  -1.56921 
 1                     3.53516  -1.23867   0.40718 
 1                    -0.30745   0.15508  -1.9436 
 1                    -1.82256   1.86861  -0.01626 
 1                    -2.43586   1.16422  -1.55689 
 1                    -4.24387  -1.35432   0.20367 
 
 Initializing the GIC definitions file.

 CrInp1: Reading the GIC input below.
 Dihed1 = D( 15, 3, 2, 14)
 Dihed2 = D( 3, 2, 4, 5)
 Dihed3 = D( 4, 6, 7, 8)
 Dihed4 = D( 6, 7, 8, 9)
 Dihed5 = D( 9, 8, 10, 19)
 
 Warning:  Number of GICs=     5 3N-6=    51.
 ITRead=  0  0  0  0  0  0  0  0  0  0  0  0  0  0  0  0  0  0  0
 MicOpt= -1 -1 -1 -1 -1 -1 -1 -1 -1 -1 -1 -1 -1 -1 -1 -1 -1 -1 -1
                           ----------------------------
                           !    Current Parameters    !
                           ! (Angstroms and Degrees)  !
 --------------------------                            --------------------------
 ! Name   Definition             Value                                          !
 --------------------------------------------------------------------------------
 ! Dihed1 D(15,3,2,14)         103.0821                                         !
 ! Dihed2 D(3,2,4,5)            92.771                                          !
 ! Dihed3 D(4,6,7,8)           -83.4446                                         !
 ! Dihed4 D(6,7,8,9)            50.6099                                         !
 ! Dihed5 D(9,8,10,19)          -1.1378                                         !
 --------------------------------------------------------------------------------
 NAtoms=     19 NQM=       19 NQMF=       0 NMMI=      0 NMMIF=      0
                NMic=       0 NMicF=      0.
                    Isotopes and Nuclear Properties:
 (Nuclear quadrupole moments (NQMom) in fm**2, nuclear magnetic moments (NMagM)
  in nuclear magnetons)

  Atom         1           2           3           4           5           6           7           8           9          10
 IAtWgt=          12          12          32          12          16          14          12          12          16          16
 AtmWgt=  12.0000000  12.0000000  31.9720718  12.0000000  15.9949146  14.0030740  12.0000000  12.0000000  15.9949146  15.9949146
 NucSpn=           0           0           0           0           0           2           0           0           0           0
 AtZEff=  -0.0000000  -0.0000000  -0.0000000  -0.0000000  -0.0000000  -0.0000000  -0.0000000  -0.0000000  -0.0000000  -0.0000000
 NQMom=    0.0000000   0.0000000   0.0000000   0.0000000   0.0000000   2.0440000   0.0000000   0.0000000   0.0000000   0.0000000
 NMagM=    0.0000000   0.0000000   0.0000000   0.0000000   0.0000000   0.4037610   0.0000000   0.0000000   0.0000000   0.0000000
 AtZNuc=   6.0000000   6.0000000  16.0000000   6.0000000   8.0000000   7.0000000   6.0000000   6.0000000   8.0000000   8.0000000

  Atom        11          12          13          14          15          16          17          18          19
 IAtWgt=           1           1           1           1           1           1           1           1           1
 AtmWgt=   1.0078250   1.0078250   1.0078250   1.0078250   1.0078250   1.0078250   1.0078250   1.0078250   1.0078250
 NucSpn=           1           1           1           1           1           1           1           1           1
 AtZEff=  -0.0000000  -0.0000000  -0.0000000  -0.0000000  -0.0000000  -0.0000000  -0.0000000  -0.0000000  -0.0000000
 NQMom=    0.0000000   0.0000000   0.0000000   0.0000000   0.0000000   0.0000000   0.0000000   0.0000000   0.0000000
 NMagM=    2.7928460   2.7928460   2.7928460   2.7928460   2.7928460   2.7928460   2.7928460   2.7928460   2.7928460
 AtZNuc=   1.0000000   1.0000000   1.0000000   1.0000000   1.0000000   1.0000000   1.0000000   1.0000000   1.0000000
 Generating MM parameters.
 Include all MM classes

 MM sanity checks:
 All charges sum to:                0.00000000
 Charges of atoms sum to:           0.00000000
 MMInit generated parameter data with length LenPar=        2803.
 Leave Link  101 at Fri Mar 14 15:10:53 2025, MaxMem=   104857600 cpu:               0.1 elap:               0.1
 (Enter /home/enzo/gaussian_versions/gdv.j21/gdv/l202.exe)
                          Input orientation:                          
 ---------------------------------------------------------------------
 Center     Atomic      Atomic             Coordinates (Angstroms)
 Number     Number       Type             X           Y           Z
 ---------------------------------------------------------------------
      1          6    10061003        3.012616    1.142235    0.254633
      2          6    10061003        1.978261    0.295783   -0.477481
      3         16    10161003        2.249736   -1.465618   -0.115739
      4          6    10061002        0.588308    0.697646   -0.076334
      5          8    10081002        0.383965    1.174675    1.071108
      6          7    10071000       -0.498560    0.552354   -0.996427
      7          6    10061003       -1.856029    0.947635   -0.635620
      8          6    10061000       -2.536478   -0.141172    0.126213
      9          8    10081002       -1.969598   -0.665098    1.118736
     10          8    10081000       -3.785295   -0.592596   -0.279605
     11          1    10011000        4.033578    0.858680   -0.074307
     12          1    10011000        2.857448    2.216910    0.024691
     13          1    10011000        2.936485    0.992860    1.351969
     14          1    10011000        2.114946    0.443228   -1.569212
     15          1    10011000        3.535157   -1.238671    0.407180
     16          1    10011000       -0.307446    0.155082   -1.943597
     17          1    10011000       -1.822557    1.868610   -0.016261
     18          1    10011000       -2.435860    1.164222   -1.556892
     19          1    10011000       -4.243869   -1.354320    0.203665
 ---------------------------------------------------------------------
                    Distance matrix (angstroms):
                    1          2          3          4          5
     1  C    0.000000
     2  C    1.523930   0.000000
     3  S    2.742273   1.818540   0.000000
     4  C    2.486859   1.501460   2.727931   0.000000
     5  O    2.752724   2.390054   3.443959   1.259339   0.000000
     6  N    3.773787   2.543575   3.521499   1.431420   2.332560
     7  C    4.953193   3.892518   4.790759   2.519936   2.825251
     8  C    5.697023   4.575833   4.971976   3.241748   3.339651
     9  O    5.369877   4.365409   4.468505   3.134987   2.987690
    10  O    7.036096   5.834976   6.100051   4.564477   4.725505
    11  H    1.109490   2.168808   2.930217   3.449032   3.838164
    12  H    1.109899   2.171607   3.734976   2.732648   2.880861
    13  H    1.110070   2.179678   2.944470   2.764260   2.574354
    14  H    2.149612   1.110090   2.403008   2.150357   3.240771
    15  H    2.442342   2.358198   1.406149   3.559077   4.024307
    16  H    4.102377   2.719145   3.536511   2.140893   3.256695
    17  H    4.896928   4.139170   5.264080   2.680865   2.555906
    18  H    5.741776   4.626422   5.563074   3.399314   3.854595
    19  H    7.674110   6.473152   6.502408   5.257271   5.344635
                    6          7          8          9         10
     6  N    0.000000
     7  C    1.459161   0.000000
     8  C    2.427840   1.492950   0.000000
     9  O    2.849571   2.385701   1.257360   0.000000
    10  O    3.553501   2.494218   1.388530   2.292895   0.000000
    11  H    4.635128   5.916963   6.648725   6.307406   7.955069
    12  H    3.882811   4.925844   5.887724   5.727415   7.218861
    13  H    4.184321   5.188521   5.722048   5.183905   7.096339
    14  H    2.677761   4.110312   4.985151   5.013676   6.127713
    15  H    4.631280   5.910351   6.176423   5.580110   7.380928
    16  H    1.044739   2.176477   3.056217   3.579571   3.927254
    17  H    2.108607   1.110370   2.137570   2.780201   3.158991
    18  H    2.107519   1.109890   2.132374   3.274568   2.557117
    19  H    4.370694   3.421283   2.095927   2.546506   1.011960
                   11         12         13         14         15
    11  H    0.000000
    12  H    1.799409   0.000000
    13  H    1.804406   1.807266   0.000000
    14  H    2.467487   2.497556   3.083881   0.000000
    15  H    2.208876   3.542122   2.496150   2.958363   0.000000
    16  H    4.778471   4.259325   4.699544   2.468031   4.715326
    17  H    5.942865   4.693127   5.028665   4.466240   6.208027
    18  H    6.644174   5.623937   6.111704   4.607583   6.729377
    19  H    8.572676   7.950750   7.641030   6.841696   7.782547
                   16         17         18         19
    16  H    0.000000
    17  H    2.991047   0.000000
    18  H    2.387059   1.801623   0.000000
    19  H    4.731221   4.037127   3.565321   0.000000
 Stoichiometry    C5H9NO3S
 Framework group  C1[X(C5H9NO3S)]
 Deg. of freedom    51
 Full point group                 C1      NOp   1
 Largest Abelian subgroup         C1      NOp   1
 Largest concise Abelian subgroup C1      NOp   1
                         Standard orientation:                         
 ---------------------------------------------------------------------
 Center     Atomic      Atomic             Coordinates (Angstroms)
 Number     Number       Type             X           Y           Z
 ---------------------------------------------------------------------
      1          6    10061003       -2.988450   -1.071580    0.280146
      2          6    10061003       -1.939406   -0.255983   -0.465958
      3         16    10161003       -2.192822    1.517068   -0.151060
      4          6    10061002       -0.556958   -0.663367   -0.044936
      5          8    10081002       -0.365925   -1.113270    1.115680
      6          7    10071000        0.537712   -0.554054   -0.960747
      7          6    10061003        1.888028   -0.955515   -0.580448
      8          6    10061000        2.575930    0.144515    0.158217
      9          8    10081002        2.008491    0.700052    1.133073
     10          8    10081000        3.832621    0.571109   -0.250145
     11          1    10011000       -4.003802   -0.784840   -0.063085
     12          1    10011000       -2.844237   -2.153478    0.078714
     13          1    10011000       -2.917997   -0.895134    1.373836
     14          1    10011000       -2.070422   -0.429663   -1.554521
     15          1    10011000       -3.484295    1.318270    0.368394
     16          1    10011000        0.357628   -0.178918   -1.919039
     17          1    10011000        1.839671   -1.859943    0.061887
     18          1    10011000        2.471508   -1.202164   -1.491805
     19          1    10011000        4.296746    1.339616    0.216811
 ---------------------------------------------------------------------
 Rotational constants (GHZ):           2.1989250           0.5685974           0.5199801
 Leave Link  202 at Fri Mar 14 15:10:53 2025, MaxMem=   104857600 cpu:               0.0 elap:               0.0
 (Enter /home/enzo/gaussian_versions/gdv.j21/gdv/l301.exe)
 Standard basis: Dummy (5D, 7F)
 There are    19 symmetry adapted cartesian basis functions of A   symmetry.
 There are    19 symmetry adapted basis functions of A   symmetry.
    19 basis functions,    19 primitive gaussians,    19 cartesian basis functions
    14 alpha electrons       14 beta electrons
       nuclear repulsion energy        68.2923461034 Hartrees.
 IExCor=         0 DFT=F Ex=HF Corr=None N6=None ScaHFX=  1.000000
 ScaDFX=  1.000000  1.000000  1.000000  1.000000  1.000000  0.000000
 ScaDFX=  0.000000  0.000000  0.000000  0.000000  0.000000  0.000000
 IRadAn=      5 IRanWt=     -1 IRanGd=            0 ICorTp=0 IEmpDi=  4
 NAtoms=   19 NActive=   19 NUniq=   19 SFac= 1.00D+00 NAtFMM=   60 NAOKFM=F Big=F
 Integral buffers will be    131072 words long.
 Raffenetti 1 integral format.
 Two-electron integral symmetry is turned on.
 Leave Link  301 at Fri Mar 14 15:10:53 2025, MaxMem=   104857600 cpu:               0.0 elap:               0.0
 (Enter /home/enzo/gaussian_versions/gdv.j21/gdv/l402.exe)
 UFF calculation of energy.
 Energy per function type:
 Direct Coulomb + vdW (small)                           0.025631888
 Direct Coulomb (large)                                 0.000000000
 Direct vdW (large)                                   682.407875391
 Non-direct Coulomb + vdW (small)                      -0.014071850
 Non-direct Coulomb (large)                             0.000000000
 Non-direct vdW (large)                              -682.407875391
 Harmonic stretch III                                   0.010506211
 UFF 3-term bend                                        0.004904329
 UFF 2-term bend                                        0.000135010
 UFF torsion fixed V                                    0.003677023
 UFF torsion w/ bond order V                            0.000047691
 UFF torsion w/ sp3 V                                   0.001343895
 Three term Wilson angle                                0.000018416
 Energy per function class:
        Coulomb               0.000000000
    Vanderwaals               0.011560038
     Stretching               0.010506211
        Bending               0.005039340
        Torsion               0.005068608
   Out-of-plane               0.000018416
 Energy=    3.219261171E-02 NIter=   0.
 Dipole moment=       0.000000       0.000000       0.000000
 Leave Link  402 at Fri Mar 14 15:10:53 2025, MaxMem=   104857600 cpu:               0.0 elap:               0.0
 (Enter /home/enzo/gaussian_versions/gdv.j21/gdv/l9999.exe)
 Unable to Open any file for archive entry.
 1\1\GINC-ORACLE\SP\UFF\ZDO\C5H9N1O3S1\ENZO\14-Mar-2025\0\\#p UFF GEOM=
 READALLGIC OUTPUT=PICKETT\\individuo_4355.xyz\\0,1\C,0,3.012616,1.1422
 35,0.254633\C,0,1.978261,0.295783,-0.477481\S,0,2.249736,-1.465618,-0.
 115739\C,0,0.588308,0.697646,-0.076334\O,0,0.383965,1.174675,1.071108\
 N,0,-0.49856,0.552354,-0.996427\C,0,-1.856029,0.947635,-0.63562\C,0,-2
 .536478,-0.141172,0.126213\O,0,-1.969598,-0.665098,1.118736\O,0,-3.785
 295,-0.592596,-0.279605\H,0,4.033578,0.85868,-0.074307\H,0,2.857448,2.
 21691,0.024691\H,0,2.936485,0.99286,1.351969\H,0,2.114946,0.443228,-1.
 569212\H,0,3.535157,-1.238671,0.40718\H,0,-0.307446,0.155082,-1.943597
 \H,0,-1.822557,1.86861,-0.016261\H,0,-2.43586,1.164222,-1.556892\H,0,-
 4.243869,-1.35432,0.203665\\Version=ES64L-GDVRevJ.21\HF=0.0321926\RMSD
 =0.000e+00\Dipole=0.,0.,0.\PG=C01 [X(C5H9N1O3S1)]\\@
 The archive entry for this job was punched.
 DoSRE=F DoSRN=F DoDH=F DoFC=F DoNQ=F DoQCD=F DoSCD=F
 Inertia tensor (amu-bohr**2): 
                 1             2             3 
      1   0.820738D+03 -0.734414D-04 -0.911305D-04
      2  -0.734414D-04  0.317402D+04  0.584639D-04
      3  -0.911305D-04  0.584639D-04  0.347079D+04
 Principal inertia moments (amu-bohr**2):
 Iaa = 0.820738D+03 Ibb= 0.317402D+04 Icc= 0.347079D+04
 Rotation matrix to Principal Axis frame: 
                 1             2             3 
      1   0.100000D+01  0.000000D+00  0.000000D+00
      2   0.000000D+00  0.100000D+01  0.000000D+00
      3   0.000000D+00  0.000000D+00  0.100000D+01
                Principal axis orientation:                
 ---------------------------------------------------------------------
 Center     Atomic                     Coordinates (Angstroms)
 Number     Number                        X           Y           Z
 ---------------------------------------------------------------------
      1          6                    3.012616    1.142235    0.254633
      2          6                    1.978261    0.295783   -0.477481
      3         16                    2.249736   -1.465618   -0.115739
      4          6                    0.588308    0.697646   -0.076334
      5          8                    0.383965    1.174675    1.071108
      6          7                   -0.498560    0.552354   -0.996427
      7          6                   -1.856029    0.947635   -0.635620
      8          6                   -2.536478   -0.141172    0.126213
      9          8                   -1.969598   -0.665098    1.118736
     10          8                   -3.785295   -0.592596   -0.279605
     11          1                    4.033578    0.858680   -0.074307
     12          1                    2.857448    2.216910    0.024691
     13          1                    2.936485    0.992860    1.351969
     14          1                    2.114946    0.443228   -1.569212
     15          1                    3.535157   -1.238671    0.407180
     16          1                   -0.307446    0.155082   -1.943597
     17          1                   -1.822557    1.868610   -0.016261
     18          1                   -2.435860    1.164222   -1.556892
     19          1                   -4.243869   -1.354320    0.203665
 ---------------------------------------------------------------------
 Rotational constants (MHZ):
   2198.9250368    568.5974361    519.9801214
 Dipole moment (Debye):
      0.0000000      0.0000000      0.0000000  Tot=      0.0000000

 Atoms with significant hyperfine tensors: 

--------------------------------------------------------------------------------
 individuo_4355.xyz                                      
   99  1000  50  0.1760E-11  0.1000E+07  0.1000E+01 1.0000000000
a   1  0  0  0  1  1   1  0  1  0
     10000   0.21989250E+04    0.0000E+00   /  A  /
     20000   0.56859744E+03    0.0000E+00   /  B  /
     30000   0.51998012E+03    0.0000E+00   /  C  /
--------------------------------------------------------------------------------



 10 WHATSOEVER THY HAND FINDETH TO DO, DO IT WITH THY  
 MIGHT. FOR THERE IS NO WORK, NOR DEVICE, NOR KNOWLEDGE, NOR  
 WISDOM, IN THE GRAVE, WHITHER THOU GOEST.                    
 11 I RETURNED AND SAW UNDER THE SUN, THAT THE RACE IS NOT TO 
 THE SWIFT, NOR THE BATTLE TO THE STRONG, NEITHER YET BREAD TO
 THE WISE, NOR YET RICHES TO MEN OF UNDERSTANDING, NOR YET    
 FAVOR TO MEN OF SKILL. BUT TIME AND CHANCE HAPPEN TO THEM ALL.
 12 FOR MAN ALSO KNOWETH NOT HIS TIME. AS THE FISHES   
 THAT ARE TAKEN IN AN EVIL NET, AND AS THE BIRDS THAT ARE     
 CAUGHT IN THE SNARE. SO ARE THE SONS OF MEN SNARED IN AN EVIL
 TIME, WHEN IT FALLETH SUDDENLY UPON THEM.
                                         ECCLESIASTES 9
 Job cpu time:       0 days  0 hours  0 minutes  0.2 seconds.
 Elapsed time:       0 days  0 hours  0 minutes  0.2 seconds.
 File lengths (MBytes):  RWF=     14 Int=      0 D2E=      0 Chk=      9 Scr=      1
 Normal termination of Gaussian DV at Fri Mar 14 15:10:53 2025.
