#p UFF GEOM=READALLGIC OUTPUT=PICKETT

individuo_3673.xyz

0 1
6 2.469767 1.337830 -1.206055
6 1.865521 0.041142 -0.680843
16 3.127173 -0.911941 0.217465
6 0.698038 0.329393 0.218200
8 0.901304 0.719882 1.398089
7 -0.640331 0.174368 -0.265225
6 -1.791723 0.460621 0.584189
6 -3.037054 -0.113600 -0.005998
8 -4.075498 0.589917 -0.093472
8 -3.054078 -1.434518 -0.433667
1 3.309865 1.111137 -1.894395
1 1.705143 1.915099 -1.766401
1 2.851197 1.960161 -0.369711
1 1.534347 -0.567057 -1.548436
1 3.232515 0.046764 1.240717
1 -0.787060 -0.150051 -1.247418
1 -1.625746 0.027853 1.593191
1 -1.911311 1.559157 0.687981
1 -2.206222 -1.889276 -0.747351

Dihed1 = D( 15, 3, 2, 14)
Dihed2 = D(  3, 2, 4, 5)
Dihed3 = D(  4, 6, 7, 8)
Dihed4 = D(  6, 7, 8, 9)
Dihed5 = D(  9, 8, 10, 19)

