 Entering Gaussian System, Link 0=gdv
 Input=../generations_tiopronin/population_40/temp_processing/individuo_9350.gjf
 Output=../generations_tiopronin/population_40/temp_processing/individuo_9350.log
 Initial command:
 /home/enzo/gaussian_versions/gdv.j21/gdv/l1.exe "/local/home/enzo/scratch/Gau-2337506.inp" -scrdir="/local/home/enzo/scratch/"
 Entering Link 1 = /home/enzo/gaussian_versions/gdv.j21/gdv/l1.exe PID=   2337507.
  
 Copyright (c) 1988-2022, Gaussian, Inc.  All Rights Reserved.
  
 This is the private, development version of
 the Gaussian(R) DV system of programs. It is based on
 the Gaussian(R) 16 system (copyright 2016, Gaussian, Inc.),
 the Gaussian(R) 09 system (copyright 2009, Gaussian, Inc.),
 the Gaussian(R) 03 system (copyright 2003, Gaussian, Inc.),
 the Gaussian(R) 98 system (copyright 1998, Gaussian, Inc.),
 the Gaussian(R) 94 system (copyright 1995, Gaussian, Inc.),
 the Gaussian 92(TM) system (copyright 1992, Gaussian, Inc.),
 the Gaussian 90(TM) system (copyright 1990, Gaussian, Inc.),
 the Gaussian 88(TM) system (copyright 1988, Gaussian, Inc.),
 the Gaussian 86(TM) system (copyright 1986, Carnegie Mellon
 University), and the Gaussian 82(TM) system (copyright 1983,
 Carnegie Mellon University). Gaussian is a federally registered
 trademark of Gaussian, Inc.
  
 This software contains proprietary and confidential information,
 including trade secrets, belonging to Gaussian, Inc.
  
 This software is provided under written license and may be
 used, copied, transmitted, or stored only in accord with that
 written license.
  
 The following legend is applicable only to US Government
 contracts under FAR:
  
                    RESTRICTED RIGHTS LEGEND
  
 Use, reproduction and disclosure by the US Government is
 subject to restrictions as set forth in subparagraphs (a)
 and (c) of the Commercial Computer Software - Restricted
 Rights clause in FAR 52.227-19.
  
 Gaussian, Inc.
 340 Quinnipiac St., Bldg. 40, Wallingford CT 06492
  
  
 ---------------------------------------------------------------
 Warning -- This program may not be used in any manner that
 competes with the business of Gaussian, Inc. or will provide
 assistance to any competitor of Gaussian, Inc.  The licensee
 of this program is prohibited from giving any competitor of
 Gaussian, Inc. access to this program.  By using this program,
 the user acknowledges that Gaussian, Inc. is engaged in the
 business of creating and licensing software in the field of
 computational chemistry and represents and warrants to the
 licensee that it is not a competitor of Gaussian, Inc. and that
 it will not use this program in any manner prohibited above.
 ---------------------------------------------------------------
  

 Cite this work as:
 Gaussian Development Version, Revision J.21,
 M. J. Frisch, G. W. Trucks, H. B. Schlegel, G. E. Scuseria, 
 M. A. Robb, J. R. Cheeseman, G. Scalmani, V. Barone, 
 G. A. Petersson, H. Nakatsuji, X. Li, A. V. Marenich, M. Caricato, 
 J. Bloino, B. G. Janesko, J. Zheng, R. Gomperts, B. Mennucci, 
 H. P. Hratchian, J. V. Ortiz, A. F. Izmaylov, J. L. Sonnenberg, 
 D. Williams-Young, F. Ding, F. Lipparini, F. Egidi, J. Goings, 
 B. Peng, A. Petrone, T. Henderson, D. Ranasinghe, V. G. Zakrzewski, 
 J. Gao, N. Rega, G. Zheng, W. Liang, M. Hada, M. Ehara, K. Toyota, 
 R. Fukuda, J. Hasegawa, M. Ishida, T. Nakajima, Y. Honda, O. Kitao, 
 H. Nakai, T. Vreven, K. Throssell, J. A. Montgomery, Jr., 
 J. E. Peralta, F. Ogliaro, M. J. Bearpark, J. J. Heyd, 
 E. N. Brothers, K. N. Kudin, V. N. Staroverov, T. A. Keith, 
 R. Kobayashi, J. Normand, K. Raghavachari, A. P. Rendell, 
 J. C. Burant, S. S. Iyengar, J. Tomasi, M. Cossi, J. M. Millam, 
 M. Klene, C. Adamo, R. Cammi, J. W. Ochterski, R. L. Martin, 
 K. Morokuma, O. Farkas, J. B. Foresman, and D. J. Fox, 
 Gaussian, Inc., Wallingford CT, 2020.
 
 ******************************************
 Gaussian DV:  ES64L-GDVRevJ.21 25-Jul-2022
                14-Mar-2025 
 ******************************************
 -------------------------------------
 #p UFF GEOM=READALLGIC OUTPUT=PICKETT
 -------------------------------------
 1/18=20,37=210000000,38=1,56=1,64=2,145=602,172=1/1;
 2/12=2/2;
 3/5=30,11=9,25=1,30=1,41=10020000,43=2/1;
 4/20=10,24=3/2;
 99/5=1,9=1,10=1024/99;
 Leave Link    1 at Fri Mar 14 15:10:54 2025, MaxMem=           0 cpu:               0.0 elap:               0.0
 (Enter /home/enzo/gaussian_versions/gdv.j21/gdv/l101.exe)
 ------------------
 individuo_9350.xyz
 ------------------
 Symbolic Z-matrix:
 Charge =     0 Multiplicity =     1
 6                    -1.58358   1.91081   0.02747 
 6                    -1.85422   0.50001   0.53614 
 16                   -3.23914  -0.2362   -0.38422 
 6                    -0.62809  -0.35528   0.39668 
 8                    -0.7149   -1.48424  -0.15456 
 7                     0.63682   0.11352   0.87542 
 6                     1.84543  -0.69276   0.74006 
 6                     2.8258   -0.02388  -0.16569 
 8                     3.94295   0.34553   0.27755 
 8                     2.49104   0.21358  -1.49218 
 1                    -2.48577   2.54154   0.16599 
 1                    -0.74742   2.36741   0.59689 
 1                    -1.32052   1.89555  -1.05087 
 1                    -2.15186   0.56415   1.60366 
 1                    -3.53124  -1.15468   0.63966 
 1                     0.68722   1.05329   1.32906 
 1                     2.30596  -0.8425    1.73926 
 1                     1.58265  -1.68651   0.32141 
 1                     1.59676  -0.08174  -1.86246 
 
 Initializing the GIC definitions file.

 CrInp1: Reading the GIC input below.
 Dihed1 = D( 15, 3, 2, 14)
 Dihed2 = D( 3, 2, 4, 5)
 Dihed3 = D( 4, 6, 7, 8)
 Dihed4 = D( 6, 7, 8, 9)
 Dihed5 = D( 9, 8, 10, 19)
 
 Warning:  Number of GICs=     5 3N-6=    51.
 ITRead=  0  0  0  0  0  0  0  0  0  0  0  0  0  0  0  0  0  0  0
 MicOpt= -1 -1 -1 -1 -1 -1 -1 -1 -1 -1 -1 -1 -1 -1 -1 -1 -1 -1 -1
                           ----------------------------
                           !    Current Parameters    !
                           ! (Angstroms and Degrees)  !
 --------------------------                            --------------------------
 ! Name   Definition             Value                                          !
 --------------------------------------------------------------------------------
 ! Dihed1 D(15,3,2,14)         -39.3886                                         !
 ! Dihed2 D(3,2,4,5)            -8.2178                                         !
 ! Dihed3 D(4,6,7,8)           115.2336                                         !
 ! Dihed4 D(6,7,8,9)           116.7248                                         !
 ! Dihed5 D(9,8,10,19)         179.7603                                         !
 --------------------------------------------------------------------------------
 NAtoms=     19 NQM=       19 NQMF=       0 NMMI=      0 NMMIF=      0
                NMic=       0 NMicF=      0.
                    Isotopes and Nuclear Properties:
 (Nuclear quadrupole moments (NQMom) in fm**2, nuclear magnetic moments (NMagM)
  in nuclear magnetons)

  Atom         1           2           3           4           5           6           7           8           9          10
 IAtWgt=          12          12          32          12          16          14          12          12          16          16
 AtmWgt=  12.0000000  12.0000000  31.9720718  12.0000000  15.9949146  14.0030740  12.0000000  12.0000000  15.9949146  15.9949146
 NucSpn=           0           0           0           0           0           2           0           0           0           0
 AtZEff=  -0.0000000  -0.0000000  -0.0000000  -0.0000000  -0.0000000  -0.0000000  -0.0000000  -0.0000000  -0.0000000  -0.0000000
 NQMom=    0.0000000   0.0000000   0.0000000   0.0000000   0.0000000   2.0440000   0.0000000   0.0000000   0.0000000   0.0000000
 NMagM=    0.0000000   0.0000000   0.0000000   0.0000000   0.0000000   0.4037610   0.0000000   0.0000000   0.0000000   0.0000000
 AtZNuc=   6.0000000   6.0000000  16.0000000   6.0000000   8.0000000   7.0000000   6.0000000   6.0000000   8.0000000   8.0000000

  Atom        11          12          13          14          15          16          17          18          19
 IAtWgt=           1           1           1           1           1           1           1           1           1
 AtmWgt=   1.0078250   1.0078250   1.0078250   1.0078250   1.0078250   1.0078250   1.0078250   1.0078250   1.0078250
 NucSpn=           1           1           1           1           1           1           1           1           1
 AtZEff=  -0.0000000  -0.0000000  -0.0000000  -0.0000000  -0.0000000  -0.0000000  -0.0000000  -0.0000000  -0.0000000
 NQMom=    0.0000000   0.0000000   0.0000000   0.0000000   0.0000000   0.0000000   0.0000000   0.0000000   0.0000000
 NMagM=    2.7928460   2.7928460   2.7928460   2.7928460   2.7928460   2.7928460   2.7928460   2.7928460   2.7928460
 AtZNuc=   1.0000000   1.0000000   1.0000000   1.0000000   1.0000000   1.0000000   1.0000000   1.0000000   1.0000000
 Generating MM parameters.
 Include all MM classes

 MM sanity checks:
 All charges sum to:                0.00000000
 Charges of atoms sum to:           0.00000000
 MMInit generated parameter data with length LenPar=        2803.
 Leave Link  101 at Fri Mar 14 15:10:54 2025, MaxMem=   104857600 cpu:               0.1 elap:               0.1
 (Enter /home/enzo/gaussian_versions/gdv.j21/gdv/l202.exe)
                          Input orientation:                          
 ---------------------------------------------------------------------
 Center     Atomic      Atomic             Coordinates (Angstroms)
 Number     Number       Type             X           Y           Z
 ---------------------------------------------------------------------
      1          6    10061003       -1.583577    1.910812    0.027469
      2          6    10061003       -1.854221    0.500009    0.536144
      3         16    10161003       -3.239142   -0.236203   -0.384222
      4          6    10061002       -0.628086   -0.355284    0.396682
      5          8    10081002       -0.714898   -1.484239   -0.154555
      6          7    10071000        0.636823    0.113522    0.875421
      7          6    10061003        1.845430   -0.692762    0.740056
      8          6    10061000        2.825799   -0.023880   -0.165689
      9          8    10081002        3.942954    0.345529    0.277545
     10          8    10081000        2.491043    0.213576   -1.492176
     11          1    10011000       -2.485772    2.541543    0.165991
     12          1    10011000       -0.747418    2.367407    0.596889
     13          1    10011000       -1.320520    1.895551   -1.050874
     14          1    10011000       -2.151856    0.564149    1.603664
     15          1    10011000       -3.531242   -1.154676    0.639664
     16          1    10011000        0.687220    1.053285    1.329057
     17          1    10011000        2.305961   -0.842500    1.739261
     18          1    10011000        1.582649   -1.686510    0.321406
     19          1    10011000        1.596760   -0.081742   -1.862459
 ---------------------------------------------------------------------
                    Distance matrix (angstroms):
                    1          2          3          4          5
     1  C    0.000000
     2  C    1.523930   0.000000
     3  S    2.742272   1.818540   0.000000
     4  C    2.486860   1.501460   2.727930   0.000000
     5  O    3.509146   2.390055   2.825270   1.259340   0.000000
     6  N    2.979841   2.543576   4.090491   1.431421   2.332561
     7  C    4.363997   3.892519   5.227363   2.519936   2.825251
     8  C    4.819019   4.761262   6.072590   3.515027   3.830053
     9  O    5.749365   5.804996   7.235942   4.625985   5.022982
    10  O    4.668239   4.803899   5.853621   3.690576   3.866505
    11  H    1.109489   2.168809   2.930217   3.449032   4.409724
    12  H    1.109901   2.171607   3.734977   2.732649   3.924398
    13  H    1.110070   2.179679   2.944471   2.764261   3.548682
    14  H    2.149612   1.110090   2.403007   2.150358   3.058116
    15  H    3.683123   2.358198   1.406150   3.020990   2.944688
    16  H    2.754270   2.719145   4.473748   2.140892   3.256696
    17  H    5.063543   4.533976   5.968663   3.263208   3.622700
    18  H    4.801261   4.079100   5.084385   2.581701   2.355032
    19  H    4.201981   4.242759   5.059149   3.182528   3.198077
                    6          7          8          9         10
     6  N    0.000000
     7  C    1.459160   0.000000
     8  C    2.427840   1.492950   0.000000
     9  O    3.367757   2.385701   1.257360   0.000000
    10  O    3.008930   2.494218   1.388530   2.292895   0.000000
    11  H    4.018604   5.435953   5.907977   6.794368   5.739132
    12  H    2.659643   4.013476   4.366653   5.117574   4.414840
    13  H    3.273749   4.464307   4.654001   5.645478   4.189487
    14  H    2.917213   4.278310   5.315396   6.241241   5.591390
    15  H    4.363104   5.397411   6.506863   7.631864   6.533358
    16  H    1.044739   2.176477   2.822777   3.493766   3.452281
    17  H    2.108606   1.110370   2.137570   2.495551   3.404664
    18  H    2.107519   1.109890   2.132375   3.114827   2.779314
    19  H    2.907850   2.684822   2.095928   3.204185   1.011961
                   11         12         13         14         15
    11  H    0.000000
    12  H    1.799409   0.000000
    13  H    1.804405   1.807268   0.000000
    14  H    2.467487   2.497555   3.083881   0.000000
    15  H    3.870324   4.489607   4.129055   2.405486   0.000000
    16  H    3.692630   2.078743   3.225601   2.893962   4.811006
    17  H    6.073519   4.575111   5.332274   4.676450   5.948067
    18  H    5.869637   4.683946   4.810686   4.544907   5.151312
    19  H    5.259591   4.188304   3.616473   5.146193   5.805877
                   16         17         18         19
    16  H    0.000000
    17  H    2.526379   0.000000
    18  H    3.053462   1.801623   0.000000
    19  H    3.507324   3.748881   2.710119   0.000000
 Stoichiometry    C5H9NO3S
 Framework group  C1[X(C5H9NO3S)]
 Deg. of freedom    51
 Full point group                 C1      NOp   1
 Largest Abelian subgroup         C1      NOp   1
 Largest concise Abelian subgroup C1      NOp   1
                         Standard orientation:                         
 ---------------------------------------------------------------------
 Center     Atomic      Atomic             Coordinates (Angstroms)
 Number     Number       Type             X           Y           Z
 ---------------------------------------------------------------------
      1          6    10061003        1.585270    1.862451   -0.025348
      2          6    10061003        1.838168    0.442077   -0.516207
      3         16    10161003        3.210267   -0.301715    0.417178
      4          6    10061002        0.600110   -0.394755   -0.370240
      5          8    10081002        0.669952   -1.518058    0.194782
      6          7    10071000       -0.656909    0.085369   -0.858452
      7          6    10061003       -1.876762   -0.702749   -0.717117
      8          6    10061000       -2.850564   -0.009756    0.177518
      9          8    10081002       -3.961298    0.369410   -0.273544
     10          8    10081000       -2.516459    0.239106    1.502077
     11          1    10011000        2.496362    2.479165   -0.168670
     12          1    10011000        0.757057    2.323455   -0.602773
     13          1    10011000        1.318902    1.863760    1.052289
     14          1    10011000        2.139745    0.489300   -1.583503
     15          1    10011000        3.492813   -1.236342   -0.594700
     16          1    10011000       -0.693197    1.020193   -1.323496
     17          1    10011000       -2.336386   -0.858256   -1.715858
     18          1    10011000       -1.628743   -1.694854   -0.285756
     19          1    10011000       -1.627355   -0.063836    1.878621
 ---------------------------------------------------------------------
 Rotational constants (GHZ):           2.6057618           0.4932572           0.4755167
 Leave Link  202 at Fri Mar 14 15:10:54 2025, MaxMem=   104857600 cpu:               0.0 elap:               0.0
 (Enter /home/enzo/gaussian_versions/gdv.j21/gdv/l301.exe)
 Standard basis: Dummy (5D, 7F)
 There are    19 symmetry adapted cartesian basis functions of A   symmetry.
 There are    19 symmetry adapted basis functions of A   symmetry.
    19 basis functions,    19 primitive gaussians,    19 cartesian basis functions
    14 alpha electrons       14 beta electrons
       nuclear repulsion energy        69.2517142962 Hartrees.
 IExCor=         0 DFT=F Ex=HF Corr=None N6=None ScaHFX=  1.000000
 ScaDFX=  1.000000  1.000000  1.000000  1.000000  1.000000  0.000000
 ScaDFX=  0.000000  0.000000  0.000000  0.000000  0.000000  0.000000
 IRadAn=      5 IRanWt=     -1 IRanGd=            0 ICorTp=0 IEmpDi=  4
 NAtoms=   19 NActive=   19 NUniq=   19 SFac= 1.00D+00 NAtFMM=   60 NAOKFM=F Big=F
 Integral buffers will be    131072 words long.
 Raffenetti 1 integral format.
 Two-electron integral symmetry is turned on.
 Leave Link  301 at Fri Mar 14 15:10:54 2025, MaxMem=   104857600 cpu:               0.0 elap:               0.0
 (Enter /home/enzo/gaussian_versions/gdv.j21/gdv/l402.exe)
 UFF calculation of energy.
 Energy per function type:
 Direct Coulomb + vdW (small)                           0.027194615
 Direct Coulomb (large)                                 0.000000000
 Direct vdW (large)                                   682.406588120
 Non-direct Coulomb + vdW (small)                      -0.014071859
 Non-direct Coulomb (large)                             0.000000000
 Non-direct vdW (large)                              -682.406588120
 Harmonic stretch III                                   0.010506291
 UFF 3-term bend                                        0.004904379
 UFF 2-term bend                                        0.000135017
 UFF torsion fixed V                                    0.000471055
 UFF torsion w/ bond order V                            0.000016425
 UFF torsion w/ sp3 V                                   0.000457245
 Three term Wilson angle                                0.000018417
 Energy per function class:
        Coulomb               0.000000000
    Vanderwaals               0.013122756
     Stretching               0.010506291
        Bending               0.005039396
        Torsion               0.000944726
   Out-of-plane               0.000018417
 Energy=    2.963158563E-02 NIter=   0.
 Dipole moment=       0.000000       0.000000       0.000000
 Leave Link  402 at Fri Mar 14 15:10:54 2025, MaxMem=   104857600 cpu:               0.0 elap:               0.0
 (Enter /home/enzo/gaussian_versions/gdv.j21/gdv/l9999.exe)
 Unable to Open any file for archive entry.
 1\1\GINC-ORACLE\SP\UFF\ZDO\C5H9N1O3S1\ENZO\14-Mar-2025\0\\#p UFF GEOM=
 READALLGIC OUTPUT=PICKETT\\individuo_9350.xyz\\0,1\C,0,-1.583577,1.910
 812,0.027469\C,0,-1.854221,0.500009,0.536144\S,0,-3.239142,-0.236203,-
 0.384222\C,0,-0.628086,-0.355284,0.396682\O,0,-0.714898,-1.484239,-0.1
 54555\N,0,0.636823,0.113522,0.875421\C,0,1.84543,-0.692762,0.740056\C,
 0,2.825799,-0.02388,-0.165689\O,0,3.942954,0.345529,0.277545\O,0,2.491
 043,0.213576,-1.492176\H,0,-2.485772,2.541543,0.165991\H,0,-0.747418,2
 .367407,0.596889\H,0,-1.32052,1.895551,-1.050874\H,0,-2.151856,0.56414
 9,1.603664\H,0,-3.531242,-1.154676,0.639664\H,0,0.68722,1.053285,1.329
 057\H,0,2.305961,-0.8425,1.739261\H,0,1.582649,-1.68651,0.321406\H,0,1
 .59676,-0.081742,-1.862459\\Version=ES64L-GDVRevJ.21\HF=0.0296316\RMSD
 =0.000e+00\Dipole=0.,0.,0.\PG=C01 [X(C5H9N1O3S1)]\\@
 The archive entry for this job was punched.
 DoSRE=F DoSRN=F DoDH=F DoFC=F DoNQ=F DoQCD=F DoSCD=F
 Inertia tensor (amu-bohr**2): 
                 1             2             3 
      1   0.692596D+03 -0.718895D-04 -0.101521D-03
      2  -0.718895D-04  0.365882D+04 -0.259623D-04
      3  -0.101521D-03 -0.259623D-04  0.379533D+04
 Principal inertia moments (amu-bohr**2):
 Iaa = 0.692596D+03 Ibb= 0.365882D+04 Icc= 0.379533D+04
 Rotation matrix to Principal Axis frame: 
                 1             2             3 
      1   0.100000D+01  0.000000D+00  0.000000D+00
      2   0.000000D+00  0.100000D+01  0.000000D+00
      3   0.000000D+00  0.000000D+00  0.100000D+01
                Principal axis orientation:                
 ---------------------------------------------------------------------
 Center     Atomic                     Coordinates (Angstroms)
 Number     Number                        X           Y           Z
 ---------------------------------------------------------------------
      1          6                   -1.583577    1.910812    0.027469
      2          6                   -1.854221    0.500009    0.536144
      3         16                   -3.239142   -0.236203   -0.384222
      4          6                   -0.628086   -0.355284    0.396682
      5          8                   -0.714898   -1.484239   -0.154555
      6          7                    0.636823    0.113522    0.875421
      7          6                    1.845430   -0.692762    0.740056
      8          6                    2.825799   -0.023880   -0.165689
      9          8                    3.942954    0.345529    0.277545
     10          8                    2.491043    0.213576   -1.492176
     11          1                   -2.485772    2.541543    0.165991
     12          1                   -0.747418    2.367407    0.596889
     13          1                   -1.320520    1.895551   -1.050874
     14          1                   -2.151856    0.564149    1.603664
     15          1                   -3.531242   -1.154676    0.639664
     16          1                    0.687220    1.053285    1.329057
     17          1                    2.305961   -0.842500    1.739261
     18          1                    1.582649   -1.686510    0.321406
     19          1                    1.596760   -0.081742   -1.862459
 ---------------------------------------------------------------------
 Rotational constants (MHZ):
   2605.7618393    493.2572064    475.5166519
 Dipole moment (Debye):
      0.0000000      0.0000000      0.0000000  Tot=      0.0000000

 Atoms with significant hyperfine tensors: 

--------------------------------------------------------------------------------
 individuo_9350.xyz                                      
   99  1000  50  0.1760E-11  0.1000E+07  0.1000E+01 1.0000000000
a   1  0  0  0  1  1   1  0  1  0
     10000   0.26057618E+04    0.0000E+00   /  A  /
     20000   0.49325721E+03    0.0000E+00   /  B  /
     30000   0.47551665E+03    0.0000E+00   /  C  /
--------------------------------------------------------------------------------



 If your ship doesn't come in, swim out to it!
                          -- Jonathan Winters
 Job cpu time:       0 days  0 hours  0 minutes  0.2 seconds.
 Elapsed time:       0 days  0 hours  0 minutes  0.2 seconds.
 File lengths (MBytes):  RWF=     14 Int=      0 D2E=      0 Chk=      9 Scr=      1
 Normal termination of Gaussian DV at Fri Mar 14 15:10:54 2025.
