#p UFF GEOM=READALLGIC OUTPUT=PICKETT

individuo_4140.xyz

0 1
6 3.156035 1.078882 -0.600070
6 2.029832 0.052423 -0.579729
16 2.508507 -1.373448 0.442450
6 0.765885 0.666530 -0.050869
8 0.830044 1.563769 0.830484
7 -0.506302 0.245119 -0.553778
6 -1.748339 0.835430 -0.065901
6 -2.842991 -0.179648 -0.049931
8 -2.650635 -1.321669 -0.539564
8 -4.082567 0.148706 0.482657
1 4.074774 0.622858 -1.023069
1 2.871682 1.944142 -1.234378
1 3.376459 1.440145 0.426165
1 1.869336 -0.311368 -1.616163
1 1.808646 -0.899765 1.566317
1 -0.537389 -0.500172 -1.285253
1 -1.593927 1.230523 0.960247
1 -2.042617 1.677449 -0.726400
1 -4.882582 -0.455744 0.345987

Dihed1 = D( 15, 3, 2, 14)
Dihed2 = D(  3, 2, 4, 5)
Dihed3 = D(  4, 6, 7, 8)
Dihed4 = D(  6, 7, 8, 9)
Dihed5 = D(  9, 8, 10, 19)

