 Entering Gaussian System, Link 0=gdv
 Input=../generations_tiopronin/population_40/temp_processing/individuo_8297.gjf
 Output=../generations_tiopronin/population_40/temp_processing/individuo_8297.log
 Initial command:
 /home/enzo/gaussian_versions/gdv.j21/gdv/l1.exe "/local/home/enzo/scratch/Gau-2337508.inp" -scrdir="/local/home/enzo/scratch/"
 Entering Link 1 = /home/enzo/gaussian_versions/gdv.j21/gdv/l1.exe PID=   2337509.
  
 Copyright (c) 1988-2022, Gaussian, Inc.  All Rights Reserved.
  
 This is the private, development version of
 the Gaussian(R) DV system of programs. It is based on
 the Gaussian(R) 16 system (copyright 2016, Gaussian, Inc.),
 the Gaussian(R) 09 system (copyright 2009, Gaussian, Inc.),
 the Gaussian(R) 03 system (copyright 2003, Gaussian, Inc.),
 the Gaussian(R) 98 system (copyright 1998, Gaussian, Inc.),
 the Gaussian(R) 94 system (copyright 1995, Gaussian, Inc.),
 the Gaussian 92(TM) system (copyright 1992, Gaussian, Inc.),
 the Gaussian 90(TM) system (copyright 1990, Gaussian, Inc.),
 the Gaussian 88(TM) system (copyright 1988, Gaussian, Inc.),
 the Gaussian 86(TM) system (copyright 1986, Carnegie Mellon
 University), and the Gaussian 82(TM) system (copyright 1983,
 Carnegie Mellon University). Gaussian is a federally registered
 trademark of Gaussian, Inc.
  
 This software contains proprietary and confidential information,
 including trade secrets, belonging to Gaussian, Inc.
  
 This software is provided under written license and may be
 used, copied, transmitted, or stored only in accord with that
 written license.
  
 The following legend is applicable only to US Government
 contracts under FAR:
  
                    RESTRICTED RIGHTS LEGEND
  
 Use, reproduction and disclosure by the US Government is
 subject to restrictions as set forth in subparagraphs (a)
 and (c) of the Commercial Computer Software - Restricted
 Rights clause in FAR 52.227-19.
  
 Gaussian, Inc.
 340 Quinnipiac St., Bldg. 40, Wallingford CT 06492
  
  
 ---------------------------------------------------------------
 Warning -- This program may not be used in any manner that
 competes with the business of Gaussian, Inc. or will provide
 assistance to any competitor of Gaussian, Inc.  The licensee
 of this program is prohibited from giving any competitor of
 Gaussian, Inc. access to this program.  By using this program,
 the user acknowledges that Gaussian, Inc. is engaged in the
 business of creating and licensing software in the field of
 computational chemistry and represents and warrants to the
 licensee that it is not a competitor of Gaussian, Inc. and that
 it will not use this program in any manner prohibited above.
 ---------------------------------------------------------------
  

 Cite this work as:
 Gaussian Development Version, Revision J.21,
 M. J. Frisch, G. W. Trucks, H. B. Schlegel, G. E. Scuseria, 
 M. A. Robb, J. R. Cheeseman, G. Scalmani, V. Barone, 
 G. A. Petersson, H. Nakatsuji, X. Li, A. V. Marenich, M. Caricato, 
 J. Bloino, B. G. Janesko, J. Zheng, R. Gomperts, B. Mennucci, 
 H. P. Hratchian, J. V. Ortiz, A. F. Izmaylov, J. L. Sonnenberg, 
 D. Williams-Young, F. Ding, F. Lipparini, F. Egidi, J. Goings, 
 B. Peng, A. Petrone, T. Henderson, D. Ranasinghe, V. G. Zakrzewski, 
 J. Gao, N. Rega, G. Zheng, W. Liang, M. Hada, M. Ehara, K. Toyota, 
 R. Fukuda, J. Hasegawa, M. Ishida, T. Nakajima, Y. Honda, O. Kitao, 
 H. Nakai, T. Vreven, K. Throssell, J. A. Montgomery, Jr., 
 J. E. Peralta, F. Ogliaro, M. J. Bearpark, J. J. Heyd, 
 E. N. Brothers, K. N. Kudin, V. N. Staroverov, T. A. Keith, 
 R. Kobayashi, J. Normand, K. Raghavachari, A. P. Rendell, 
 J. C. Burant, S. S. Iyengar, J. Tomasi, M. Cossi, J. M. Millam, 
 M. Klene, C. Adamo, R. Cammi, J. W. Ochterski, R. L. Martin, 
 K. Morokuma, O. Farkas, J. B. Foresman, and D. J. Fox, 
 Gaussian, Inc., Wallingford CT, 2020.
 
 ******************************************
 Gaussian DV:  ES64L-GDVRevJ.21 25-Jul-2022
                14-Mar-2025 
 ******************************************
 -------------------------------------
 #p UFF GEOM=READALLGIC OUTPUT=PICKETT
 -------------------------------------
 1/18=20,37=210000000,38=1,56=1,64=2,145=602,172=1/1;
 2/12=2/2;
 3/5=30,11=9,25=1,30=1,41=10020000,43=2/1;
 4/20=10,24=3/2;
 99/5=1,9=1,10=1024/99;
 Leave Link    1 at Fri Mar 14 15:10:54 2025, MaxMem=           0 cpu:               0.0 elap:               0.0
 (Enter /home/enzo/gaussian_versions/gdv.j21/gdv/l101.exe)
 ------------------
 individuo_8297.xyz
 ------------------
 Symbolic Z-matrix:
 Charge =     0 Multiplicity =     1
 6                    -1.83218   1.84887  -0.06453 
 6                    -1.85042   0.43615   0.50667 
 16                   -3.33875  -0.44248  -0.059 
 6                    -0.61806  -0.31568   0.09387 
 8                    -0.65242  -1.05927  -0.92193 
 7                     0.59465  -0.17943   0.84203 
 6                     1.80926  -0.88887   0.45399 
 6                     2.83663   0.06651  -0.05654 
 8                     2.48767   1.1916   -0.49625 
 8                     4.17579  -0.30026  -0.06964 
 1                    -2.73079   2.40456   0.27411 
 1                    -0.9315    2.39182   0.29024 
 1                    -1.82503   1.82351  -1.17429 
 1                    -1.89795   0.50693   1.61348 
 1                    -3.76111   0.63215  -0.86152 
 1                     0.60201   0.44297   1.6811 
 1                     2.21535  -1.43692   1.33015 
 1                     1.56999  -1.62509  -0.34136 
 1                     4.90438   0.39836  -0.14138 
 
 Initializing the GIC definitions file.

 CrInp1: Reading the GIC input below.
 Dihed1 = D( 15, 3, 2, 14)
 Dihed2 = D( 3, 2, 4, 5)
 Dihed3 = D( 4, 6, 7, 8)
 Dihed4 = D( 6, 7, 8, 9)
 Dihed5 = D( 9, 8, 10, 19)
 
 Warning:  Number of GICs=     5 3N-6=    51.
 ITRead=  0  0  0  0  0  0  0  0  0  0  0  0  0  0  0  0  0  0  0
 MicOpt= -1 -1 -1 -1 -1 -1 -1 -1 -1 -1 -1 -1 -1 -1 -1 -1 -1 -1 -1
                           ----------------------------
                           !    Current Parameters    !
                           ! (Angstroms and Degrees)  !
 --------------------------                            --------------------------
 ! Name   Definition             Value                                          !
 --------------------------------------------------------------------------------
 ! Dihed1 D(15,3,2,14)         121.0889                                         !
 ! Dihed2 D(3,2,4,5)            26.6737                                         !
 ! Dihed3 D(4,6,7,8)           110.646                                          !
 ! Dihed4 D(6,7,8,9)           -22.1809                                         !
 ! Dihed5 D(9,8,10,19)          19.7596                                         !
 --------------------------------------------------------------------------------
 NAtoms=     19 NQM=       19 NQMF=       0 NMMI=      0 NMMIF=      0
                NMic=       0 NMicF=      0.
                    Isotopes and Nuclear Properties:
 (Nuclear quadrupole moments (NQMom) in fm**2, nuclear magnetic moments (NMagM)
  in nuclear magnetons)

  Atom         1           2           3           4           5           6           7           8           9          10
 IAtWgt=          12          12          32          12          16          14          12          12          16          16
 AtmWgt=  12.0000000  12.0000000  31.9720718  12.0000000  15.9949146  14.0030740  12.0000000  12.0000000  15.9949146  15.9949146
 NucSpn=           0           0           0           0           0           2           0           0           0           0
 AtZEff=  -0.0000000  -0.0000000  -0.0000000  -0.0000000  -0.0000000  -0.0000000  -0.0000000  -0.0000000  -0.0000000  -0.0000000
 NQMom=    0.0000000   0.0000000   0.0000000   0.0000000   0.0000000   2.0440000   0.0000000   0.0000000   0.0000000   0.0000000
 NMagM=    0.0000000   0.0000000   0.0000000   0.0000000   0.0000000   0.4037610   0.0000000   0.0000000   0.0000000   0.0000000
 AtZNuc=   6.0000000   6.0000000  16.0000000   6.0000000   8.0000000   7.0000000   6.0000000   6.0000000   8.0000000   8.0000000

  Atom        11          12          13          14          15          16          17          18          19
 IAtWgt=           1           1           1           1           1           1           1           1           1
 AtmWgt=   1.0078250   1.0078250   1.0078250   1.0078250   1.0078250   1.0078250   1.0078250   1.0078250   1.0078250
 NucSpn=           1           1           1           1           1           1           1           1           1
 AtZEff=  -0.0000000  -0.0000000  -0.0000000  -0.0000000  -0.0000000  -0.0000000  -0.0000000  -0.0000000  -0.0000000
 NQMom=    0.0000000   0.0000000   0.0000000   0.0000000   0.0000000   0.0000000   0.0000000   0.0000000   0.0000000
 NMagM=    2.7928460   2.7928460   2.7928460   2.7928460   2.7928460   2.7928460   2.7928460   2.7928460   2.7928460
 AtZNuc=   1.0000000   1.0000000   1.0000000   1.0000000   1.0000000   1.0000000   1.0000000   1.0000000   1.0000000
 Generating MM parameters.
 Include all MM classes

 MM sanity checks:
 All charges sum to:                0.00000000
 Charges of atoms sum to:           0.00000000
 MMInit generated parameter data with length LenPar=        2803.
 Leave Link  101 at Fri Mar 14 15:10:54 2025, MaxMem=   104857600 cpu:               0.1 elap:               0.1
 (Enter /home/enzo/gaussian_versions/gdv.j21/gdv/l202.exe)
                          Input orientation:                          
 ---------------------------------------------------------------------
 Center     Atomic      Atomic             Coordinates (Angstroms)
 Number     Number       Type             X           Y           Z
 ---------------------------------------------------------------------
      1          6    10061003       -1.832175    1.848870   -0.064530
      2          6    10061003       -1.850419    0.436154    0.506666
      3         16    10161003       -3.338746   -0.442477   -0.058999
      4          6    10061002       -0.618055   -0.315684    0.093869
      5          8    10081002       -0.652420   -1.059265   -0.921928
      6          7    10071000        0.594650   -0.179432    0.842029
      7          6    10061003        1.809257   -0.888872    0.453992
      8          6    10061000        2.836633    0.066508   -0.056542
      9          8    10081002        2.487668    1.191602   -0.496249
     10          8    10081000        4.175786   -0.300255   -0.069643
     11          1    10011000       -2.730786    2.404556    0.274113
     12          1    10011000       -0.931495    2.391817    0.290242
     13          1    10011000       -1.825025    1.823508   -1.174287
     14          1    10011000       -1.897951    0.506931    1.613477
     15          1    10011000       -3.761114    0.632152   -0.861519
     16          1    10011000        0.602008    0.442968    1.681104
     17          1    10011000        2.215353   -1.436924    1.330147
     18          1    10011000        1.569989   -1.625091   -0.341363
     19          1    10011000        4.904383    0.398360   -0.141379
 ---------------------------------------------------------------------
                    Distance matrix (angstroms):
                    1          2          3          4          5
     1  C    0.000000
     2  C    1.523931   0.000000
     3  S    2.742272   1.818540   0.000000
     4  C    2.486860   1.501460   2.727930   0.000000
     5  O    3.253337   2.390054   2.888152   1.259340   0.000000
     6  N    3.290188   2.543576   4.043841   1.431419   2.332560
     7  C    4.585207   3.892518   5.192722   2.519936   2.825251
     8  C    4.997464   4.735219   6.196320   3.479018   3.766928
     9  O    4.390834   4.516142   6.067001   3.502237   3.886870
    10  O    6.380780   6.098326   7.515885   4.796654   4.961256
    11  H    1.109490   2.168809   2.930218   3.449033   4.212858
    12  H    1.109900   2.171607   3.734976   2.732649   3.668406
    13  H    1.110070   2.179679   2.944471   2.764261   3.122350
    14  H    2.149613   1.110090   2.403007   2.150358   3.229953
    15  H    2.415864   2.358199   1.406151   3.419061   3.539565
    16  H    3.308934   2.719145   4.397899   2.140893   3.256696
    17  H    5.396670   4.551598   5.810909   3.288429   3.665868
    18  H    4.870294   4.082533   5.057073   2.586795   2.365654
    19  H    6.891379   6.785922   8.286312   5.573376   5.797585
                    6          7          8          9         10
     6  N    0.000000
     7  C    1.459160   0.000000
     8  C    2.427839   1.492949   0.000000
     9  O    2.693370   2.385701   1.257360   0.000000
    10  O    3.697334   2.494218   1.388531   2.292896   0.000000
    11  H    4.249476   5.611686   6.047475   5.412668   7.425288
    12  H    3.040544   4.278020   4.441409   3.708067   5.784556
    13  H    3.732576   4.818330   5.105630   4.411163   6.460676
    14  H    2.698015   4.127477   5.039764   4.914608   6.354111
    15  H    4.746938   5.922256   6.670698   6.284400   8.030618
    16  H    1.044741   2.176477   2.855641   2.976077   4.048381
    17  H    2.108607   1.110370   2.137569   3.212324   2.663593
    18  H    2.107518   1.109891   2.132374   2.966460   2.935847
    19  H    4.458109   3.404591   2.095928   2.568205   1.011960
                   11         12         13         14         15
    11  H    0.000000
    12  H    1.799408   0.000000
    13  H    1.804406   1.807268   0.000000
    14  H    2.467487   2.497555   3.083881   0.000000
    15  H    2.343641   3.525581   2.294688   3.100429   0.000000
    16  H    4.115212   2.843262   3.993700   2.501691   5.053470
    17  H    6.351100   5.063923   5.764309   4.558302   6.693477
    18  H    5.925667   4.774086   4.910470   4.515919   5.812604
    19  H    7.905268   6.182042   6.955780   7.025885   8.698511
                   16         17         18         19
    16  H    0.000000
    17  H    2.502009   0.000000
    18  H    3.050283   1.801623   0.000000
    19  H    4.672672   3.572749   3.905449   0.000000
 Stoichiometry    C5H9NO3S
 Framework group  C1[X(C5H9NO3S)]
 Deg. of freedom    51
 Full point group                 C1      NOp   1
 Largest Abelian subgroup         C1      NOp   1
 Largest concise Abelian subgroup C1      NOp   1
                         Standard orientation:                         
 ---------------------------------------------------------------------
 Center     Atomic      Atomic             Coordinates (Angstroms)
 Number     Number       Type             X           Y           Z
 ---------------------------------------------------------------------
      1          6    10061003       -1.856942    1.781453   -0.049591
      2          6    10061003       -1.845042    0.361386    0.503248
      3         16    10161003       -3.317916   -0.539163   -0.068364
      4          6    10061002       -0.599686   -0.360497    0.076219
      5          8    10081002       -0.623317   -1.091418   -0.949029
      6          7    10071000        0.613001   -0.209938    0.821661
      7          6    10061003        1.839864   -0.890107    0.420005
      8          6    10061000        2.846164    0.091954   -0.081804
      9          8    10081002        2.473326    1.215507   -0.505568
     10          8    10081000        4.192240   -0.248014   -0.104556
     11          1    10011000       -2.765027    2.314807    0.299523
     12          1    10011000       -0.965787    2.337499    0.308925
     13          1    10011000       -1.853623    1.770588   -1.159603
     14          1    10011000       -1.889644    0.416891    1.611052
     15          1    10011000       -3.764562    0.537176   -0.855297
     16          1    10011000        0.611336    0.401585    1.668726
     17          1    10011000        2.260124   -1.441290    1.287473
     18          1    10011000        1.612086   -1.620576   -0.383978
     19          1    10011000        4.906607    0.465763   -0.169857
 ---------------------------------------------------------------------
 Rotational constants (GHZ):           3.0327704           0.4711698           0.4382922
 Leave Link  202 at Fri Mar 14 15:10:54 2025, MaxMem=   104857600 cpu:               0.0 elap:               0.0
 (Enter /home/enzo/gaussian_versions/gdv.j21/gdv/l301.exe)
 Standard basis: Dummy (5D, 7F)
 There are    19 symmetry adapted cartesian basis functions of A   symmetry.
 There are    19 symmetry adapted basis functions of A   symmetry.
    19 basis functions,    19 primitive gaussians,    19 cartesian basis functions
    14 alpha electrons       14 beta electrons
       nuclear repulsion energy        68.2566684279 Hartrees.
 IExCor=         0 DFT=F Ex=HF Corr=None N6=None ScaHFX=  1.000000
 ScaDFX=  1.000000  1.000000  1.000000  1.000000  1.000000  0.000000
 ScaDFX=  0.000000  0.000000  0.000000  0.000000  0.000000  0.000000
 IRadAn=      5 IRanWt=     -1 IRanGd=            0 ICorTp=0 IEmpDi=  4
 NAtoms=   19 NActive=   19 NUniq=   19 SFac= 1.00D+00 NAtFMM=   60 NAOKFM=F Big=F
 Integral buffers will be    131072 words long.
 Raffenetti 1 integral format.
 Two-electron integral symmetry is turned on.
 Leave Link  301 at Fri Mar 14 15:10:54 2025, MaxMem=   104857600 cpu:               0.0 elap:               0.0
 (Enter /home/enzo/gaussian_versions/gdv.j21/gdv/l402.exe)
 UFF calculation of energy.
 Energy per function type:
 Direct Coulomb + vdW (small)                           0.027443759
 Direct Coulomb (large)                                 0.000000000
 Direct vdW (large)                                   682.405688254
 Non-direct Coulomb + vdW (small)                      -0.014071877
 Non-direct Coulomb (large)                             0.000000000
 Non-direct vdW (large)                              -682.405688254
 Harmonic stretch III                                   0.010506426
 UFF 3-term bend                                        0.004904369
 UFF 2-term bend                                        0.000135025
 UFF torsion fixed V                                    0.003064719
 UFF torsion w/ bond order V                            0.004611123
 UFF torsion w/ sp3 V                                   0.001614839
 Three term Wilson angle                                0.000018415
 Energy per function class:
        Coulomb               0.000000000
    Vanderwaals               0.013371882
     Stretching               0.010506426
        Bending               0.005039394
        Torsion               0.009290681
   Out-of-plane               0.000018415
 Energy=    3.822679781E-02 NIter=   0.
 Dipole moment=       0.000000       0.000000       0.000000
 Leave Link  402 at Fri Mar 14 15:10:54 2025, MaxMem=   104857600 cpu:               0.0 elap:               0.0
 (Enter /home/enzo/gaussian_versions/gdv.j21/gdv/l9999.exe)
 Unable to Open any file for archive entry.
 1\1\GINC-ORACLE\SP\UFF\ZDO\C5H9N1O3S1\ENZO\14-Mar-2025\0\\#p UFF GEOM=
 READALLGIC OUTPUT=PICKETT\\individuo_8297.xyz\\0,1\C,0,-1.832175,1.848
 87,-0.06453\C,0,-1.850419,0.436154,0.506666\S,0,-3.338746,-0.442477,-0
 .058999\C,0,-0.618055,-0.315684,0.093869\O,0,-0.65242,-1.059265,-0.921
 928\N,0,0.59465,-0.179432,0.842029\C,0,1.809257,-0.888872,0.453992\C,0
 ,2.836633,0.066508,-0.056542\O,0,2.487668,1.191602,-0.496249\O,0,4.175
 786,-0.300255,-0.069643\H,0,-2.730786,2.404556,0.274113\H,0,-0.931495,
 2.391817,0.290242\H,0,-1.825025,1.823508,-1.174287\H,0,-1.897951,0.506
 931,1.613477\H,0,-3.761114,0.632152,-0.861519\H,0,0.602008,0.442968,1.
 681104\H,0,2.215353,-1.436924,1.330147\H,0,1.569989,-1.625091,-0.34136
 3\H,0,4.904383,0.39836,-0.141379\\Version=ES64L-GDVRevJ.21\HF=0.038226
 8\RMSD=0.000e+00\Dipole=0.,0.,0.\PG=C01 [X(C5H9N1O3S1)]\\@
 The archive entry for this job was punched.
 DoSRE=F DoSRN=F DoDH=F DoFC=F DoNQ=F DoQCD=F DoSCD=F
 Inertia tensor (amu-bohr**2): 
                 1             2             3 
      1   0.595080D+03  0.932491D-04 -0.177076D-03
      2   0.932491D-04  0.383034D+04  0.573596D-04
      3  -0.177076D-03  0.573596D-04  0.411767D+04
 Principal inertia moments (amu-bohr**2):
 Iaa = 0.595080D+03 Ibb= 0.383034D+04 Icc= 0.411767D+04
 Rotation matrix to Principal Axis frame: 
                 1             2             3 
      1   0.100000D+01  0.000000D+00  0.000000D+00
      2   0.000000D+00  0.100000D+01  0.000000D+00
      3   0.000000D+00  0.000000D+00  0.100000D+01
                Principal axis orientation:                
 ---------------------------------------------------------------------
 Center     Atomic                     Coordinates (Angstroms)
 Number     Number                        X           Y           Z
 ---------------------------------------------------------------------
      1          6                   -1.832175    1.848870   -0.064530
      2          6                   -1.850419    0.436154    0.506666
      3         16                   -3.338746   -0.442477   -0.058999
      4          6                   -0.618055   -0.315684    0.093869
      5          8                   -0.652420   -1.059265   -0.921928
      6          7                    0.594650   -0.179432    0.842029
      7          6                    1.809257   -0.888872    0.453992
      8          6                    2.836633    0.066508   -0.056542
      9          8                    2.487668    1.191602   -0.496249
     10          8                    4.175786   -0.300255   -0.069643
     11          1                   -2.730786    2.404556    0.274114
     12          1                   -0.931495    2.391817    0.290242
     13          1                   -1.825025    1.823508   -1.174287
     14          1                   -1.897951    0.506931    1.613477
     15          1                   -3.761114    0.632152   -0.861519
     16          1                    0.602008    0.442968    1.681104
     17          1                    2.215353   -1.436924    1.330147
     18          1                    1.569989   -1.625091   -0.341363
     19          1                    4.904383    0.398360   -0.141379
 ---------------------------------------------------------------------
 Rotational constants (MHZ):
   3032.7703698    471.1698140    438.2921650
 Dipole moment (Debye):
      0.0000000      0.0000000      0.0000000  Tot=      0.0000000

 Atoms with significant hyperfine tensors: 

--------------------------------------------------------------------------------
 individuo_8297.xyz                                      
   99  1000  50  0.1760E-11  0.1000E+07  0.1000E+01 1.0000000000
a   1  0  0  0  1  1   1  0  1  0
     10000   0.30327704E+04    0.0000E+00   /  A  /
     20000   0.47116981E+03    0.0000E+00   /  B  /
     30000   0.43829216E+03    0.0000E+00   /  C  /
--------------------------------------------------------------------------------



 If your ship doesn't come in, swim out to it!
                          -- Jonathan Winters
 Job cpu time:       0 days  0 hours  0 minutes  0.2 seconds.
 Elapsed time:       0 days  0 hours  0 minutes  0.2 seconds.
 File lengths (MBytes):  RWF=     14 Int=      0 D2E=      0 Chk=      9 Scr=      1
 Normal termination of Gaussian DV at Fri Mar 14 15:10:54 2025.
