 Entering Gaussian System, Link 0=gdv
 Input=../generations_tiopronin/population_40/temp_processing/individuo_5993.gjf
 Output=../generations_tiopronin/population_40/temp_processing/individuo_5993.log
 Initial command:
 /home/enzo/gaussian_versions/gdv.j21/gdv/l1.exe "/local/home/enzo/scratch/Gau-2337504.inp" -scrdir="/local/home/enzo/scratch/"
 Entering Link 1 = /home/enzo/gaussian_versions/gdv.j21/gdv/l1.exe PID=   2337505.
  
 Copyright (c) 1988-2022, Gaussian, Inc.  All Rights Reserved.
  
 This is the private, development version of
 the Gaussian(R) DV system of programs. It is based on
 the Gaussian(R) 16 system (copyright 2016, Gaussian, Inc.),
 the Gaussian(R) 09 system (copyright 2009, Gaussian, Inc.),
 the Gaussian(R) 03 system (copyright 2003, Gaussian, Inc.),
 the Gaussian(R) 98 system (copyright 1998, Gaussian, Inc.),
 the Gaussian(R) 94 system (copyright 1995, Gaussian, Inc.),
 the Gaussian 92(TM) system (copyright 1992, Gaussian, Inc.),
 the Gaussian 90(TM) system (copyright 1990, Gaussian, Inc.),
 the Gaussian 88(TM) system (copyright 1988, Gaussian, Inc.),
 the Gaussian 86(TM) system (copyright 1986, Carnegie Mellon
 University), and the Gaussian 82(TM) system (copyright 1983,
 Carnegie Mellon University). Gaussian is a federally registered
 trademark of Gaussian, Inc.
  
 This software contains proprietary and confidential information,
 including trade secrets, belonging to Gaussian, Inc.
  
 This software is provided under written license and may be
 used, copied, transmitted, or stored only in accord with that
 written license.
  
 The following legend is applicable only to US Government
 contracts under FAR:
  
                    RESTRICTED RIGHTS LEGEND
  
 Use, reproduction and disclosure by the US Government is
 subject to restrictions as set forth in subparagraphs (a)
 and (c) of the Commercial Computer Software - Restricted
 Rights clause in FAR 52.227-19.
  
 Gaussian, Inc.
 340 Quinnipiac St., Bldg. 40, Wallingford CT 06492
  
  
 ---------------------------------------------------------------
 Warning -- This program may not be used in any manner that
 competes with the business of Gaussian, Inc. or will provide
 assistance to any competitor of Gaussian, Inc.  The licensee
 of this program is prohibited from giving any competitor of
 Gaussian, Inc. access to this program.  By using this program,
 the user acknowledges that Gaussian, Inc. is engaged in the
 business of creating and licensing software in the field of
 computational chemistry and represents and warrants to the
 licensee that it is not a competitor of Gaussian, Inc. and that
 it will not use this program in any manner prohibited above.
 ---------------------------------------------------------------
  

 Cite this work as:
 Gaussian Development Version, Revision J.21,
 M. J. Frisch, G. W. Trucks, H. B. Schlegel, G. E. Scuseria, 
 M. A. Robb, J. R. Cheeseman, G. Scalmani, V. Barone, 
 G. A. Petersson, H. Nakatsuji, X. Li, A. V. Marenich, M. Caricato, 
 J. Bloino, B. G. Janesko, J. Zheng, R. Gomperts, B. Mennucci, 
 H. P. Hratchian, J. V. Ortiz, A. F. Izmaylov, J. L. Sonnenberg, 
 D. Williams-Young, F. Ding, F. Lipparini, F. Egidi, J. Goings, 
 B. Peng, A. Petrone, T. Henderson, D. Ranasinghe, V. G. Zakrzewski, 
 J. Gao, N. Rega, G. Zheng, W. Liang, M. Hada, M. Ehara, K. Toyota, 
 R. Fukuda, J. Hasegawa, M. Ishida, T. Nakajima, Y. Honda, O. Kitao, 
 H. Nakai, T. Vreven, K. Throssell, J. A. Montgomery, Jr., 
 J. E. Peralta, F. Ogliaro, M. J. Bearpark, J. J. Heyd, 
 E. N. Brothers, K. N. Kudin, V. N. Staroverov, T. A. Keith, 
 R. Kobayashi, J. Normand, K. Raghavachari, A. P. Rendell, 
 J. C. Burant, S. S. Iyengar, J. Tomasi, M. Cossi, J. M. Millam, 
 M. Klene, C. Adamo, R. Cammi, J. W. Ochterski, R. L. Martin, 
 K. Morokuma, O. Farkas, J. B. Foresman, and D. J. Fox, 
 Gaussian, Inc., Wallingford CT, 2020.
 
 ******************************************
 Gaussian DV:  ES64L-GDVRevJ.21 25-Jul-2022
                14-Mar-2025 
 ******************************************
 -------------------------------------
 #p UFF GEOM=READALLGIC OUTPUT=PICKETT
 -------------------------------------
 1/18=20,37=210000000,38=1,56=1,64=2,145=602,172=1/1;
 2/12=2/2;
 3/5=30,11=9,25=1,30=1,41=10020000,43=2/1;
 4/20=10,24=3/2;
 99/5=1,9=1,10=1024/99;
 Leave Link    1 at Fri Mar 14 15:10:53 2025, MaxMem=           0 cpu:               0.0 elap:               0.0
 (Enter /home/enzo/gaussian_versions/gdv.j21/gdv/l101.exe)
 ------------------
 individuo_5993.xyz
 ------------------
 Symbolic Z-matrix:
 Charge =     0 Multiplicity =     1
 6                     2.43298  -0.18985  -1.59933 
 6                     2.15178  -0.38203  -0.11395 
 16                    2.33469   1.20117   0.76191 
 6                     0.77013  -0.93154   0.09458 
 8                     0.5896   -1.8696    0.91518 
 7                    -0.33993  -0.38478  -0.62499 
 6                    -1.69415  -0.89217  -0.43061 
 6                    -2.61876   0.21217  -0.03764 
 8                    -3.56508  -0.01179   0.75941 
 8                    -2.44778   1.48108  -0.57489 
 1                     3.46737   0.18508  -1.74224 
 1                     2.33522  -1.15753  -2.13405 
 1                     1.7239    0.5407   -2.04177 
 1                     2.90539  -1.08622   0.2965 
 1                     1.02319   1.60778   0.45881 
 1                    -0.16862   0.39349  -1.30059 
 1                    -2.05404  -1.36025  -1.37099 
 1                    -1.68949  -1.66392   0.36704 
 1                    -3.22079   2.13235  -0.62363 
 
 Initializing the GIC definitions file.

 CrInp1: Reading the GIC input below.
 Dihed1 = D( 15, 3, 2, 14)
 Dihed2 = D( 3, 2, 4, 5)
 Dihed3 = D( 4, 6, 7, 8)
 Dihed4 = D( 6, 7, 8, 9)
 Dihed5 = D( 9, 8, 10, 19)
 
 Warning:  Number of GICs=     5 3N-6=    51.
 ITRead=  0  0  0  0  0  0  0  0  0  0  0  0  0  0  0  0  0  0  0
 MicOpt= -1 -1 -1 -1 -1 -1 -1 -1 -1 -1 -1 -1 -1 -1 -1 -1 -1 -1 -1
                           ----------------------------
                           !    Current Parameters    !
                           ! (Angstroms and Degrees)  !
 --------------------------                            --------------------------
 ! Name   Definition             Value                                          !
 --------------------------------------------------------------------------------
 ! Dihed1 D(15,3,2,14)        -157.732                                          !
 ! Dihed2 D(3,2,4,5)          -102.6492                                         !
 ! Dihed3 D(4,6,7,8)           124.0154                                         !
 ! Dihed4 D(6,7,8,9)          -145.6009                                         !
 ! Dihed5 D(9,8,10,19)         -22.5299                                         !
 --------------------------------------------------------------------------------
 NAtoms=     19 NQM=       19 NQMF=       0 NMMI=      0 NMMIF=      0
                NMic=       0 NMicF=      0.
                    Isotopes and Nuclear Properties:
 (Nuclear quadrupole moments (NQMom) in fm**2, nuclear magnetic moments (NMagM)
  in nuclear magnetons)

  Atom         1           2           3           4           5           6           7           8           9          10
 IAtWgt=          12          12          32          12          16          14          12          12          16          16
 AtmWgt=  12.0000000  12.0000000  31.9720718  12.0000000  15.9949146  14.0030740  12.0000000  12.0000000  15.9949146  15.9949146
 NucSpn=           0           0           0           0           0           2           0           0           0           0
 AtZEff=  -0.0000000  -0.0000000  -0.0000000  -0.0000000  -0.0000000  -0.0000000  -0.0000000  -0.0000000  -0.0000000  -0.0000000
 NQMom=    0.0000000   0.0000000   0.0000000   0.0000000   0.0000000   2.0440000   0.0000000   0.0000000   0.0000000   0.0000000
 NMagM=    0.0000000   0.0000000   0.0000000   0.0000000   0.0000000   0.4037610   0.0000000   0.0000000   0.0000000   0.0000000
 AtZNuc=   6.0000000   6.0000000  16.0000000   6.0000000   8.0000000   7.0000000   6.0000000   6.0000000   8.0000000   8.0000000

  Atom        11          12          13          14          15          16          17          18          19
 IAtWgt=           1           1           1           1           1           1           1           1           1
 AtmWgt=   1.0078250   1.0078250   1.0078250   1.0078250   1.0078250   1.0078250   1.0078250   1.0078250   1.0078250
 NucSpn=           1           1           1           1           1           1           1           1           1
 AtZEff=  -0.0000000  -0.0000000  -0.0000000  -0.0000000  -0.0000000  -0.0000000  -0.0000000  -0.0000000  -0.0000000
 NQMom=    0.0000000   0.0000000   0.0000000   0.0000000   0.0000000   0.0000000   0.0000000   0.0000000   0.0000000
 NMagM=    2.7928460   2.7928460   2.7928460   2.7928460   2.7928460   2.7928460   2.7928460   2.7928460   2.7928460
 AtZNuc=   1.0000000   1.0000000   1.0000000   1.0000000   1.0000000   1.0000000   1.0000000   1.0000000   1.0000000
 Generating MM parameters.
 Include all MM classes

 MM sanity checks:
 All charges sum to:                0.00000000
 Charges of atoms sum to:           0.00000000
 MMInit generated parameter data with length LenPar=        2803.
 Leave Link  101 at Fri Mar 14 15:10:54 2025, MaxMem=   104857600 cpu:               0.1 elap:               0.1
 (Enter /home/enzo/gaussian_versions/gdv.j21/gdv/l202.exe)
                          Input orientation:                          
 ---------------------------------------------------------------------
 Center     Atomic      Atomic             Coordinates (Angstroms)
 Number     Number       Type             X           Y           Z
 ---------------------------------------------------------------------
      1          6    10061003        2.432978   -0.189853   -1.599330
      2          6    10061003        2.151776   -0.382026   -0.113949
      3         16    10161003        2.334694    1.201166    0.761913
      4          6    10061002        0.770133   -0.931536    0.094577
      5          8    10081002        0.589602   -1.869598    0.915178
      6          7    10071000       -0.339931   -0.384783   -0.624993
      7          6    10061003       -1.694153   -0.892174   -0.430611
      8          6    10061000       -2.618763    0.212168   -0.037642
      9          8    10081002       -3.565076   -0.011790    0.759409
     10          8    10081000       -2.447782    1.481083   -0.574890
     11          1    10011000        3.467373    0.185078   -1.742239
     12          1    10011000        2.335221   -1.157526   -2.134053
     13          1    10011000        1.723901    0.540704   -2.041769
     14          1    10011000        2.905393   -1.086221    0.296502
     15          1    10011000        1.023186    1.607780    0.458813
     16          1    10011000       -0.168616    0.393488   -1.300588
     17          1    10011000       -2.054045   -1.360246   -1.370988
     18          1    10011000       -1.689492   -1.663921    0.367036
     19          1    10011000       -3.220789    2.132350   -0.623627
 ---------------------------------------------------------------------
                    Distance matrix (angstroms):
                    1          2          3          4          5
     1  C    0.000000
     2  C    1.523930   0.000000
     3  S    2.742273   1.818541   0.000000
     4  C    2.486859   1.501460   2.727931   0.000000
     5  O    3.541515   2.390054   3.535312   1.259340   0.000000
     6  N    2.945565   2.543576   3.404756   1.431420   2.332560
     7  C    4.346535   3.892518   4.694230   2.519936   2.825251
     8  C    5.302884   4.808007   5.114112   3.579128   3.941475
     9  O    6.447636   5.795017   6.023168   4.481291   4.553797
    10  O    5.259593   4.983932   4.973678   4.077241   4.761624
    11  H    1.109491   2.168809   2.930217   3.449032   4.423248
    12  H    1.109899   2.171606   3.734976   2.732648   3.584974
    13  H    1.110070   2.179678   2.944471   2.764261   3.979915
    14  H    2.149612   1.110090   2.403007   2.150357   2.521771
    15  H    3.074890   2.358198   1.406150   2.577757   3.533896
    16  H    2.682876   2.719146   3.342576   2.140893   3.256696
    17  H    4.642772   4.497332   5.511001   3.210554   3.531977
    18  H    4.799399   4.077982   4.955676   2.580771   2.353090
    19  H    6.189483   5.953681   5.800881   5.082388   5.736078
                    6          7          8          9         10
     6  N    0.000000
     7  C    1.459160   0.000000
     8  C    2.427840   1.492950   0.000000
     9  O    3.529483   2.385703   1.257361   0.000000
    10  O    2.815493   2.494218   1.388530   2.292895   0.000000
    11  H    4.008559   5.433433   6.320398   7.466749   6.166960
    12  H    3.167149   4.382691   5.550942   6.670707   5.680701
    13  H    2.668929   4.041295   4.794079   6.010418   4.520950
    14  H    3.445765   4.660705   5.684520   6.575382   6.000571
    15  H    2.646324   3.797996   3.931665   4.874989   3.623840
    16  H    1.044741   2.176476   2.762450   3.992966   2.627565
    17  H    2.108607   1.110370   2.137570   2.939411   2.976903
    18  H    2.107518   1.109890   2.132374   2.530081   3.369463
    19  H    3.825611   3.393467   2.095928   2.574618   1.011960
                   11         12         13         14         15
    11  H    0.000000
    12  H    1.799409   0.000000
    13  H    1.804406   1.807267   0.000000
    14  H    2.467486   2.497554   3.083881   0.000000
    15  H    3.583680   4.011397   2.807590   3.290394   0.000000
    16  H    3.668638   3.060965   2.037803   3.766931   2.447527
    17  H    5.745599   4.459711   4.282106   5.239431   4.650452
    18  H    5.870357   4.765522   4.723766   4.631596   4.251008
    19  H    7.055117   6.631283   5.384647   6.981113   4.411142
                   16         17         18         19
    16  H    0.000000
    17  H    2.575923   0.000000
    18  H    3.054008   1.801623   0.000000
    19  H    3.577384   3.757402   4.211645   0.000000
 Stoichiometry    C5H9NO3S
 Framework group  C1[X(C5H9NO3S)]
 Deg. of freedom    51
 Full point group                 C1      NOp   1
 Largest Abelian subgroup         C1      NOp   1
 Largest concise Abelian subgroup C1      NOp   1
                         Standard orientation:                         
 ---------------------------------------------------------------------
 Center     Atomic      Atomic             Coordinates (Angstroms)
 Number     Number       Type             X           Y           Z
 ---------------------------------------------------------------------
      1          6    10061003        2.427322    0.189467    1.521941
      2          6    10061003        2.129559    0.367269    0.037999
      3         16    10161003        2.292296   -1.226443   -0.822633
      4          6    10061002        0.748910    0.923110   -0.160072
      5          8    10081002        0.564324    1.853325   -0.988665
      6          7    10071000       -0.355795    0.391144    0.578575
      7          6    10061003       -1.709114    0.904851    0.394780
      8          6    10061000       -2.645099   -0.197888    0.024919
      9          8    10081002       -3.599488    0.023321   -0.763221
     10          8    10081000       -2.475475   -1.461944    0.573922
     11          1    10011000        3.461038   -0.190350    1.656626
     12          1    10011000        2.341891    1.163476    2.047188
     13          1    10011000        1.719129   -0.531801    1.980733
     14          1    10011000        2.882509    1.062246   -0.389051
     15          1    10011000        0.982042   -1.621540   -0.499536
     16          1    10011000       -0.181180   -0.380808    1.260545
     17          1    10011000       -2.054863    1.385337    1.334202
     18          1    10011000       -1.709269    1.667856   -0.411247
     19          1    10011000       -3.251816   -2.107800    0.638958
 ---------------------------------------------------------------------
 Rotational constants (GHZ):           1.8167939           0.5741479           0.5288792
 Leave Link  202 at Fri Mar 14 15:10:54 2025, MaxMem=   104857600 cpu:               0.0 elap:               0.0
 (Enter /home/enzo/gaussian_versions/gdv.j21/gdv/l301.exe)
 Standard basis: Dummy (5D, 7F)
 There are    19 symmetry adapted cartesian basis functions of A   symmetry.
 There are    19 symmetry adapted basis functions of A   symmetry.
    19 basis functions,    19 primitive gaussians,    19 cartesian basis functions
    14 alpha electrons       14 beta electrons
       nuclear repulsion energy        69.1008249212 Hartrees.
 IExCor=         0 DFT=F Ex=HF Corr=None N6=None ScaHFX=  1.000000
 ScaDFX=  1.000000  1.000000  1.000000  1.000000  1.000000  0.000000
 ScaDFX=  0.000000  0.000000  0.000000  0.000000  0.000000  0.000000
 IRadAn=      5 IRanWt=     -1 IRanGd=            0 ICorTp=0 IEmpDi=  4
 NAtoms=   19 NActive=   19 NUniq=   19 SFac= 1.00D+00 NAtFMM=   60 NAOKFM=F Big=F
 Integral buffers will be    131072 words long.
 Raffenetti 1 integral format.
 Two-electron integral symmetry is turned on.
 Leave Link  301 at Fri Mar 14 15:10:54 2025, MaxMem=   104857600 cpu:               0.0 elap:               0.0
 (Enter /home/enzo/gaussian_versions/gdv.j21/gdv/l402.exe)
 UFF calculation of energy.
 Energy per function type:
 Direct Coulomb + vdW (small)                           0.027670744
 Direct Coulomb (large)                                 0.000000000
 Direct vdW (large)                                   682.405437523
 Non-direct Coulomb + vdW (small)                      -0.014071860
 Non-direct Coulomb (large)                             0.000000000
 Non-direct vdW (large)                              -682.405437523
 Harmonic stretch III                                   0.010506331
 UFF 3-term bend                                        0.004904386
 UFF 2-term bend                                        0.000135026
 UFF torsion fixed V                                    0.002426917
 UFF torsion w/ bond order V                            0.006654293
 UFF torsion w/ sp3 V                                   0.000521250
 Three term Wilson angle                                0.000018414
 Energy per function class:
        Coulomb               0.000000000
    Vanderwaals               0.013598884
     Stretching               0.010506331
        Bending               0.005039412
        Torsion               0.009602460
   Out-of-plane               0.000018414
 Energy=    3.876550052E-02 NIter=   0.
 Dipole moment=       0.000000       0.000000       0.000000
 Leave Link  402 at Fri Mar 14 15:10:54 2025, MaxMem=   104857600 cpu:               0.0 elap:               0.0
 (Enter /home/enzo/gaussian_versions/gdv.j21/gdv/l9999.exe)
 Unable to Open any file for archive entry.
 1\1\GINC-ORACLE\SP\UFF\ZDO\C5H9N1O3S1\ENZO\14-Mar-2025\0\\#p UFF GEOM=
 READALLGIC OUTPUT=PICKETT\\individuo_5993.xyz\\0,1\C,0,2.432978,-0.189
 853,-1.59933\C,0,2.151776,-0.382026,-0.113949\S,0,2.334694,1.201166,0.
 761913\C,0,0.770133,-0.931536,0.094577\O,0,0.589602,-1.869598,0.915178
 \N,0,-0.339931,-0.384783,-0.624993\C,0,-1.694153,-0.892174,-0.430611\C
 ,0,-2.618763,0.212168,-0.037642\O,0,-3.565076,-0.01179,0.759409\O,0,-2
 .447782,1.481083,-0.57489\H,0,3.467373,0.185078,-1.742239\H,0,2.335221
 ,-1.157526,-2.134053\H,0,1.723901,0.540704,-2.041769\H,0,2.905393,-1.0
 86221,0.296502\H,0,1.023186,1.60778,0.458813\H,0,-0.168616,0.393488,-1
 .300588\H,0,-2.054045,-1.360246,-1.370988\H,0,-1.689492,-1.663921,0.36
 7036\H,0,-3.220789,2.13235,-0.623627\\Version=ES64L-GDVRevJ.21\HF=0.03
 87655\RMSD=0.000e+00\Dipole=0.,0.,0.\PG=C01 [X(C5H9N1O3S1)]\\@
 The archive entry for this job was punched.
 DoSRE=F DoSRN=F DoDH=F DoFC=F DoNQ=F DoQCD=F DoSCD=F
 Inertia tensor (amu-bohr**2): 
                 1             2             3 
      1   0.993366D+03 -0.192415D-04  0.148947D-03
      2  -0.192415D-04  0.314334D+04 -0.165539D-03
      3   0.148947D-03 -0.165539D-03  0.341239D+04
 Principal inertia moments (amu-bohr**2):
 Iaa = 0.993366D+03 Ibb= 0.314334D+04 Icc= 0.341239D+04
 Rotation matrix to Principal Axis frame: 
                 1             2             3 
      1   0.100000D+01  0.000000D+00  0.000000D+00
      2   0.000000D+00  0.100000D+01  0.000000D+00
      3   0.000000D+00  0.000000D+00  0.100000D+01
                Principal axis orientation:                
 ---------------------------------------------------------------------
 Center     Atomic                     Coordinates (Angstroms)
 Number     Number                        X           Y           Z
 ---------------------------------------------------------------------
      1          6                    2.432978   -0.189854   -1.599330
      2          6                    2.151776   -0.382026   -0.113949
      3         16                    2.334694    1.201166    0.761912
      4          6                    0.770133   -0.931536    0.094578
      5          8                    0.589602   -1.869598    0.915179
      6          7                   -0.339931   -0.384783   -0.624993
      7          6                   -1.694153   -0.892174   -0.430610
      8          6                   -2.618763    0.212168   -0.037642
      9          8                   -3.565076   -0.011790    0.759409
     10          8                   -2.447782    1.481083   -0.574891
     11          1                    3.467373    0.185077   -1.742239
     12          1                    2.335221   -1.157527   -2.134052
     13          1                    1.723901    0.540703   -2.041769
     14          1                    2.905393   -1.086221    0.296503
     15          1                    1.023186    1.607780    0.458812
     16          1                   -0.168616    0.393487   -1.300588
     17          1                   -2.054045   -1.360247   -1.370987
     18          1                   -1.689492   -1.663921    0.367037
     19          1                   -3.220789    2.132350   -0.623628
 ---------------------------------------------------------------------
 Rotational constants (MHZ):
   1816.7938854    574.1478904    528.8792497
 Dipole moment (Debye):
      0.0000000      0.0000000      0.0000000  Tot=      0.0000000

 Atoms with significant hyperfine tensors: 

--------------------------------------------------------------------------------
 individuo_5993.xyz                                      
   99  1000  50  0.1760E-11  0.1000E+07  0.1000E+01 1.0000000000
a   1  0  0  0  1  1   1  0  1  0
     10000   0.18167939E+04    0.0000E+00   /  A  /
     20000   0.57414789E+03    0.0000E+00   /  B  /
     30000   0.52887925E+03    0.0000E+00   /  C  /
--------------------------------------------------------------------------------



 If your ship doesn't come in, swim out to it!
                          -- Jonathan Winters
 Job cpu time:       0 days  0 hours  0 minutes  0.2 seconds.
 Elapsed time:       0 days  0 hours  0 minutes  0.2 seconds.
 File lengths (MBytes):  RWF=     14 Int=      0 D2E=      0 Chk=      9 Scr=      1
 Normal termination of Gaussian DV at Fri Mar 14 15:10:54 2025.
