 Entering Gaussian System, Link 0=gdv
 Input=../generations_tiopronin/population_40/temp_processing/individuo_4918.gjf
 Output=../generations_tiopronin/population_40/temp_processing/individuo_4918.log
 Initial command:
 /home/enzo/gaussian_versions/gdv.j21/gdv/l1.exe "/local/home/enzo/scratch/Gau-2337496.inp" -scrdir="/local/home/enzo/scratch/"
 Entering Link 1 = /home/enzo/gaussian_versions/gdv.j21/gdv/l1.exe PID=   2337497.
  
 Copyright (c) 1988-2022, Gaussian, Inc.  All Rights Reserved.
  
 This is the private, development version of
 the Gaussian(R) DV system of programs. It is based on
 the Gaussian(R) 16 system (copyright 2016, Gaussian, Inc.),
 the Gaussian(R) 09 system (copyright 2009, Gaussian, Inc.),
 the Gaussian(R) 03 system (copyright 2003, Gaussian, Inc.),
 the Gaussian(R) 98 system (copyright 1998, Gaussian, Inc.),
 the Gaussian(R) 94 system (copyright 1995, Gaussian, Inc.),
 the Gaussian 92(TM) system (copyright 1992, Gaussian, Inc.),
 the Gaussian 90(TM) system (copyright 1990, Gaussian, Inc.),
 the Gaussian 88(TM) system (copyright 1988, Gaussian, Inc.),
 the Gaussian 86(TM) system (copyright 1986, Carnegie Mellon
 University), and the Gaussian 82(TM) system (copyright 1983,
 Carnegie Mellon University). Gaussian is a federally registered
 trademark of Gaussian, Inc.
  
 This software contains proprietary and confidential information,
 including trade secrets, belonging to Gaussian, Inc.
  
 This software is provided under written license and may be
 used, copied, transmitted, or stored only in accord with that
 written license.
  
 The following legend is applicable only to US Government
 contracts under FAR:
  
                    RESTRICTED RIGHTS LEGEND
  
 Use, reproduction and disclosure by the US Government is
 subject to restrictions as set forth in subparagraphs (a)
 and (c) of the Commercial Computer Software - Restricted
 Rights clause in FAR 52.227-19.
  
 Gaussian, Inc.
 340 Quinnipiac St., Bldg. 40, Wallingford CT 06492
  
  
 ---------------------------------------------------------------
 Warning -- This program may not be used in any manner that
 competes with the business of Gaussian, Inc. or will provide
 assistance to any competitor of Gaussian, Inc.  The licensee
 of this program is prohibited from giving any competitor of
 Gaussian, Inc. access to this program.  By using this program,
 the user acknowledges that Gaussian, Inc. is engaged in the
 business of creating and licensing software in the field of
 computational chemistry and represents and warrants to the
 licensee that it is not a competitor of Gaussian, Inc. and that
 it will not use this program in any manner prohibited above.
 ---------------------------------------------------------------
  

 Cite this work as:
 Gaussian Development Version, Revision J.21,
 M. J. Frisch, G. W. Trucks, H. B. Schlegel, G. E. Scuseria, 
 M. A. Robb, J. R. Cheeseman, G. Scalmani, V. Barone, 
 G. A. Petersson, H. Nakatsuji, X. Li, A. V. Marenich, M. Caricato, 
 J. Bloino, B. G. Janesko, J. Zheng, R. Gomperts, B. Mennucci, 
 H. P. Hratchian, J. V. Ortiz, A. F. Izmaylov, J. L. Sonnenberg, 
 D. Williams-Young, F. Ding, F. Lipparini, F. Egidi, J. Goings, 
 B. Peng, A. Petrone, T. Henderson, D. Ranasinghe, V. G. Zakrzewski, 
 J. Gao, N. Rega, G. Zheng, W. Liang, M. Hada, M. Ehara, K. Toyota, 
 R. Fukuda, J. Hasegawa, M. Ishida, T. Nakajima, Y. Honda, O. Kitao, 
 H. Nakai, T. Vreven, K. Throssell, J. A. Montgomery, Jr., 
 J. E. Peralta, F. Ogliaro, M. J. Bearpark, J. J. Heyd, 
 E. N. Brothers, K. N. Kudin, V. N. Staroverov, T. A. Keith, 
 R. Kobayashi, J. Normand, K. Raghavachari, A. P. Rendell, 
 J. C. Burant, S. S. Iyengar, J. Tomasi, M. Cossi, J. M. Millam, 
 M. Klene, C. Adamo, R. Cammi, J. W. Ochterski, R. L. Martin, 
 K. Morokuma, O. Farkas, J. B. Foresman, and D. J. Fox, 
 Gaussian, Inc., Wallingford CT, 2020.
 
 ******************************************
 Gaussian DV:  ES64L-GDVRevJ.21 25-Jul-2022
                14-Mar-2025 
 ******************************************
 -------------------------------------
 #p UFF GEOM=READALLGIC OUTPUT=PICKETT
 -------------------------------------
 1/18=20,37=210000000,38=1,56=1,64=2,145=602,172=1/1;
 2/12=2/2;
 3/5=30,11=9,25=1,30=1,41=10020000,43=2/1;
 4/20=10,24=3/2;
 99/5=1,9=1,10=1024/99;
 Leave Link    1 at Fri Mar 14 15:10:53 2025, MaxMem=           0 cpu:               0.0 elap:               0.0
 (Enter /home/enzo/gaussian_versions/gdv.j21/gdv/l101.exe)
 ------------------
 individuo_4918.xyz
 ------------------
 Symbolic Z-matrix:
 Charge =     0 Multiplicity =     1
 6                     2.98691   1.09436   0.60879 
 6                     2.08433   0.32968  -0.35193 
 16                    2.18793  -1.45408  -0.01343 
 6                     0.66331   0.79799  -0.22639 
 8                     0.39292   1.77643   0.51891 
 7                    -0.37878   0.14541  -0.95929 
 6                    -1.76549   0.58956  -0.8648 
 6                    -2.53053  -0.27154   0.085 
 8                    -1.99243  -1.29306   0.5829 
 8                    -3.84654   0.04299   0.3968 
 1                     4.03832   0.76297   0.4835 
 1                     2.93583   2.18235   0.39535 
 1                     2.67963   0.91769   1.66075 
 1                     2.44955   0.50082  -1.38616 
 1                     1.34356  -1.36794   1.10768 
 1                    -0.13303  -0.66398  -1.57246 
 1                    -1.79512   1.64338  -0.51621 
 1                    -2.24022   0.53702  -1.86666 
 1                    -4.12059   0.99842   0.58684 
 
 Initializing the GIC definitions file.

 CrInp1: Reading the GIC input below.
 Dihed1 = D( 15, 3, 2, 14)
 Dihed2 = D( 3, 2, 4, 5)
 Dihed3 = D( 4, 6, 7, 8)
 Dihed4 = D( 6, 7, 8, 9)
 Dihed5 = D( 9, 8, 10, 19)
 
 Warning:  Number of GICs=     5 3N-6=    51.
 ITRead=  0  0  0  0  0  0  0  0  0  0  0  0  0  0  0  0  0  0  0
 MicOpt= -1 -1 -1 -1 -1 -1 -1 -1 -1 -1 -1 -1 -1 -1 -1 -1 -1 -1 -1
                           ----------------------------
                           !    Current Parameters    !
                           ! (Angstroms and Degrees)  !
 --------------------------                            --------------------------
 ! Name   Definition             Value                                          !
 --------------------------------------------------------------------------------
 ! Dihed1 D(15,3,2,14)        -164.1141                                         !
 ! Dihed2 D(3,2,4,5)           127.2458                                         !
 ! Dihed3 D(4,6,7,8)           -99.1373                                         !
 ! Dihed4 D(6,7,8,9)            -6.1361                                         !
 ! Dihed5 D(9,8,10,19)         137.9496                                         !
 --------------------------------------------------------------------------------
 NAtoms=     19 NQM=       19 NQMF=       0 NMMI=      0 NMMIF=      0
                NMic=       0 NMicF=      0.
                    Isotopes and Nuclear Properties:
 (Nuclear quadrupole moments (NQMom) in fm**2, nuclear magnetic moments (NMagM)
  in nuclear magnetons)

  Atom         1           2           3           4           5           6           7           8           9          10
 IAtWgt=          12          12          32          12          16          14          12          12          16          16
 AtmWgt=  12.0000000  12.0000000  31.9720718  12.0000000  15.9949146  14.0030740  12.0000000  12.0000000  15.9949146  15.9949146
 NucSpn=           0           0           0           0           0           2           0           0           0           0
 AtZEff=  -0.0000000  -0.0000000  -0.0000000  -0.0000000  -0.0000000  -0.0000000  -0.0000000  -0.0000000  -0.0000000  -0.0000000
 NQMom=    0.0000000   0.0000000   0.0000000   0.0000000   0.0000000   2.0440000   0.0000000   0.0000000   0.0000000   0.0000000
 NMagM=    0.0000000   0.0000000   0.0000000   0.0000000   0.0000000   0.4037610   0.0000000   0.0000000   0.0000000   0.0000000
 AtZNuc=   6.0000000   6.0000000  16.0000000   6.0000000   8.0000000   7.0000000   6.0000000   6.0000000   8.0000000   8.0000000

  Atom        11          12          13          14          15          16          17          18          19
 IAtWgt=           1           1           1           1           1           1           1           1           1
 AtmWgt=   1.0078250   1.0078250   1.0078250   1.0078250   1.0078250   1.0078250   1.0078250   1.0078250   1.0078250
 NucSpn=           1           1           1           1           1           1           1           1           1
 AtZEff=  -0.0000000  -0.0000000  -0.0000000  -0.0000000  -0.0000000  -0.0000000  -0.0000000  -0.0000000  -0.0000000
 NQMom=    0.0000000   0.0000000   0.0000000   0.0000000   0.0000000   0.0000000   0.0000000   0.0000000   0.0000000
 NMagM=    2.7928460   2.7928460   2.7928460   2.7928460   2.7928460   2.7928460   2.7928460   2.7928460   2.7928460
 AtZNuc=   1.0000000   1.0000000   1.0000000   1.0000000   1.0000000   1.0000000   1.0000000   1.0000000   1.0000000
 Generating MM parameters.
 Include all MM classes

 MM sanity checks:
 All charges sum to:                0.00000000
 Charges of atoms sum to:           0.00000000
 MMInit generated parameter data with length LenPar=        2803.
 Leave Link  101 at Fri Mar 14 15:10:53 2025, MaxMem=   104857600 cpu:               0.1 elap:               0.1
 (Enter /home/enzo/gaussian_versions/gdv.j21/gdv/l202.exe)
                          Input orientation:                          
 ---------------------------------------------------------------------
 Center     Atomic      Atomic             Coordinates (Angstroms)
 Number     Number       Type             X           Y           Z
 ---------------------------------------------------------------------
      1          6    10061003        2.986912    1.094363    0.608785
      2          6    10061003        2.084332    0.329677   -0.351928
      3         16    10161003        2.187928   -1.454075   -0.013426
      4          6    10061002        0.663310    0.797989   -0.226385
      5          8    10081002        0.392916    1.776433    0.518914
      6          7    10071000       -0.378784    0.145409   -0.959286
      7          6    10061003       -1.765489    0.589559   -0.864798
      8          6    10061000       -2.530533   -0.271541    0.084999
      9          8    10081002       -1.992431   -1.293057    0.582900
     10          8    10081000       -3.846537    0.042991    0.396799
     11          1    10011000        4.038316    0.762973    0.483496
     12          1    10011000        2.935832    2.182350    0.395353
     13          1    10011000        2.679630    0.917693    1.660745
     14          1    10011000        2.449553    0.500819   -1.386155
     15          1    10011000        1.343555   -1.367938    1.107678
     16          1    10011000       -0.133032   -0.663979   -1.572458
     17          1    10011000       -1.795117    1.643377   -0.516213
     18          1    10011000       -2.240221    0.537020   -1.866658
     19          1    10011000       -4.120585    0.998420    0.586841
 ---------------------------------------------------------------------
                    Distance matrix (angstroms):
                    1          2          3          4          5
     1  C    0.000000
     2  C    1.523931   0.000000
     3  S    2.742272   1.818540   0.000000
     4  C    2.486860   1.501460   2.727930   0.000000
     5  O    2.683675   2.390054   3.733850   1.259340   0.000000
     6  N    3.832397   2.543576   3.168755   1.431420   2.332560
     7  C    5.001159   3.892518   4.531090   2.519936   2.825251
     8  C    5.708086   4.674329   4.865383   3.382527   3.595697
     9  O    5.522165   4.486331   4.225746   3.475684   3.887897
    10  O    6.917105   5.984813   6.230912   4.614878   4.581779
    11  H    1.109490   2.168809   2.930217   3.449032   3.783820
    12  H    1.109900   2.171607   3.734976   2.732649   2.578072
    13  H    1.110070   2.179678   2.944470   2.764260   2.696344
    14  H    2.149613   1.110091   2.403007   2.150358   3.079973
    15  H    3.002073   2.358198   1.406151   2.633191   3.337278
    16  H    4.193285   2.719145   2.905458   2.140893   3.256696
    17  H    4.943161   4.099137   5.070666   2.615826   2.424187
    18  H    5.810453   4.586846   5.196867   3.345010   3.763045
    19  H    7.108178   6.311062   6.795027   4.856661   4.580569
                    6          7          8          9         10
     6  N    0.000000
     7  C    1.459160   0.000000
     8  C    2.427839   1.492950   0.000000
     9  O    2.655443   2.385702   1.257360   0.000000
    10  O    3.724885   2.494218   1.388530   2.292895   0.000000
    11  H    4.687620   5.960883   6.661741   6.372366   7.918131
    12  H    4.119570   5.121268   5.999921   6.033358   7.111778
    13  H    4.100595   5.122999   5.571629   5.279898   6.704739
    14  H    2.882364   4.248090   5.249961   5.179420   6.559671
    15  H    3.086910   4.169965   4.154096   3.377840   5.425230
    16  H    1.044741   2.176478   2.940949   2.915248   4.262382
    17  H    2.108606   1.110370   2.137570   3.141596   2.757381
    18  H    2.107518   1.109889   2.132374   3.067722   2.819141
    19  H    4.137537   2.796587   2.095927   3.127287   1.011960
                   11         12         13         14         15
    11  H    0.000000
    12  H    1.799409   0.000000
    13  H    1.804406   1.807267   0.000000
    14  H    2.467486   2.497556   3.083881   0.000000
    15  H    3.491722   3.955667   2.704642   3.306764   0.000000
    16  H    4.864492   4.625127   4.567971   2.839227   3.139904
    17  H    5.983600   4.848023   5.028829   4.481011   4.642876
    18  H    6.707779   5.883479   6.065675   4.714464   5.031798
    19  H    8.162952   7.157610   6.884963   6.878011   5.977269
                   16         17         18         19
    16  H    0.000000
    17  H    3.033492   0.000000
    18  H    2.443194   1.801623   0.000000
    19  H    4.829774   2.653394   3.125431   0.000000
 Stoichiometry    C5H9NO3S
 Framework group  C1[X(C5H9NO3S)]
 Deg. of freedom    51
 Full point group                 C1      NOp   1
 Largest Abelian subgroup         C1      NOp   1
 Largest concise Abelian subgroup C1      NOp   1
                         Standard orientation:                         
 ---------------------------------------------------------------------
 Center     Atomic      Atomic             Coordinates (Angstroms)
 Number     Number       Type             X           Y           Z
 ---------------------------------------------------------------------
      1          6    10061003        2.967916   -1.051363   -0.581044
      2          6    10061003        2.051863   -0.288293    0.368133
      3         16    10161003        2.151305    1.495066    0.026329
      4          6    10061002        0.634303   -0.763112    0.228669
      5          8    10081002        0.376098   -1.744538   -0.517032
      6          7    10071000       -0.418346   -0.113310    0.948843
      7          6    10061003       -1.802027   -0.563742    0.840736
      8          6    10061000       -2.560664    0.291695   -0.119262
      9          8    10081002       -2.021741    1.314338   -0.613952
     10          8    10081000       -3.871901   -0.029341   -0.444238
     11          1    10011000        4.016480   -0.715079   -0.445419
     12          1    10011000        2.919295   -2.139040   -0.365470
     13          1    10011000        2.671069   -0.878596   -1.636642
     14          1    10011000        2.406810   -0.455321    1.406600
     15          1    10011000        1.319278    1.402515   -1.103461
     16          1    10011000       -0.182643    0.698633    1.562582
     17          1    10011000       -1.823371   -1.618524    0.494470
     18          1    10011000       -2.287605   -0.510841    1.837366
     19          1    10011000       -4.139762   -0.986417   -0.634811
 ---------------------------------------------------------------------
 Rotational constants (GHZ):           2.1050499           0.5905401           0.5113014
 Leave Link  202 at Fri Mar 14 15:10:53 2025, MaxMem=   104857600 cpu:               0.0 elap:               0.0
 (Enter /home/enzo/gaussian_versions/gdv.j21/gdv/l301.exe)
 Standard basis: Dummy (5D, 7F)
 There are    19 symmetry adapted cartesian basis functions of A   symmetry.
 There are    19 symmetry adapted basis functions of A   symmetry.
    19 basis functions,    19 primitive gaussians,    19 cartesian basis functions
    14 alpha electrons       14 beta electrons
       nuclear repulsion energy        68.7449449889 Hartrees.
 IExCor=         0 DFT=F Ex=HF Corr=None N6=None ScaHFX=  1.000000
 ScaDFX=  1.000000  1.000000  1.000000  1.000000  1.000000  0.000000
 ScaDFX=  0.000000  0.000000  0.000000  0.000000  0.000000  0.000000
 IRadAn=      5 IRanWt=     -1 IRanGd=            0 ICorTp=0 IEmpDi=  4
 NAtoms=   19 NActive=   19 NUniq=   19 SFac= 1.00D+00 NAtFMM=   60 NAOKFM=F Big=F
 Integral buffers will be    131072 words long.
 Raffenetti 1 integral format.
 Two-electron integral symmetry is turned on.
 Leave Link  301 at Fri Mar 14 15:10:53 2025, MaxMem=   104857600 cpu:               0.0 elap:               0.0
 (Enter /home/enzo/gaussian_versions/gdv.j21/gdv/l402.exe)
 UFF calculation of energy.
 Energy per function type:
 Direct Coulomb + vdW (small)                           0.025290999
 Direct Coulomb (large)                                 0.000000000
 Direct vdW (large)                                   682.406927422
 Non-direct Coulomb + vdW (small)                      -0.014071887
 Non-direct Coulomb (large)                             0.000000000
 Non-direct vdW (large)                              -682.406927422
 Harmonic stretch III                                   0.010506267
 UFF 3-term bend                                        0.004904356
 UFF 2-term bend                                        0.000135022
 UFF torsion fixed V                                    0.001357923
 UFF torsion w/ bond order V                            0.019746538
 UFF torsion w/ sp3 V                                   0.000290890
 Three term Wilson angle                                0.000018417
 Energy per function class:
        Coulomb               0.000000000
    Vanderwaals               0.011219111
     Stretching               0.010506267
        Bending               0.005039378
        Torsion               0.021395351
   Out-of-plane               0.000018417
 Energy=    4.817852454E-02 NIter=   0.
 Dipole moment=       0.000000       0.000000       0.000000
 Leave Link  402 at Fri Mar 14 15:10:53 2025, MaxMem=   104857600 cpu:               0.0 elap:               0.0
 (Enter /home/enzo/gaussian_versions/gdv.j21/gdv/l9999.exe)
 Unable to Open any file for archive entry.
 1\1\GINC-ORACLE\SP\UFF\ZDO\C5H9N1O3S1\ENZO\14-Mar-2025\0\\#p UFF GEOM=
 READALLGIC OUTPUT=PICKETT\\individuo_4918.xyz\\0,1\C,0,2.986912,1.0943
 63,0.608785\C,0,2.084332,0.329677,-0.351928\S,0,2.187928,-1.454075,-0.
 013426\C,0,0.66331,0.797989,-0.226385\O,0,0.392916,1.776433,0.518914\N
 ,0,-0.378784,0.145409,-0.959286\C,0,-1.765489,0.589559,-0.864798\C,0,-
 2.530533,-0.271541,0.084999\O,0,-1.992431,-1.293057,0.5829\O,0,-3.8465
 37,0.042991,0.396799\H,0,4.038316,0.762973,0.483496\H,0,2.935832,2.182
 35,0.395353\H,0,2.67963,0.917693,1.660745\H,0,2.449553,0.500819,-1.386
 155\H,0,1.343555,-1.367938,1.107678\H,0,-0.133032,-0.663979,-1.572458\
 H,0,-1.795117,1.643377,-0.516213\H,0,-2.240221,0.53702,-1.866658\H,0,-
 4.120585,0.99842,0.586841\\Version=ES64L-GDVRevJ.21\HF=0.0481785\RMSD=
 0.000e+00\Dipole=0.,0.,0.\PG=C01 [X(C5H9N1O3S1)]\\@
 The archive entry for this job was punched.
 DoSRE=F DoSRN=F DoDH=F DoFC=F DoNQ=F DoQCD=F DoSCD=F
 Inertia tensor (amu-bohr**2): 
                 1             2             3 
      1   0.857339D+03  0.692555D-05 -0.814778D-04
      2   0.692555D-05  0.305609D+04  0.810666D-04
      3  -0.814778D-04  0.810666D-04  0.352970D+04
 Principal inertia moments (amu-bohr**2):
 Iaa = 0.857339D+03 Ibb= 0.305609D+04 Icc= 0.352970D+04
 Rotation matrix to Principal Axis frame: 
                 1             2             3 
      1   0.100000D+01  0.000000D+00  0.000000D+00
      2   0.000000D+00  0.100000D+01  0.000000D+00
      3   0.000000D+00  0.000000D+00  0.100000D+01
                Principal axis orientation:                
 ---------------------------------------------------------------------
 Center     Atomic                     Coordinates (Angstroms)
 Number     Number                        X           Y           Z
 ---------------------------------------------------------------------
      1          6                    2.986912    1.094363    0.608785
      2          6                    2.084332    0.329677   -0.351928
      3         16                    2.187928   -1.454075   -0.013426
      4          6                    0.663310    0.797989   -0.226385
      5          8                    0.392916    1.776433    0.518914
      6          7                   -0.378784    0.145409   -0.959286
      7          6                   -1.765489    0.589559   -0.864798
      8          6                   -2.530533   -0.271541    0.084999
      9          8                   -1.992431   -1.293057    0.582900
     10          8                   -3.846537    0.042991    0.396799
     11          1                    4.038316    0.762973    0.483496
     12          1                    2.935832    2.182350    0.395353
     13          1                    2.679630    0.917693    1.660745
     14          1                    2.449553    0.500819   -1.386155
     15          1                    1.343555   -1.367938    1.107678
     16          1                   -0.133032   -0.663979   -1.572458
     17          1                   -1.795117    1.643377   -0.516213
     18          1                   -2.240221    0.537020   -1.866658
     19          1                   -4.120585    0.998420    0.586841
 ---------------------------------------------------------------------
 Rotational constants (MHZ):
   2105.0499440    590.5401118    511.3014253
 Dipole moment (Debye):
      0.0000000      0.0000000      0.0000000  Tot=      0.0000000

 Atoms with significant hyperfine tensors: 

--------------------------------------------------------------------------------
 individuo_4918.xyz                                      
   99  1000  50  0.1760E-11  0.1000E+07  0.1000E+01 1.0000000000
a   1  0  0  0  1  1   1  0  1  0
     10000   0.21050499E+04    0.0000E+00   /  A  /
     20000   0.59054011E+03    0.0000E+00   /  B  /
     30000   0.51130143E+03    0.0000E+00   /  C  /
--------------------------------------------------------------------------------



 10 WHATSOEVER THY HAND FINDETH TO DO, DO IT WITH THY  
 MIGHT. FOR THERE IS NO WORK, NOR DEVICE, NOR KNOWLEDGE, NOR  
 WISDOM, IN THE GRAVE, WHITHER THOU GOEST.                    
 11 I RETURNED AND SAW UNDER THE SUN, THAT THE RACE IS NOT TO 
 THE SWIFT, NOR THE BATTLE TO THE STRONG, NEITHER YET BREAD TO
 THE WISE, NOR YET RICHES TO MEN OF UNDERSTANDING, NOR YET    
 FAVOR TO MEN OF SKILL. BUT TIME AND CHANCE HAPPEN TO THEM ALL.
 12 FOR MAN ALSO KNOWETH NOT HIS TIME. AS THE FISHES   
 THAT ARE TAKEN IN AN EVIL NET, AND AS THE BIRDS THAT ARE     
 CAUGHT IN THE SNARE. SO ARE THE SONS OF MEN SNARED IN AN EVIL
 TIME, WHEN IT FALLETH SUDDENLY UPON THEM.
                                         ECCLESIASTES 9
 Job cpu time:       0 days  0 hours  0 minutes  0.2 seconds.
 Elapsed time:       0 days  0 hours  0 minutes  0.2 seconds.
 File lengths (MBytes):  RWF=     14 Int=      0 D2E=      0 Chk=      9 Scr=      1
 Normal termination of Gaussian DV at Fri Mar 14 15:10:53 2025.
