 Entering Gaussian System, Link 0=gdv
 Input=../generations_tiopronin/population_40/temp_processing/individuo_3733.gjf
 Output=../generations_tiopronin/population_40/temp_processing/individuo_3733.log
 Initial command:
 /home/enzo/gaussian_versions/gdv.j21/gdv/l1.exe "/local/home/enzo/scratch/Gau-2337528.inp" -scrdir="/local/home/enzo/scratch/"
 Entering Link 1 = /home/enzo/gaussian_versions/gdv.j21/gdv/l1.exe PID=   2337529.
  
 Copyright (c) 1988-2022, Gaussian, Inc.  All Rights Reserved.
  
 This is the private, development version of
 the Gaussian(R) DV system of programs. It is based on
 the Gaussian(R) 16 system (copyright 2016, Gaussian, Inc.),
 the Gaussian(R) 09 system (copyright 2009, Gaussian, Inc.),
 the Gaussian(R) 03 system (copyright 2003, Gaussian, Inc.),
 the Gaussian(R) 98 system (copyright 1998, Gaussian, Inc.),
 the Gaussian(R) 94 system (copyright 1995, Gaussian, Inc.),
 the Gaussian 92(TM) system (copyright 1992, Gaussian, Inc.),
 the Gaussian 90(TM) system (copyright 1990, Gaussian, Inc.),
 the Gaussian 88(TM) system (copyright 1988, Gaussian, Inc.),
 the Gaussian 86(TM) system (copyright 1986, Carnegie Mellon
 University), and the Gaussian 82(TM) system (copyright 1983,
 Carnegie Mellon University). Gaussian is a federally registered
 trademark of Gaussian, Inc.
  
 This software contains proprietary and confidential information,
 including trade secrets, belonging to Gaussian, Inc.
  
 This software is provided under written license and may be
 used, copied, transmitted, or stored only in accord with that
 written license.
  
 The following legend is applicable only to US Government
 contracts under FAR:
  
                    RESTRICTED RIGHTS LEGEND
  
 Use, reproduction and disclosure by the US Government is
 subject to restrictions as set forth in subparagraphs (a)
 and (c) of the Commercial Computer Software - Restricted
 Rights clause in FAR 52.227-19.
  
 Gaussian, Inc.
 340 Quinnipiac St., Bldg. 40, Wallingford CT 06492
  
  
 ---------------------------------------------------------------
 Warning -- This program may not be used in any manner that
 competes with the business of Gaussian, Inc. or will provide
 assistance to any competitor of Gaussian, Inc.  The licensee
 of this program is prohibited from giving any competitor of
 Gaussian, Inc. access to this program.  By using this program,
 the user acknowledges that Gaussian, Inc. is engaged in the
 business of creating and licensing software in the field of
 computational chemistry and represents and warrants to the
 licensee that it is not a competitor of Gaussian, Inc. and that
 it will not use this program in any manner prohibited above.
 ---------------------------------------------------------------
  

 Cite this work as:
 Gaussian Development Version, Revision J.21,
 M. J. Frisch, G. W. Trucks, H. B. Schlegel, G. E. Scuseria, 
 M. A. Robb, J. R. Cheeseman, G. Scalmani, V. Barone, 
 G. A. Petersson, H. Nakatsuji, X. Li, A. V. Marenich, M. Caricato, 
 J. Bloino, B. G. Janesko, J. Zheng, R. Gomperts, B. Mennucci, 
 H. P. Hratchian, J. V. Ortiz, A. F. Izmaylov, J. L. Sonnenberg, 
 D. Williams-Young, F. Ding, F. Lipparini, F. Egidi, J. Goings, 
 B. Peng, A. Petrone, T. Henderson, D. Ranasinghe, V. G. Zakrzewski, 
 J. Gao, N. Rega, G. Zheng, W. Liang, M. Hada, M. Ehara, K. Toyota, 
 R. Fukuda, J. Hasegawa, M. Ishida, T. Nakajima, Y. Honda, O. Kitao, 
 H. Nakai, T. Vreven, K. Throssell, J. A. Montgomery, Jr., 
 J. E. Peralta, F. Ogliaro, M. J. Bearpark, J. J. Heyd, 
 E. N. Brothers, K. N. Kudin, V. N. Staroverov, T. A. Keith, 
 R. Kobayashi, J. Normand, K. Raghavachari, A. P. Rendell, 
 J. C. Burant, S. S. Iyengar, J. Tomasi, M. Cossi, J. M. Millam, 
 M. Klene, C. Adamo, R. Cammi, J. W. Ochterski, R. L. Martin, 
 K. Morokuma, O. Farkas, J. B. Foresman, and D. J. Fox, 
 Gaussian, Inc., Wallingford CT, 2020.
 
 ******************************************
 Gaussian DV:  ES64L-GDVRevJ.21 25-Jul-2022
                14-Mar-2025 
 ******************************************
 -------------------------------------
 #p UFF GEOM=READALLGIC OUTPUT=PICKETT
 -------------------------------------
 1/18=20,37=210000000,38=1,56=1,64=2,145=602,172=1/1;
 2/12=2/2;
 3/5=30,11=9,25=1,30=1,41=10020000,43=2/1;
 4/20=10,24=3/2;
 99/5=1,9=1,10=1024/99;
 Leave Link    1 at Fri Mar 14 15:10:56 2025, MaxMem=           0 cpu:               0.0 elap:               0.0
 (Enter /home/enzo/gaussian_versions/gdv.j21/gdv/l101.exe)
 ------------------
 individuo_3733.xyz
 ------------------
 Symbolic Z-matrix:
 Charge =     0 Multiplicity =     1
 6                    -2.58328   1.63509   0.21681 
 6                    -1.81821   0.35964   0.54883 
 16                   -2.80679  -1.09493   0.08621 
 6                    -0.49769   0.33558  -0.16533 
 8                    -0.12872   1.34114  -0.82763 
 7                     0.34526  -0.8185   -0.08456 
 6                     1.63877  -0.86186  -0.75843 
 6                     2.67539  -0.14918   0.04558 
 8                     3.66784  -0.77792   0.49353 
 8                     2.5277    1.20386   0.32035 
 1                    -3.54163   1.65664   0.77544 
 1                    -1.98761   2.52429   0.51071 
 1                    -2.80208   1.68991  -0.87011 
 1                    -1.65589   0.32478   1.64644 
 1                    -1.80973  -1.59549  -0.76969 
 1                     0.02071  -1.64186   0.47062 
 1                     1.94561  -1.91876  -0.90585 
 1                     1.55419  -0.37807  -1.75374 
 1                     3.20228   1.69339   0.89425 
 
 Initializing the GIC definitions file.

 CrInp1: Reading the GIC input below.
 Dihed1 = D( 15, 3, 2, 14)
 Dihed2 = D( 3, 2, 4, 5)
 Dihed3 = D( 4, 6, 7, 8)
 Dihed4 = D( 6, 7, 8, 9)
 Dihed5 = D( 9, 8, 10, 19)
 
 Warning:  Number of GICs=     5 3N-6=    51.
 ITRead=  0  0  0  0  0  0  0  0  0  0  0  0  0  0  0  0  0  0  0
 MicOpt= -1 -1 -1 -1 -1 -1 -1 -1 -1 -1 -1 -1 -1 -1 -1 -1 -1 -1 -1
                           ----------------------------
                           !    Current Parameters    !
                           ! (Angstroms and Degrees)  !
 --------------------------                            --------------------------
 ! Name   Definition             Value                                          !
 --------------------------------------------------------------------------------
 ! Dihed1 D(15,3,2,14)        -119.6589                                         !
 ! Dihed2 D(3,2,4,5)           127.2458                                         !
 ! Dihed3 D(4,6,7,8)            80.7169                                         !
 ! Dihed4 D(6,7,8,9)           117.4529                                         !
 ! Dihed5 D(9,8,10,19)          -1.1379                                         !
 --------------------------------------------------------------------------------
 NAtoms=     19 NQM=       19 NQMF=       0 NMMI=      0 NMMIF=      0
                NMic=       0 NMicF=      0.
                    Isotopes and Nuclear Properties:
 (Nuclear quadrupole moments (NQMom) in fm**2, nuclear magnetic moments (NMagM)
  in nuclear magnetons)

  Atom         1           2           3           4           5           6           7           8           9          10
 IAtWgt=          12          12          32          12          16          14          12          12          16          16
 AtmWgt=  12.0000000  12.0000000  31.9720718  12.0000000  15.9949146  14.0030740  12.0000000  12.0000000  15.9949146  15.9949146
 NucSpn=           0           0           0           0           0           2           0           0           0           0
 AtZEff=  -0.0000000  -0.0000000  -0.0000000  -0.0000000  -0.0000000  -0.0000000  -0.0000000  -0.0000000  -0.0000000  -0.0000000
 NQMom=    0.0000000   0.0000000   0.0000000   0.0000000   0.0000000   2.0440000   0.0000000   0.0000000   0.0000000   0.0000000
 NMagM=    0.0000000   0.0000000   0.0000000   0.0000000   0.0000000   0.4037610   0.0000000   0.0000000   0.0000000   0.0000000
 AtZNuc=   6.0000000   6.0000000  16.0000000   6.0000000   8.0000000   7.0000000   6.0000000   6.0000000   8.0000000   8.0000000

  Atom        11          12          13          14          15          16          17          18          19
 IAtWgt=           1           1           1           1           1           1           1           1           1
 AtmWgt=   1.0078250   1.0078250   1.0078250   1.0078250   1.0078250   1.0078250   1.0078250   1.0078250   1.0078250
 NucSpn=           1           1           1           1           1           1           1           1           1
 AtZEff=  -0.0000000  -0.0000000  -0.0000000  -0.0000000  -0.0000000  -0.0000000  -0.0000000  -0.0000000  -0.0000000
 NQMom=    0.0000000   0.0000000   0.0000000   0.0000000   0.0000000   0.0000000   0.0000000   0.0000000   0.0000000
 NMagM=    2.7928460   2.7928460   2.7928460   2.7928460   2.7928460   2.7928460   2.7928460   2.7928460   2.7928460
 AtZNuc=   1.0000000   1.0000000   1.0000000   1.0000000   1.0000000   1.0000000   1.0000000   1.0000000   1.0000000
 Generating MM parameters.
 Include all MM classes

 MM sanity checks:
 All charges sum to:                0.00000000
 Charges of atoms sum to:           0.00000000
 MMInit generated parameter data with length LenPar=        2803.
 Leave Link  101 at Fri Mar 14 15:10:56 2025, MaxMem=   104857600 cpu:               0.1 elap:               0.1
 (Enter /home/enzo/gaussian_versions/gdv.j21/gdv/l202.exe)
                          Input orientation:                          
 ---------------------------------------------------------------------
 Center     Atomic      Atomic             Coordinates (Angstroms)
 Number     Number       Type             X           Y           Z
 ---------------------------------------------------------------------
      1          6    10061003       -2.583280    1.635094    0.216805
      2          6    10061003       -1.818209    0.359638    0.548831
      3         16    10161003       -2.806792   -1.094932    0.086212
      4          6    10061002       -0.497685    0.335578   -0.165326
      5          8    10081002       -0.128719    1.341144   -0.827625
      6          7    10071000        0.345259   -0.818495   -0.084562
      7          6    10061003        1.638772   -0.861860   -0.758426
      8          6    10061000        2.675385   -0.149181    0.045577
      9          8    10081002        3.667843   -0.777924    0.493531
     10          8    10081000        2.527699    1.203855    0.320350
     11          1    10011000       -3.541626    1.656640    0.775444
     12          1    10011000       -1.987609    2.524292    0.510712
     13          1    10011000       -2.802075    1.689909   -0.870107
     14          1    10011000       -1.655890    0.324775    1.646436
     15          1    10011000       -1.809731   -1.595490   -0.769691
     16          1    10011000        0.020714   -1.641859    0.470616
     17          1    10011000        1.945609   -1.918761   -0.905852
     18          1    10011000        1.554187   -0.378072   -1.753740
     19          1    10011000        3.202281    1.693385    0.894250
 ---------------------------------------------------------------------
                    Distance matrix (angstroms):
                    1          2          3          4          5
     1  C    0.000000
     2  C    1.523930   0.000000
     3  S    2.742272   1.818540   0.000000
     4  C    2.486860   1.501460   2.727931   0.000000
     5  O    2.683675   2.390055   3.733850   1.259341   0.000000
     6  N    3.832396   2.543576   3.168755   1.431420   2.332560
     7  C    5.001158   3.892518   4.531090   2.519935   2.825250
     8  C    5.555764   4.550225   5.563305   3.216807   3.293410
     9  O    6.706398   5.603023   6.495175   4.361835   4.544203
    10  O    5.130185   4.433038   5.813436   3.184766   2.897111
    11  H    1.109490   2.168809   2.930217   3.449033   3.783821
    12  H    1.109900   2.171607   3.734976   2.732649   2.578072
    13  H    1.110069   2.179678   2.944471   2.764262   2.696345
    14  H    2.149612   1.110090   2.403007   2.150357   3.079973
    15  H    3.465289   2.358198   1.406150   2.411586   3.384225
    16  H    4.193283   2.719144   2.905458   2.140892   3.256696
    17  H    5.865243   4.633954   4.924246   3.405893   3.864704
    18  H    5.005449   4.149591   4.787217   2.691196   2.577899
    19  H    5.825379   5.206104   6.673574   4.081187   3.766230
                    6          7          8          9         10
     6  N    0.000000
     7  C    1.459160   0.000000
     8  C    2.427839   1.492950   0.000000
     9  O    3.372744   2.385701   1.257360   0.000000
    10  O    3.002815   2.494219   1.388531   2.292895   0.000000
    11  H    4.687620   5.960883   6.514977   7.614658   6.103182
    12  H    4.119569   5.121267   5.395120   6.548974   4.708269
    13  H    4.100595   5.122999   5.850068   7.057588   5.482693
    14  H    2.882363   4.248089   4.641910   5.557632   4.475902
    15  H    2.391047   3.525693   4.782545   5.680489   5.276156
    16  H    1.044739   2.176478   3.075065   3.748127   3.795476
    17  H    2.108607   1.110371   2.137570   2.495170   3.404869
    18  H    2.107519   1.109890   2.132374   3.110892   2.784254
    19  H    3.928128   3.421283   2.095928   2.546506   1.011959
                   11         12         13         14         15
    11  H    0.000000
    12  H    1.799409   0.000000
    13  H    1.804406   1.807266   0.000000
    14  H    2.467487   2.497555   3.083881   0.000000
    15  H    3.995404   4.317832   3.433464   3.090106   0.000000
    16  H    4.864492   4.625125   4.567970   2.839226   2.211570
    17  H    6.761656   6.100621   5.963579   4.951608   3.771687
    18  H    6.041865   5.108403   4.902486   4.728613   3.710310
    19  H    6.745053   5.269959   6.258215   5.103009   6.221388
                   16         17         18         19
    16  H    0.000000
    17  H    2.382553   0.000000
    18  H    2.982693   1.801624   0.000000
    19  H    4.628789   4.226960   3.744195   0.000000
 Stoichiometry    C5H9NO3S
 Framework group  C1[X(C5H9NO3S)]
 Deg. of freedom    51
 Full point group                 C1      NOp   1
 Largest Abelian subgroup         C1      NOp   1
 Largest concise Abelian subgroup C1      NOp   1
                         Standard orientation:                         
 ---------------------------------------------------------------------
 Center     Atomic      Atomic             Coordinates (Angstroms)
 Number     Number       Type             X           Y           Z
 ---------------------------------------------------------------------
      1          6    10061003        2.581994    1.584601   -0.143270
      2          6    10061003        1.797032    0.336114   -0.527294
      3         16    10161003        2.758390   -1.151859   -0.116426
      4          6    10061002        0.472701    0.307454    0.179609
      5          8    10081002        0.117549    1.293146    0.878334
      6          7    10071000       -0.389326   -0.828029    0.050970
      7          6    10061003       -1.686775   -0.874900    0.716988
      8          6    10061000       -2.707048   -0.114284   -0.063655
      9          8    10081002       -3.707780   -0.708286   -0.539733
     10          8    10081000       -2.534991    1.245534   -0.285717
     11          1    10011000        3.543376    1.611025   -0.696457
     12          1    10011000        2.003021    2.494495   -0.405494
     13          1    10011000        2.796201    1.594038    0.945895
     14          1    10011000        1.639685    0.346050   -1.626131
     15          1    10011000        1.748654   -1.667578    0.715275
     16          1    10011000       -0.076031   -1.635013   -0.533926
     17          1    10011000       -2.012279   -1.931237    0.822448
     18          1    10011000       -1.599000   -0.431058    1.730475
     19          1    10011000       -3.198246    1.768175   -0.843391
 ---------------------------------------------------------------------
 Rotational constants (GHZ):           2.3409187           0.5631605           0.4873832
 Leave Link  202 at Fri Mar 14 15:10:56 2025, MaxMem=   104857600 cpu:               0.0 elap:               0.0
 (Enter /home/enzo/gaussian_versions/gdv.j21/gdv/l301.exe)
 Standard basis: Dummy (5D, 7F)
 There are    19 symmetry adapted cartesian basis functions of A   symmetry.
 There are    19 symmetry adapted basis functions of A   symmetry.
    19 basis functions,    19 primitive gaussians,    19 cartesian basis functions
    14 alpha electrons       14 beta electrons
       nuclear repulsion energy        69.1887792406 Hartrees.
 IExCor=         0 DFT=F Ex=HF Corr=None N6=None ScaHFX=  1.000000
 ScaDFX=  1.000000  1.000000  1.000000  1.000000  1.000000  0.000000
 ScaDFX=  0.000000  0.000000  0.000000  0.000000  0.000000  0.000000
 IRadAn=      5 IRanWt=     -1 IRanGd=            0 ICorTp=0 IEmpDi=  4
 NAtoms=   19 NActive=   19 NUniq=   19 SFac= 1.00D+00 NAtFMM=   60 NAOKFM=F Big=F
 Integral buffers will be    131072 words long.
 Raffenetti 1 integral format.
 Two-electron integral symmetry is turned on.
 Leave Link  301 at Fri Mar 14 15:10:56 2025, MaxMem=   104857600 cpu:               0.0 elap:               0.0
 (Enter /home/enzo/gaussian_versions/gdv.j21/gdv/l402.exe)
 UFF calculation of energy.
 Energy per function type:
 Direct Coulomb + vdW (small)                           0.030327050
 Direct Coulomb (large)                                 0.000000000
 Direct vdW (large)                                   682.407543516
 Non-direct Coulomb + vdW (small)                      -0.014071891
 Non-direct Coulomb (large)                             0.000000000
 Non-direct vdW (large)                              -682.407543516
 Harmonic stretch III                                   0.010506434
 UFF 3-term bend                                        0.004904417
 UFF 2-term bend                                        0.000135016
 UFF torsion fixed V                                    0.001961029
 UFF torsion w/ bond order V                            0.000047692
 UFF torsion w/ sp3 V                                   0.001617130
 Three term Wilson angle                                0.000018415
 Energy per function class:
        Coulomb               0.000000000
    Vanderwaals               0.016255159
     Stretching               0.010506434
        Bending               0.005039432
        Torsion               0.003625851
   Out-of-plane               0.000018415
 Energy=    3.544529018E-02 NIter=   0.
 Dipole moment=       0.000000       0.000000       0.000000
 Leave Link  402 at Fri Mar 14 15:10:56 2025, MaxMem=   104857600 cpu:               0.0 elap:               0.0
 (Enter /home/enzo/gaussian_versions/gdv.j21/gdv/l9999.exe)
 Unable to Open any file for archive entry.
 1\1\GINC-ORACLE\SP\UFF\ZDO\C5H9N1O3S1\ENZO\14-Mar-2025\0\\#p UFF GEOM=
 READALLGIC OUTPUT=PICKETT\\individuo_3733.xyz\\0,1\C,0,-2.58328,1.6350
 94,0.216805\C,0,-1.818209,0.359638,0.548831\S,0,-2.806792,-1.094932,0.
 086212\C,0,-0.497685,0.335578,-0.165326\O,0,-0.128719,1.341144,-0.8276
 25\N,0,0.345259,-0.818495,-0.084562\C,0,1.638772,-0.86186,-0.758426\C,
 0,2.675385,-0.149181,0.045577\O,0,3.667843,-0.777924,0.493531\O,0,2.52
 7699,1.203855,0.32035\H,0,-3.541626,1.65664,0.775444\H,0,-1.987609,2.5
 24292,0.510712\H,0,-2.802075,1.689909,-0.870107\H,0,-1.65589,0.324775,
 1.646436\H,0,-1.809731,-1.59549,-0.769691\H,0,0.020714,-1.641859,0.470
 616\H,0,1.945609,-1.918761,-0.905852\H,0,1.554187,-0.378072,-1.75374\H
 ,0,3.202281,1.693385,0.89425\\Version=ES64L-GDVRevJ.21\HF=0.0354453\RM
 SD=0.000e+00\Dipole=0.,0.,0.\PG=C01 [X(C5H9N1O3S1)]\\@
 The archive entry for this job was punched.
 DoSRE=F DoSRN=F DoDH=F DoFC=F DoNQ=F DoQCD=F DoSCD=F
 Inertia tensor (amu-bohr**2): 
                 1             2             3 
      1   0.770954D+03 -0.541136D-04  0.178394D-03
      2  -0.541136D-04  0.320467D+04 -0.493078D-05
      3   0.178394D-03 -0.493078D-05  0.370292D+04
 Principal inertia moments (amu-bohr**2):
 Iaa = 0.770954D+03 Ibb= 0.320467D+04 Icc= 0.370292D+04
 Rotation matrix to Principal Axis frame: 
                 1             2             3 
      1   0.100000D+01  0.000000D+00  0.000000D+00
      2   0.000000D+00  0.100000D+01  0.000000D+00
      3   0.000000D+00  0.000000D+00  0.100000D+01
                Principal axis orientation:                
 ---------------------------------------------------------------------
 Center     Atomic                     Coordinates (Angstroms)
 Number     Number                        X           Y           Z
 ---------------------------------------------------------------------
      1          6                   -2.583280    1.635094    0.216805
      2          6                   -1.818209    0.359638    0.548831
      3         16                   -2.806792   -1.094932    0.086212
      4          6                   -0.497685    0.335578   -0.165326
      5          8                   -0.128719    1.341144   -0.827625
      6          7                    0.345259   -0.818495   -0.084562
      7          6                    1.638772   -0.861860   -0.758426
      8          6                    2.675385   -0.149181    0.045577
      9          8                    3.667843   -0.777924    0.493531
     10          8                    2.527699    1.203855    0.320350
     11          1                   -3.541626    1.656640    0.775444
     12          1                   -1.987609    2.524292    0.510712
     13          1                   -2.802075    1.689909   -0.870107
     14          1                   -1.655890    0.324775    1.646436
     15          1                   -1.809731   -1.595490   -0.769691
     16          1                    0.020714   -1.641859    0.470616
     17          1                    1.945609   -1.918761   -0.905852
     18          1                    1.554187   -0.378072   -1.753740
     19          1                    3.202281    1.693385    0.894250
 ---------------------------------------------------------------------
 Rotational constants (MHZ):
   2340.9186509    563.1604658    487.3832241
 Dipole moment (Debye):
      0.0000000      0.0000000      0.0000000  Tot=      0.0000000

 Atoms with significant hyperfine tensors: 

--------------------------------------------------------------------------------
 individuo_3733.xyz                                      
   99  1000  50  0.1760E-11  0.1000E+07  0.1000E+01 1.0000000000
a   1  0  0  0  1  1   1  0  1  0
     10000   0.23409187E+04    0.0000E+00   /  A  /
     20000   0.56316047E+03    0.0000E+00   /  B  /
     30000   0.48738322E+03    0.0000E+00   /  C  /
--------------------------------------------------------------------------------



 IF GOD HAD MEANT MAN TO SEE THE SUN RISE, HE
 WOULD HAVE SCHEDULED IT FOR A LATER HOUR.
 Job cpu time:       0 days  0 hours  0 minutes  0.2 seconds.
 Elapsed time:       0 days  0 hours  0 minutes  0.2 seconds.
 File lengths (MBytes):  RWF=     14 Int=      0 D2E=      0 Chk=      9 Scr=      1
 Normal termination of Gaussian DV at Fri Mar 14 15:10:56 2025.
