%Nprocshared=8
%Mem=48GB
#P geom=readallgic UFF Opt=nomicro Output=Pickett

methoxycinnamic                                                                 

  0  1
  6    3.881292    0.272832   -1.556176
  8    4.844381    0.420720   -0.560997
  8    4.220236    0.344443   -2.767225
  6    2.470260    0.035571   -1.213049
  6    2.058793   -0.072408    0.057559
  6    0.649585   -0.323206    0.449197
  6    0.391000   -0.851662    1.723940
  6   -0.919777   -1.096021    2.138320
  6   -1.990563   -0.806384    1.291069
  6   -1.755565   -0.258874    0.016495
  8   -2.797454    0.062366   -0.866547
  6   -4.179814   -0.126792   -0.582299
  6   -0.438110   -0.017671   -0.394486
  1    5.815642    0.584640   -0.797664
  1    1.772474   -0.076697   -2.031480
  1    2.793382   -0.017527    0.852851
  1    1.206688   -1.084633    2.397810
  1   -1.106141   -1.511100    3.120516
  1   -2.995242   -1.005345    1.638119
  1   -4.472784    0.473258    0.305021
  1   -4.389002   -1.202541   -0.402764
  1   -4.778442    0.210983   -1.452876
  1   -0.280840    0.431422   -1.365334
 
 Stre0001(Frozen,Value= 1.39276) = R(  1,  2)
 Stre0002(Frozen,Value= 1.25962) = R(  1,  3)
 Stre0003(Frozen,Value= 1.47141) = R(  1,  4)
 Stre0004(Frozen,Value= 1.01303) = R(  2, 14)
 Stre0005(Frozen,Value= 1.33993) = R(  4,  5)
 Stre0006(Frozen,Value= 1.08136) = R(  4, 15)
 Stre0007(Frozen,Value= 1.48396) = R(  5,  6)
 Stre0008(Frozen,Value= 1.08403) = R(  5, 16)
 Stre0009(Frozen,Value= 1.40396) = R(  6,  7)
 Stre0010(Frozen,Value= 1.41005) = R(  6, 13)
 Stre0011(Frozen,Value= 1.39627) = R(  7,  8)
 Stre0012(Frozen,Value= 1.08339) = R(  7, 17)
 Stre0013(Frozen,Value= 1.39582) = R(  8,  9)
 Stre0014(Frozen,Value= 1.08247) = R(  8, 18)
 Stre0015(Frozen,Value= 1.40696) = R(  9, 10)
 Stre0016(Frozen,Value= 1.08139) = R(  9, 19)
 Stre0017(Frozen,Value= 1.40303) = R( 10, 11)
 Stre0018(Frozen,Value= 1.40099) = R( 10, 13)
 Stre0019(Frozen,Value= 1.42390) = R( 11, 12)
 Stre0020(Frozen,Value= 1.11051) = R( 12, 20)
 Stre0021(Frozen,Value= 1.11051) = R( 12, 21)
 Stre0022(Frozen,Value= 1.10921) = R( 12, 22)
 Stre0023(Frozen,Value= 1.08119) = R( 13, 23)
 SymD0001(Frozen,Value= 0.01934)=[ 0.81650*A(  2,  1,  4)- 0.40825*A(  3,  1,  2)- 0.40825*A(  3,  1,  4)]
 Rock0002(Frozen,Value= 0.00281)=[ 0.70711*A(  3,  1,  2)- 0.70711*A(  3,  1,  4)]
 Bend0003(Frozen,Value= 120.87943) = A(  1,  2, 14)
 SymD0004(Frozen,Value= 0.04100)=[ 0.81650*A(  5,  4,  1)- 0.40825*A( 15,  4,  5)- 0.40825*A( 15,  4,  1)]
 Rock0005(Frozen,Value= 0.04216)=[ 0.70711*A( 15,  4,  5)- 0.70711*A( 15,  4,  1)]
 SymD0006(Frozen,Value= 0.08042)=[ 0.81650*A(  6,  5,  4)- 0.40825*A( 16,  5,  6)- 0.40825*A( 16,  5,  4)]
 Rock0007(Frozen,Value=-0.02010)=[ 0.70711*A( 16,  5,  6)- 0.70711*A( 16,  5,  4)]
 Rock0008(Frozen,Value=-0.04916)=[ 0.70711*A(  5,  6,  7)- 0.70711*A(  5,  6, 13)]
 Rock0009(Frozen,Value=-0.01828)=[ 0.70711*A( 17,  7,  8)- 0.70711*A( 17,  7,  6)]
 Rock0010(Frozen,Value= 0.00000)=[ 0.70711*A( 18,  8,  9)- 0.70711*A( 18,  8,  7)]
 Rock0011(Frozen,Value= 0.03081)=[ 0.70711*A( 19,  9, 10)- 0.70711*A( 19,  9,  8)]
 Rock0012(Frozen,Value= 0.04995)=[ 0.70711*A( 11, 10,  9)- 0.70711*A( 11, 10, 13)]
 Bend0013(Frozen,Value= 124.39375) = A( 10, 11, 12)
 SymD0014(Frozen,Value=-0.00453)=[ 0.81650*A( 11, 12, 22)- 0.40825*A( 20, 12, 11)- 0.40825*A( 20, 12, 22)]
 Rock0015(Frozen,Value= 0.01773)=[ 0.70711*A( 20, 12, 11)- 0.70711*A( 20, 12, 22)]
 SymD0016(Frozen,Value=-0.00453)=[ 0.81650*A( 11, 12, 22)- 0.40825*A( 21, 12, 11)- 0.40825*A( 21, 12, 22)]
 Rock0017(Frozen,Value= 0.01771)=[ 0.70711*A( 21, 12, 11)- 0.70711*A( 21, 12, 22)]
 Bend0018(Frozen,Value= 110.15450) = A( 20, 12, 21)
 Rock0019(Frozen,Value=-0.03526)=[ 0.70711*A( 23, 13, 10)- 0.70711*A( 23, 13,  6)]
 RDef0020(Frozen,Value= 0.00000)=[ 0.57735*A(  9, 10, 13)- 0.28868*A( 10, 13,  6)- 0.28868*A( 13,  6,  7)+ 0.57735*A(  6,  7,  8)- 0.28868*A(  7,  8,  9)- 0.28868*A(  8,  9, 10)]
 RDef0021(Frozen,Value= 0.01789)=[ 0.00000*A(  9, 10, 13)+ 0.50000*A( 10, 13,  6)- 0.50000*A( 13,  6,  7)- 0.00000*A(  6,  7,  8)+ 0.50000*A(  7,  8,  9)- 0.50000*A(  8,  9, 10)]
 RDef0022(Frozen,Value=-0.02214)=[ 0.40825*A(  9, 10, 13)- 0.40825*A( 10, 13,  6)+ 0.40825*A( 13,  6,  7)- 0.40825*A(  6,  7,  8)+ 0.40825*A(  7,  8,  9)- 0.40825*A(  8,  9, 10)]
 Scan0001(Value=   0.00000, NSteps= 1, StepSize= 180.0) = D(  3,  1,  2, 14)
 Scan0002(Value= 180.00000, NSteps= 1, StepSize= 180.0) = D(  3,  1,  4,  5)
 Dihe0003(frozen,Value=-179.43995) = D(  1,  4,  5,  6)
 Scan0004(Value= 180.00000, NSteps= 1, StepSize= 180.0) = D(  4,  5,  6,  7)
 Scan0005(Value=  -0.00000, NSteps= 1, StepSize= 180.0) = D(  9, 10, 11, 12)
 Scan0006(Value= 180.00000, NSteps= 2, StepSize=120.0) = D( 10, 11, 12, 22)
 RPck0007(frozen,Value=  -0.02384)=[   0.57735*D(  7,  8,  9, 10)-0.28868*D(  8,  9, 10, 13)-0.28868*D(  9, 10, 13,  6)+0.57735*D( 10, 13,  6,  7)-0.28868*D( 13,  6,  7,  8)-0.28868*D(  6,  7,  8,  9)]
 RPck0008(frozen,Value=   0.01691)=[   0.00000*D(  7,  8,  9, 10)+0.50000*D(  8,  9, 10, 13)-0.50000*D(  9, 10, 13,  6)-0.00000*D( 10, 13,  6,  7)+0.50000*D( 13,  6,  7,  8)-0.50000*D(  6,  7,  8,  9)]
 RPck0009(frozen,Value=   0.01821)=[   0.40825*D(  7,  8,  9, 10)-0.40825*D(  8,  9, 10, 13)+0.40825*D(  9, 10, 13,  6)-0.40825*D( 10, 13,  6,  7)+0.40825*D( 13,  6,  7,  8)-0.40825*D(  6,  7,  8,  9)]
 ImpD0001(Frozen,Value= 179.91151) = D(  2,  1,  4,  3)
 ImpD0002(Frozen,Value= 178.39048) = D(  1,  4, 15,  5)
 ImpD0003(Frozen,Value=-177.44825) = D(  4,  5, 16,  6)
 ImpD0004(Frozen,Value=-178.23062) = D(  5,  6, 13,  7)
 ImpD0005(Frozen,Value=-179.44289) = D(  6,  7, 17,  8)
 ImpD0006(Frozen,Value= 179.96535) = D(  7,  8, 18,  9)
 ImpD0007(Frozen,Value= 179.60154) = D(  8,  9, 19, 10)
 ImpD0008(Frozen,Value=-179.80125) = D(  9, 10, 13, 11)
 ImpD0009(Frozen,Value=-178.50304) = D(  6, 13, 23, 10)

