 Entering Gaussian System, Link 0=gdv
 Input=../generations_tiopronin/population_49/temp_processing/individuo_4137.gjf
 Output=../generations_tiopronin/population_49/temp_processing/individuo_4137.log
 Initial command:
 /home/enzo/gaussian_versions/gdv.j21/gdv/l1.exe "/local/home/enzo/scratch/Gau-2270835.inp" -scrdir="/local/home/enzo/scratch/"
 Entering Link 1 = /home/enzo/gaussian_versions/gdv.j21/gdv/l1.exe PID=   2270836.
  
 Copyright (c) 1988-2022, Gaussian, Inc.  All Rights Reserved.
  
 This is the private, development version of
 the Gaussian(R) DV system of programs. It is based on
 the Gaussian(R) 16 system (copyright 2016, Gaussian, Inc.),
 the Gaussian(R) 09 system (copyright 2009, Gaussian, Inc.),
 the Gaussian(R) 03 system (copyright 2003, Gaussian, Inc.),
 the Gaussian(R) 98 system (copyright 1998, Gaussian, Inc.),
 the Gaussian(R) 94 system (copyright 1995, Gaussian, Inc.),
 the Gaussian 92(TM) system (copyright 1992, Gaussian, Inc.),
 the Gaussian 90(TM) system (copyright 1990, Gaussian, Inc.),
 the Gaussian 88(TM) system (copyright 1988, Gaussian, Inc.),
 the Gaussian 86(TM) system (copyright 1986, Carnegie Mellon
 University), and the Gaussian 82(TM) system (copyright 1983,
 Carnegie Mellon University). Gaussian is a federally registered
 trademark of Gaussian, Inc.
  
 This software contains proprietary and confidential information,
 including trade secrets, belonging to Gaussian, Inc.
  
 This software is provided under written license and may be
 used, copied, transmitted, or stored only in accord with that
 written license.
  
 The following legend is applicable only to US Government
 contracts under FAR:
  
                    RESTRICTED RIGHTS LEGEND
  
 Use, reproduction and disclosure by the US Government is
 subject to restrictions as set forth in subparagraphs (a)
 and (c) of the Commercial Computer Software - Restricted
 Rights clause in FAR 52.227-19.
  
 Gaussian, Inc.
 340 Quinnipiac St., Bldg. 40, Wallingford CT 06492
  
  
 ---------------------------------------------------------------
 Warning -- This program may not be used in any manner that
 competes with the business of Gaussian, Inc. or will provide
 assistance to any competitor of Gaussian, Inc.  The licensee
 of this program is prohibited from giving any competitor of
 Gaussian, Inc. access to this program.  By using this program,
 the user acknowledges that Gaussian, Inc. is engaged in the
 business of creating and licensing software in the field of
 computational chemistry and represents and warrants to the
 licensee that it is not a competitor of Gaussian, Inc. and that
 it will not use this program in any manner prohibited above.
 ---------------------------------------------------------------
  

 Cite this work as:
 Gaussian Development Version, Revision J.21,
 M. J. Frisch, G. W. Trucks, H. B. Schlegel, G. E. Scuseria, 
 M. A. Robb, J. R. Cheeseman, G. Scalmani, V. Barone, 
 G. A. Petersson, H. Nakatsuji, X. Li, A. V. Marenich, M. Caricato, 
 J. Bloino, B. G. Janesko, J. Zheng, R. Gomperts, B. Mennucci, 
 H. P. Hratchian, J. V. Ortiz, A. F. Izmaylov, J. L. Sonnenberg, 
 D. Williams-Young, F. Ding, F. Lipparini, F. Egidi, J. Goings, 
 B. Peng, A. Petrone, T. Henderson, D. Ranasinghe, V. G. Zakrzewski, 
 J. Gao, N. Rega, G. Zheng, W. Liang, M. Hada, M. Ehara, K. Toyota, 
 R. Fukuda, J. Hasegawa, M. Ishida, T. Nakajima, Y. Honda, O. Kitao, 
 H. Nakai, T. Vreven, K. Throssell, J. A. Montgomery, Jr., 
 J. E. Peralta, F. Ogliaro, M. J. Bearpark, J. J. Heyd, 
 E. N. Brothers, K. N. Kudin, V. N. Staroverov, T. A. Keith, 
 R. Kobayashi, J. Normand, K. Raghavachari, A. P. Rendell, 
 J. C. Burant, S. S. Iyengar, J. Tomasi, M. Cossi, J. M. Millam, 
 M. Klene, C. Adamo, R. Cammi, J. W. Ochterski, R. L. Martin, 
 K. Morokuma, O. Farkas, J. B. Foresman, and D. J. Fox, 
 Gaussian, Inc., Wallingford CT, 2020.
 
 ******************************************
 Gaussian DV:  ES64L-GDVRevJ.21 25-Jul-2022
                14-Mar-2025 
 ******************************************
 -------------------------------------
 #p UFF GEOM=READALLGIC OUTPUT=PICKETT
 -------------------------------------
 1/18=20,37=210000000,38=1,56=1,64=2,145=602,172=1/1;
 2/12=2/2;
 3/5=30,11=9,25=1,30=1,41=10020000,43=2/1;
 4/20=10,24=3/2;
 99/5=1,9=1,10=1024/99;
 Leave Link    1 at Fri Mar 14 14:15:01 2025, MaxMem=           0 cpu:               0.0 elap:               0.0
 (Enter /home/enzo/gaussian_versions/gdv.j21/gdv/l101.exe)
 ------------------
 individuo_4137.xyz
 ------------------
 Symbolic Z-matrix:
 Charge =     0 Multiplicity =     1
 6                     3.15539   0.71928   0.74037 
 6                     2.20803   0.09696  -0.27825 
 16                    1.90878  -1.64783   0.13801 
 6                     0.90905   0.84888  -0.31869 
 8                     0.9173    2.10819  -0.31442 
 7                    -0.33334   0.14018  -0.375 
 6                    -1.6085    0.84747  -0.42834 
 6                    -2.70963  -0.01187   0.09888 
 8                    -3.37013   0.35599   1.10355 
 8                    -2.98538  -1.23081  -0.50623 
 1                     4.12265   0.17579   0.73751 
 1                     3.35036   1.78064   0.48081 
 1                     2.72139   0.67073   1.76093 
 1                     2.69566   0.12946  -1.27497 
 1                     1.73377  -2.01805  -1.20719 
 1                    -0.31802  -0.90445  -0.37826 
 1                    -1.5429    1.77761   0.17454 
 1                    -1.83458   1.12457  -1.47904 
 1                    -3.81221  -1.75843  -0.25716 
 
 Initializing the GIC definitions file.

 CrInp1: Reading the GIC input below.
 Dihed1 = D( 15, 3, 2, 14)
 Dihed2 = D( 3, 2, 4, 5)
 Dihed3 = D( 4, 6, 7, 8)
 Dihed4 = D( 6, 7, 8, 9)
 Dihed5 = D( 9, 8, 10, 19)
 
 Warning:  Number of GICs=     5 3N-6=    51.
 ITRead=  0  0  0  0  0  0  0  0  0  0  0  0  0  0  0  0  0  0  0
 MicOpt= -1 -1 -1 -1 -1 -1 -1 -1 -1 -1 -1 -1 -1 -1 -1 -1 -1 -1 -1
                           ----------------------------
                           !    Current Parameters    !
                           ! (Angstroms and Degrees)  !
 --------------------------                            --------------------------
 ! Name   Definition             Value                                          !
 --------------------------------------------------------------------------------
 ! Dihed1 D(15,3,2,14)         -31.2044                                         !
 ! Dihed2 D(3,2,4,5)           165.3637                                         !
 ! Dihed3 D(4,6,7,8)          -155.5927                                         !
 ! Dihed4 D(6,7,8,9)           119.1914                                         !
 ! Dihed5 D(9,8,10,19)          10.7845                                         !
 --------------------------------------------------------------------------------
 NAtoms=     19 NQM=       19 NQMF=       0 NMMI=      0 NMMIF=      0
                NMic=       0 NMicF=      0.
                    Isotopes and Nuclear Properties:
 (Nuclear quadrupole moments (NQMom) in fm**2, nuclear magnetic moments (NMagM)
  in nuclear magnetons)

  Atom         1           2           3           4           5           6           7           8           9          10
 IAtWgt=          12          12          32          12          16          14          12          12          16          16
 AtmWgt=  12.0000000  12.0000000  31.9720718  12.0000000  15.9949146  14.0030740  12.0000000  12.0000000  15.9949146  15.9949146
 NucSpn=           0           0           0           0           0           2           0           0           0           0
 AtZEff=  -0.0000000  -0.0000000  -0.0000000  -0.0000000  -0.0000000  -0.0000000  -0.0000000  -0.0000000  -0.0000000  -0.0000000
 NQMom=    0.0000000   0.0000000   0.0000000   0.0000000   0.0000000   2.0440000   0.0000000   0.0000000   0.0000000   0.0000000
 NMagM=    0.0000000   0.0000000   0.0000000   0.0000000   0.0000000   0.4037610   0.0000000   0.0000000   0.0000000   0.0000000
 AtZNuc=   6.0000000   6.0000000  16.0000000   6.0000000   8.0000000   7.0000000   6.0000000   6.0000000   8.0000000   8.0000000

  Atom        11          12          13          14          15          16          17          18          19
 IAtWgt=           1           1           1           1           1           1           1           1           1
 AtmWgt=   1.0078250   1.0078250   1.0078250   1.0078250   1.0078250   1.0078250   1.0078250   1.0078250   1.0078250
 NucSpn=           1           1           1           1           1           1           1           1           1
 AtZEff=  -0.0000000  -0.0000000  -0.0000000  -0.0000000  -0.0000000  -0.0000000  -0.0000000  -0.0000000  -0.0000000
 NQMom=    0.0000000   0.0000000   0.0000000   0.0000000   0.0000000   0.0000000   0.0000000   0.0000000   0.0000000
 NMagM=    2.7928460   2.7928460   2.7928460   2.7928460   2.7928460   2.7928460   2.7928460   2.7928460   2.7928460
 AtZNuc=   1.0000000   1.0000000   1.0000000   1.0000000   1.0000000   1.0000000   1.0000000   1.0000000   1.0000000
 Generating MM parameters.
 Include all MM classes

 MM sanity checks:
 All charges sum to:                0.00000000
 Charges of atoms sum to:           0.00000000
 MMInit generated parameter data with length LenPar=        2803.
 Leave Link  101 at Fri Mar 14 14:15:01 2025, MaxMem=   104857600 cpu:               0.1 elap:               0.1
 (Enter /home/enzo/gaussian_versions/gdv.j21/gdv/l202.exe)
                          Input orientation:                          
 ---------------------------------------------------------------------
 Center     Atomic      Atomic             Coordinates (Angstroms)
 Number     Number       Type             X           Y           Z
 ---------------------------------------------------------------------
      1          6    10061003        3.155391    0.719275    0.740372
      2          6    10061003        2.208028    0.096956   -0.278246
      3         16    10161003        1.908779   -1.647828    0.138010
      4          6    10061002        0.909047    0.848884   -0.318688
      5          8    10081002        0.917296    2.108190   -0.314422
      6          7    10071000       -0.333340    0.140176   -0.374996
      7          6    10061003       -1.608502    0.847470   -0.428338
      8          6    10061000       -2.709625   -0.011873    0.098879
      9          8    10081002       -3.370129    0.355987    1.103553
     10          8    10081000       -2.985378   -1.230815   -0.506228
     11          1    10011000        4.122646    0.175787    0.737508
     12          1    10011000        3.350358    1.780639    0.480810
     13          1    10011000        2.721389    0.670728    1.760931
     14          1    10011000        2.695662    0.129460   -1.274969
     15          1    10011000        1.733771   -2.018048   -1.207192
     16          1    10011000       -0.318024   -0.904447   -0.378263
     17          1    10011000       -1.542904    1.777608    0.174540
     18          1    10011000       -1.834575    1.124567   -1.479035
     19          1    10011000       -3.812212   -1.758426   -0.257161
 ---------------------------------------------------------------------
                    Distance matrix (angstroms):
                    1          2          3          4          5
     1  C    0.000000
     2  C    1.523929   0.000000
     3  S    2.742272   1.818541   0.000000
     4  C    2.486859   1.501460   2.727931   0.000000
     5  O    2.837383   2.390054   3.910934   1.259340   0.000000
     6  N    3.708186   2.543576   2.913285   1.431420   2.332561
     7  C    4.906831   3.892518   4.349543   2.519936   2.825252
     8  C    5.945124   4.933293   4.899749   3.743000   4.221379
     9  O    6.545708   5.752591   5.728387   4.536195   4.843850
    10  O    6.562462   5.365298   4.953960   4.418921   5.139709
    11  H    1.109491   2.168809   2.930218   3.449033   3.887802
    12  H    1.109900   2.171606   3.734976   2.732648   2.580596
    13  H    1.110070   2.179678   2.944471   2.764261   3.102924
    14  H    2.149612   1.110090   2.403008   2.150358   2.828535
    15  H    3.647869   2.358199   1.406150   3.112701   4.299943
    16  H    3.994049   2.719145   2.403706   2.140893   3.256697
    17  H    4.849145   4.135105   4.863030   2.667933   2.530010
    18  H    5.476293   4.340567   4.930893   2.991633   3.145891
    19  H    7.462008   6.299697   5.735689   5.393713   6.109193
                    6          7          8          9         10
     6  N    0.000000
     7  C    1.459160   0.000000
     8  C    2.427840   1.492950   0.000000
     9  O    3.384489   2.385702   1.257361   0.000000
    10  O    2.988335   2.494218   1.388529   2.292895   0.000000
    11  H    4.592902   5.886970   6.864619   7.503875   7.351831
    12  H    4.122275   5.127148   6.331063   6.897999   7.084112
    13  H    3.764975   4.855110   5.720513   6.134965   6.428302
    14  H    3.159892   4.445014   5.578939   6.519394   5.891988
    15  H    3.102165   4.470861   5.047210   6.084848   4.835437
    16  H    1.044740   2.176477   2.596942   3.619367   2.690292
    17  H    2.108606   1.110370   2.137570   2.494559   3.405112
    18  H    2.107519   1.109890   2.132374   3.101355   2.796163
    19  H    3.964987   3.417065   2.095927   2.552983   1.011960
                   11         12         13         14         15
    11  H    0.000000
    12  H    1.799409   0.000000
    13  H    1.804406   1.807267   0.000000
    14  H    2.467487   2.497555   3.083881   0.000000
    15  H    3.781732   4.460126   4.124883   2.354064   0.000000
    16  H    4.704402   4.626524   4.036751   3.309886   2.477316
    17  H    5.914492   4.902838   4.682522   4.773145   5.201229
    18  H    6.426642   5.581662   5.608936   4.642729   4.762670
    19  H    8.227546   8.023216   7.256819   6.852187   5.632752
                   16         17         18         19
    16  H    0.000000
    17  H    2.999890   0.000000
    18  H    2.761978   1.801623   0.000000
    19  H    3.599069   4.223702   3.703468   0.000000
 Stoichiometry    C5H9NO3S
 Framework group  C1[X(C5H9NO3S)]
 Deg. of freedom    51
 Full point group                 C1      NOp   1
 Largest Abelian subgroup         C1      NOp   1
 Largest concise Abelian subgroup C1      NOp   1
                         Standard orientation:                         
 ---------------------------------------------------------------------
 Center     Atomic      Atomic             Coordinates (Angstroms)
 Number     Number       Type             X           Y           Z
 ---------------------------------------------------------------------
      1          6    10061003       -3.128648   -0.693246    0.706559
      2          6    10061003       -2.165220   -0.061016   -0.290663
      3         16    10161003       -1.849959    1.671259    0.164226
      4          6    10061002       -0.874532   -0.826855   -0.335350
      5          8    10081002       -0.897085   -2.085803   -0.357235
      6          7    10071000        0.376259   -0.131486   -0.366146
      7          6    10061003        1.643752   -0.852163   -0.423014
      8          6    10061000        2.749779   -0.016600    0.131457
      9          8    10081002        3.397058   -0.412665    1.134013
     10          8    10081000        3.044727    1.211297   -0.445854
     11          1    10011000       -4.089619   -0.138716    0.706525
     12          1    10011000       -3.333298   -1.746721    0.423386
     13          1    10011000       -2.703272   -0.670740    1.731646
     14          1    10011000       -2.644254   -0.067357   -1.292055
     15          1    10011000       -1.658740    2.067082   -1.171446
     16          1    10011000        0.372809    0.913089   -0.347914
     17          1    10011000        1.562229   -1.793711    0.159879
     18          1    10011000        1.876062   -1.110134   -1.477215
     19          1    10011000        3.875224    1.724110   -0.178722
 ---------------------------------------------------------------------
 Rotational constants (GHZ):           1.8548205           0.5757238           0.4795778
 Leave Link  202 at Fri Mar 14 14:15:02 2025, MaxMem=   104857600 cpu:               0.0 elap:               0.0
 (Enter /home/enzo/gaussian_versions/gdv.j21/gdv/l301.exe)
 Standard basis: Dummy (5D, 7F)
 There are    19 symmetry adapted cartesian basis functions of A   symmetry.
 There are    19 symmetry adapted basis functions of A   symmetry.
    19 basis functions,    19 primitive gaussians,    19 cartesian basis functions
    14 alpha electrons       14 beta electrons
       nuclear repulsion energy        67.8122293670 Hartrees.
 IExCor=         0 DFT=F Ex=HF Corr=None N6=None ScaHFX=  1.000000
 ScaDFX=  1.000000  1.000000  1.000000  1.000000  1.000000  0.000000
 ScaDFX=  0.000000  0.000000  0.000000  0.000000  0.000000  0.000000
 IRadAn=      5 IRanWt=     -1 IRanGd=            0 ICorTp=0 IEmpDi=  4
 NAtoms=   19 NActive=   19 NUniq=   19 SFac= 1.00D+00 NAtFMM=   60 NAOKFM=F Big=F
 Integral buffers will be    131072 words long.
 Raffenetti 1 integral format.
 Two-electron integral symmetry is turned on.
 Leave Link  301 at Fri Mar 14 14:15:02 2025, MaxMem=   104857600 cpu:               0.0 elap:               0.0
 (Enter /home/enzo/gaussian_versions/gdv.j21/gdv/l402.exe)
 UFF calculation of energy.
 Energy per function type:
 Direct Coulomb + vdW (small)                           0.033141754
 Direct Coulomb (large)                                 0.000000000
 Direct vdW (large)                                   682.405762613
 Non-direct Coulomb + vdW (small)                      -0.014071809
 Non-direct Coulomb (large)                             0.000000000
 Non-direct vdW (large)                              -682.405762613
 Harmonic stretch III                                   0.010506291
 UFF 3-term bend                                        0.004904416
 UFF 2-term bend                                        0.000135024
 UFF torsion fixed V                                    0.002631678
 UFF torsion w/ bond order V                            0.001337475
 UFF torsion w/ sp3 V                                   0.000789951
 Three term Wilson angle                                0.000018417
 Energy per function class:
        Coulomb               0.000000000
    Vanderwaals               0.019069945
     Stretching               0.010506291
        Bending               0.005039439
        Torsion               0.004759104
   Out-of-plane               0.000018417
 Energy=    3.939319682E-02 NIter=   0.
 Dipole moment=       0.000000       0.000000       0.000000
 Leave Link  402 at Fri Mar 14 14:15:02 2025, MaxMem=   104857600 cpu:               0.0 elap:               0.0
 (Enter /home/enzo/gaussian_versions/gdv.j21/gdv/l9999.exe)
 Unable to Open any file for archive entry.
 1\1\GINC-ORACLE\SP\UFF\ZDO\C5H9N1O3S1\ENZO\14-Mar-2025\0\\#p UFF GEOM=
 READALLGIC OUTPUT=PICKETT\\individuo_4137.xyz\\0,1\C,0,3.155391,0.7192
 75,0.740372\C,0,2.208028,0.096956,-0.278246\S,0,1.908779,-1.647828,0.1
 3801\C,0,0.909047,0.848884,-0.318688\O,0,0.917296,2.10819,-0.314422\N,
 0,-0.33334,0.140176,-0.374996\C,0,-1.608502,0.84747,-0.428338\C,0,-2.7
 09625,-0.011873,0.098879\O,0,-3.370129,0.355987,1.103553\O,0,-2.985378
 ,-1.230815,-0.506228\H,0,4.122646,0.175787,0.737508\H,0,3.350358,1.780
 639,0.48081\H,0,2.721389,0.670728,1.760931\H,0,2.695662,0.12946,-1.274
 969\H,0,1.733771,-2.018048,-1.207192\H,0,-0.318024,-0.904447,-0.378263
 \H,0,-1.542904,1.777608,0.17454\H,0,-1.834575,1.124567,-1.479035\H,0,-
 3.812212,-1.758426,-0.257161\\Version=ES64L-GDVRevJ.21\HF=0.0393932\RM
 SD=0.000e+00\Dipole=0.,0.,0.\PG=C01 [X(C5H9N1O3S1)]\\@
 The archive entry for this job was punched.
 DoSRE=F DoSRN=F DoDH=F DoFC=F DoNQ=F DoQCD=F DoSCD=F
 Inertia tensor (amu-bohr**2): 
                 1             2             3 
      1   0.973000D+03  0.904875D-04  0.524310D-04
      2   0.904875D-04  0.313473D+04  0.911340D-04
      3   0.524310D-04  0.911340D-04  0.376319D+04
 Principal inertia moments (amu-bohr**2):
 Iaa = 0.973000D+03 Ibb= 0.313473D+04 Icc= 0.376319D+04
 Rotation matrix to Principal Axis frame: 
                 1             2             3 
      1   0.100000D+01  0.000000D+00  0.000000D+00
      2   0.000000D+00  0.100000D+01  0.000000D+00
      3   0.000000D+00  0.000000D+00  0.100000D+01
                Principal axis orientation:                
 ---------------------------------------------------------------------
 Center     Atomic                     Coordinates (Angstroms)
 Number     Number                        X           Y           Z
 ---------------------------------------------------------------------
      1          6                    3.155391    0.719275    0.740372
      2          6                    2.208028    0.096956   -0.278246
      3         16                    1.908779   -1.647828    0.138010
      4          6                    0.909047    0.848884   -0.318688
      5          8                    0.917296    2.108190   -0.314422
      6          7                   -0.333340    0.140176   -0.374996
      7          6                   -1.608502    0.847470   -0.428338
      8          6                   -2.709625   -0.011873    0.098879
      9          8                   -3.370129    0.355987    1.103553
     10          8                   -2.985378   -1.230815   -0.506228
     11          1                    4.122646    0.175787    0.737508
     12          1                    3.350358    1.780639    0.480810
     13          1                    2.721389    0.670728    1.760931
     14          1                    2.695662    0.129460   -1.274969
     15          1                    1.733771   -2.018048   -1.207192
     16          1                   -0.318024   -0.904447   -0.378263
     17          1                   -1.542904    1.777608    0.174540
     18          1                   -1.834575    1.124567   -1.479035
     19          1                   -3.812212   -1.758426   -0.257161
 ---------------------------------------------------------------------
 Rotational constants (MHZ):
   1854.8204921    575.7238265    479.5778122
 Dipole moment (Debye):
      0.0000000      0.0000000      0.0000000  Tot=      0.0000000

 Atoms with significant hyperfine tensors: 

--------------------------------------------------------------------------------
 individuo_4137.xyz                                      
   99  1000  50  0.1760E-11  0.1000E+07  0.1000E+01 1.0000000000
a   1  0  0  0  1  1   1  0  1  0
     10000   0.18548205E+04    0.0000E+00   /  A  /
     20000   0.57572383E+03    0.0000E+00   /  B  /
     30000   0.47957781E+03    0.0000E+00   /  C  /
--------------------------------------------------------------------------------



 I do not feel obliged to believe that the same God who
 has endowed us with sense, reason, and intellect has
 intended us to forgo their use.
                   --Galileo Galilei
 Job cpu time:       0 days  0 hours  0 minutes  0.2 seconds.
 Elapsed time:       0 days  0 hours  0 minutes  0.2 seconds.
 File lengths (MBytes):  RWF=     14 Int=      0 D2E=      0 Chk=      9 Scr=      1
 Normal termination of Gaussian DV at Fri Mar 14 14:15:02 2025.
