#p UFF GEOM=READALLGIC OUTPUT=PICKETT

individuo_4137.xyz

0 1
6 3.155391 0.719275 0.740372
6 2.208028 0.096956 -0.278246
16 1.908779 -1.647828 0.138010
6 0.909047 0.848884 -0.318688
8 0.917296 2.108190 -0.314422
7 -0.333340 0.140176 -0.374996
6 -1.608502 0.847470 -0.428338
6 -2.709625 -0.011873 0.098879
8 -3.370129 0.355987 1.103553
8 -2.985378 -1.230815 -0.506228
1 4.122646 0.175787 0.737508
1 3.350358 1.780639 0.480810
1 2.721389 0.670728 1.760931
1 2.695662 0.129460 -1.274969
1 1.733771 -2.018048 -1.207192
1 -0.318024 -0.904447 -0.378263
1 -1.542904 1.777608 0.174540
1 -1.834575 1.124567 -1.479035
1 -3.812212 -1.758426 -0.257161

Dihed1 = D( 15, 3, 2, 14)
Dihed2 = D(  3, 2, 4, 5)
Dihed3 = D(  4, 6, 7, 8)
Dihed4 = D(  6, 7, 8, 9)
Dihed5 = D(  9, 8, 10, 19)

