#p UFF GEOM=READALLGIC OUTPUT=PICKETT

individuo_6813.xyz

0 1
6 2.150835 -0.475555 -1.762868
6 2.171879 -0.382585 -0.241922
16 2.491729 1.332755 0.270323
6 0.869866 -0.859764 0.333790
8 0.864599 -1.810251 1.159916
7 -0.359344 -0.230475 -0.043042
6 -1.636335 -0.666737 0.512039
6 -2.757718 0.146625 -0.044597
8 -3.414328 -0.276254 -1.029985
8 -3.056963 1.383370 0.511218
1 3.128955 -0.151670 -2.174386
1 1.969226 -1.524126 -2.078138
1 1.353807 0.171786 -2.184711
1 3.005725 -1.010759 0.135435
1 3.375645 0.943426 1.292269
1 -0.332875 0.556743 -0.729387
1 -1.799792 -1.738125 0.270520
1 -1.618130 -0.553870 1.616025
1 -3.662558 2.035711 0.029792

Dihed1 = D( 15, 3, 2, 14)
Dihed2 = D(  3, 2, 4, 5)
Dihed3 = D(  4, 6, 7, 8)
Dihed4 = D(  6, 7, 8, 9)
Dihed5 = D(  9, 8, 10, 19)

