 Entering Gaussian System, Link 0=gdv
 Input=../generations_tiopronin/population_49/temp_processing/individuo_4530.gjf
 Output=../generations_tiopronin/population_49/temp_processing/individuo_4530.log
 Initial command:
 /home/enzo/gaussian_versions/gdv.j21/gdv/l1.exe "/local/home/enzo/scratch/Gau-2270843.inp" -scrdir="/local/home/enzo/scratch/"
 Entering Link 1 = /home/enzo/gaussian_versions/gdv.j21/gdv/l1.exe PID=   2270844.
  
 Copyright (c) 1988-2022, Gaussian, Inc.  All Rights Reserved.
  
 This is the private, development version of
 the Gaussian(R) DV system of programs. It is based on
 the Gaussian(R) 16 system (copyright 2016, Gaussian, Inc.),
 the Gaussian(R) 09 system (copyright 2009, Gaussian, Inc.),
 the Gaussian(R) 03 system (copyright 2003, Gaussian, Inc.),
 the Gaussian(R) 98 system (copyright 1998, Gaussian, Inc.),
 the Gaussian(R) 94 system (copyright 1995, Gaussian, Inc.),
 the Gaussian 92(TM) system (copyright 1992, Gaussian, Inc.),
 the Gaussian 90(TM) system (copyright 1990, Gaussian, Inc.),
 the Gaussian 88(TM) system (copyright 1988, Gaussian, Inc.),
 the Gaussian 86(TM) system (copyright 1986, Carnegie Mellon
 University), and the Gaussian 82(TM) system (copyright 1983,
 Carnegie Mellon University). Gaussian is a federally registered
 trademark of Gaussian, Inc.
  
 This software contains proprietary and confidential information,
 including trade secrets, belonging to Gaussian, Inc.
  
 This software is provided under written license and may be
 used, copied, transmitted, or stored only in accord with that
 written license.
  
 The following legend is applicable only to US Government
 contracts under FAR:
  
                    RESTRICTED RIGHTS LEGEND
  
 Use, reproduction and disclosure by the US Government is
 subject to restrictions as set forth in subparagraphs (a)
 and (c) of the Commercial Computer Software - Restricted
 Rights clause in FAR 52.227-19.
  
 Gaussian, Inc.
 340 Quinnipiac St., Bldg. 40, Wallingford CT 06492
  
  
 ---------------------------------------------------------------
 Warning -- This program may not be used in any manner that
 competes with the business of Gaussian, Inc. or will provide
 assistance to any competitor of Gaussian, Inc.  The licensee
 of this program is prohibited from giving any competitor of
 Gaussian, Inc. access to this program.  By using this program,
 the user acknowledges that Gaussian, Inc. is engaged in the
 business of creating and licensing software in the field of
 computational chemistry and represents and warrants to the
 licensee that it is not a competitor of Gaussian, Inc. and that
 it will not use this program in any manner prohibited above.
 ---------------------------------------------------------------
  

 Cite this work as:
 Gaussian Development Version, Revision J.21,
 M. J. Frisch, G. W. Trucks, H. B. Schlegel, G. E. Scuseria, 
 M. A. Robb, J. R. Cheeseman, G. Scalmani, V. Barone, 
 G. A. Petersson, H. Nakatsuji, X. Li, A. V. Marenich, M. Caricato, 
 J. Bloino, B. G. Janesko, J. Zheng, R. Gomperts, B. Mennucci, 
 H. P. Hratchian, J. V. Ortiz, A. F. Izmaylov, J. L. Sonnenberg, 
 D. Williams-Young, F. Ding, F. Lipparini, F. Egidi, J. Goings, 
 B. Peng, A. Petrone, T. Henderson, D. Ranasinghe, V. G. Zakrzewski, 
 J. Gao, N. Rega, G. Zheng, W. Liang, M. Hada, M. Ehara, K. Toyota, 
 R. Fukuda, J. Hasegawa, M. Ishida, T. Nakajima, Y. Honda, O. Kitao, 
 H. Nakai, T. Vreven, K. Throssell, J. A. Montgomery, Jr., 
 J. E. Peralta, F. Ogliaro, M. J. Bearpark, J. J. Heyd, 
 E. N. Brothers, K. N. Kudin, V. N. Staroverov, T. A. Keith, 
 R. Kobayashi, J. Normand, K. Raghavachari, A. P. Rendell, 
 J. C. Burant, S. S. Iyengar, J. Tomasi, M. Cossi, J. M. Millam, 
 M. Klene, C. Adamo, R. Cammi, J. W. Ochterski, R. L. Martin, 
 K. Morokuma, O. Farkas, J. B. Foresman, and D. J. Fox, 
 Gaussian, Inc., Wallingford CT, 2020.
 
 ******************************************
 Gaussian DV:  ES64L-GDVRevJ.21 25-Jul-2022
                14-Mar-2025 
 ******************************************
 -------------------------------------
 #p UFF GEOM=READALLGIC OUTPUT=PICKETT
 -------------------------------------
 1/18=20,37=210000000,38=1,56=1,64=2,145=602,172=1/1;
 2/12=2/2;
 3/5=30,11=9,25=1,30=1,41=10020000,43=2/1;
 4/20=10,24=3/2;
 99/5=1,9=1,10=1024/99;
 Leave Link    1 at Fri Mar 14 14:15:02 2025, MaxMem=           0 cpu:               0.0 elap:               0.0
 (Enter /home/enzo/gaussian_versions/gdv.j21/gdv/l101.exe)
 ------------------
 individuo_4530.xyz
 ------------------
 Symbolic Z-matrix:
 Charge =     0 Multiplicity =     1
 6                     2.1274   -0.20336  -1.79992 
 6                     2.17717  -0.35789  -0.28466 
 16                    2.54849   1.24474   0.49044 
 6                     0.87387  -0.89337   0.23404 
 8                     0.85927  -1.96453   0.89612 
 7                    -0.34565  -0.18483  -0.01036 
 6                    -1.62328  -0.67715   0.49406 
 6                    -2.7417    0.20305   0.0432 
 8                    -3.2545    1.02888   0.8407 
 8                    -3.23245   0.08929  -1.25073 
 1                     3.10599   0.1614   -2.17447 
 1                     1.91428  -1.18299  -2.27614 
 1                     1.33954   0.52085  -2.09497 
 1                     3.00153  -1.0568   -0.0312 
 1                     1.80204   1.96367  -0.45993 
 1                    -0.3115    0.70219  -0.56127 
 1                    -1.79401  -1.71112   0.12709 
 1                    -1.60051  -0.69698   1.60354 
 1                    -3.87333   0.77726  -1.62492 
 
 Initializing the GIC definitions file.

 CrInp1: Reading the GIC input below.
 Dihed1 = D( 15, 3, 2, 14)
 Dihed2 = D( 3, 2, 4, 5)
 Dihed3 = D( 4, 6, 7, 8)
 Dihed4 = D( 6, 7, 8, 9)
 Dihed5 = D( 9, 8, 10, 19)
 
 Warning:  Number of GICs=     5 3N-6=    51.
 ITRead=  0  0  0  0  0  0  0  0  0  0  0  0  0  0  0  0  0  0  0
 MicOpt= -1 -1 -1 -1 -1 -1 -1 -1 -1 -1 -1 -1 -1 -1 -1 -1 -1 -1 -1
                           ----------------------------
                           !    Current Parameters    !
                           ! (Angstroms and Degrees)  !
 --------------------------                            --------------------------
 ! Name   Definition             Value                                          !
 --------------------------------------------------------------------------------
 ! Dihed1 D(15,3,2,14)         153.9206                                         !
 ! Dihed2 D(3,2,4,5)          -115.9873                                         !
 ! Dihed3 D(4,6,7,8)          -177.0634                                         !
 ! Dihed4 D(6,7,8,9)          -102.6995                                         !
 ! Dihed5 D(9,8,10,19)          11.9796                                         !
 --------------------------------------------------------------------------------
 NAtoms=     19 NQM=       19 NQMF=       0 NMMI=      0 NMMIF=      0
                NMic=       0 NMicF=      0.
                    Isotopes and Nuclear Properties:
 (Nuclear quadrupole moments (NQMom) in fm**2, nuclear magnetic moments (NMagM)
  in nuclear magnetons)

  Atom         1           2           3           4           5           6           7           8           9          10
 IAtWgt=          12          12          32          12          16          14          12          12          16          16
 AtmWgt=  12.0000000  12.0000000  31.9720718  12.0000000  15.9949146  14.0030740  12.0000000  12.0000000  15.9949146  15.9949146
 NucSpn=           0           0           0           0           0           2           0           0           0           0
 AtZEff=  -0.0000000  -0.0000000  -0.0000000  -0.0000000  -0.0000000  -0.0000000  -0.0000000  -0.0000000  -0.0000000  -0.0000000
 NQMom=    0.0000000   0.0000000   0.0000000   0.0000000   0.0000000   2.0440000   0.0000000   0.0000000   0.0000000   0.0000000
 NMagM=    0.0000000   0.0000000   0.0000000   0.0000000   0.0000000   0.4037610   0.0000000   0.0000000   0.0000000   0.0000000
 AtZNuc=   6.0000000   6.0000000  16.0000000   6.0000000   8.0000000   7.0000000   6.0000000   6.0000000   8.0000000   8.0000000

  Atom        11          12          13          14          15          16          17          18          19
 IAtWgt=           1           1           1           1           1           1           1           1           1
 AtmWgt=   1.0078250   1.0078250   1.0078250   1.0078250   1.0078250   1.0078250   1.0078250   1.0078250   1.0078250
 NucSpn=           1           1           1           1           1           1           1           1           1
 AtZEff=  -0.0000000  -0.0000000  -0.0000000  -0.0000000  -0.0000000  -0.0000000  -0.0000000  -0.0000000  -0.0000000
 NQMom=    0.0000000   0.0000000   0.0000000   0.0000000   0.0000000   0.0000000   0.0000000   0.0000000   0.0000000
 NMagM=    2.7928460   2.7928460   2.7928460   2.7928460   2.7928460   2.7928460   2.7928460   2.7928460   2.7928460
 AtZNuc=   1.0000000   1.0000000   1.0000000   1.0000000   1.0000000   1.0000000   1.0000000   1.0000000   1.0000000
 Generating MM parameters.
 Include all MM classes

 MM sanity checks:
 All charges sum to:                0.00000000
 Charges of atoms sum to:           0.00000000
 MMInit generated parameter data with length LenPar=        2803.
 Leave Link  101 at Fri Mar 14 14:15:02 2025, MaxMem=   104857600 cpu:               0.1 elap:               0.1
 (Enter /home/enzo/gaussian_versions/gdv.j21/gdv/l202.exe)
                          Input orientation:                          
 ---------------------------------------------------------------------
 Center     Atomic      Atomic             Coordinates (Angstroms)
 Number     Number       Type             X           Y           Z
 ---------------------------------------------------------------------
      1          6    10061003        2.127403   -0.203358   -1.799921
      2          6    10061003        2.177167   -0.357891   -0.284663
      3         16    10161003        2.548492    1.244738    0.490441
      4          6    10061002        0.873866   -0.893367    0.234042
      5          8    10081002        0.859274   -1.964527    0.896115
      6          7    10071000       -0.345646   -0.184831   -0.010355
      7          6    10061003       -1.623275   -0.677148    0.494059
      8          6    10061000       -2.741702    0.203050    0.043200
      9          8    10081002       -3.254496    1.028881    0.840695
     10          8    10081000       -3.232446    0.089285   -1.250726
     11          1    10011000        3.105994    0.161395   -2.174466
     12          1    10011000        1.914284   -1.182987   -2.276141
     13          1    10011000        1.339541    0.520850   -2.094966
     14          1    10011000        3.001534   -1.056802   -0.031204
     15          1    10011000        1.802042    1.963674   -0.459927
     16          1    10011000       -0.311500    0.702193   -0.561269
     17          1    10011000       -1.794012   -1.711122    0.127086
     18          1    10011000       -1.600511   -0.696976    1.603538
     19          1    10011000       -3.873328    0.777263   -1.624917
 ---------------------------------------------------------------------
                    Distance matrix (angstroms):
                    1          2          3          4          5
     1  C    0.000000
     2  C    1.523930   0.000000
     3  S    2.742272   1.818540   0.000000
     4  C    2.486860   1.501460   2.727931   0.000000
     5  O    3.460994   2.390054   3.649303   1.259340   0.000000
     6  N    3.052681   2.543576   3.266573   1.431420   2.332560
     7  C    4.422036   3.892517   4.593180   2.519935   2.825251
     8  C    5.222111   4.961595   5.410295   3.782973   4.288692
     9  O    6.120139   5.717738   5.817555   4.594174   5.087894
    10  O    5.395854   5.513362   6.147030   4.475705   5.056604
    11  H    1.109490   2.168809   2.930217   3.449033   4.358413
    12  H    1.109900   2.171607   3.734976   2.732649   3.433229
    13  H    1.110070   2.179679   2.944470   2.764261   3.918459
    14  H    2.149612   1.110090   2.403008   2.150358   2.504628
    15  H    2.568554   2.358199   1.406149   3.083146   4.261270
    16  H    2.881411   2.719146   3.095158   2.140893   3.256697
    17  H    4.622143   4.215570   5.265594   2.792443   2.774085
    18  H    5.071936   4.236878   4.714177   2.834895   2.856164
    19  H    6.082846   6.300265   6.777392   5.364940   6.022503
                    6          7          8          9         10
     6  N    0.000000
     7  C    1.459159   0.000000
     8  C    2.427839   1.492951   0.000000
     9  O    3.264780   2.385702   1.257359   0.000000
    10  O    3.153930   2.494218   1.388530   2.292895   0.000000
    11  H    4.088651   5.494558   6.254225   7.092218   6.405803
    12  H    3.352221   4.521527   5.383182   6.428321   5.399906
    13  H    2.771903   4.112971   4.618365   5.475525   4.669267
    14  H    3.458957   4.670000   5.880266   6.651932   6.454708
    15  H    3.070953   4.429089   4.898831   5.304152   5.429988
    16  H    1.044741   2.176477   2.553509   3.276195   3.063157
    17  H    2.108606   1.110370   2.137571   3.185886   2.684944
    18  H    2.107517   1.109890   2.132374   2.509219   3.380568
    19  H    3.997121   3.415861   2.095928   2.554507   1.011960
                   11         12         13         14         15
    11  H    0.000000
    12  H    1.799409   0.000000
    13  H    1.804407   1.807267   0.000000
    14  H    2.467486   2.497554   3.083881   0.000000
    15  H    2.808584   3.634929   2.229126   3.278088   0.000000
    16  H    3.817608   3.383608   2.260763   3.788301   2.463466
    17  H    5.728309   4.450380   4.442788   4.842567   5.174970
    18  H    6.096007   5.257556   4.879133   4.897007   4.786890
    19  H    7.027961   6.145171   5.240295   7.291601   5.913932
                   16         17         18         19
    16  H    0.000000
    17  H    2.914749   0.000000
    18  H    2.881946   1.801623   0.000000
    19  H    3.718010   3.685801   4.214499   0.000000
 Stoichiometry    C5H9NO3S
 Framework group  C1[X(C5H9NO3S)]
 Deg. of freedom    51
 Full point group                 C1      NOp   1
 Largest Abelian subgroup         C1      NOp   1
 Largest concise Abelian subgroup C1      NOp   1
                         Standard orientation:                         
 ---------------------------------------------------------------------
 Center     Atomic      Atomic             Coordinates (Angstroms)
 Number     Number       Type             X           Y           Z
 ---------------------------------------------------------------------
      1          6    10061003        2.131415    0.047418    1.737412
      2          6    10061003        2.159311    0.336026    0.241320
      3         16    10161003        2.520255   -1.190756   -0.678324
      4          6    10061002        0.848420    0.913146   -0.209100
      5          8    10081002        0.823775    2.038854   -0.773113
      6          7    10071000       -0.367098    0.183538   -0.011234
      7          6    10061003       -1.652093    0.716446   -0.451623
      8          6    10061000       -2.763482   -0.202306   -0.064826
      9          8    10081002       -3.287276   -0.954941   -0.925135
     10          8    10081000       -3.235629   -0.204798    1.240964
     11          1    10011000        3.115472   -0.347425    2.064061
     12          1    10011000        1.924675    0.980494    2.301777
     13          1    10011000        1.348239   -0.701532    1.978167
     14          1    10011000        2.979599    1.056150    0.039215
     15          1    10011000        1.787905   -1.992593    0.214971
     16          1    10011000       -0.324592   -0.748854    0.458151
     17          1    10011000       -1.818053    1.713430    0.008162
     18          1    10011000       -1.645293    0.834788   -1.555164
     19          1    10011000       -3.870721   -0.924432    1.561664
 ---------------------------------------------------------------------
 Rotational constants (GHZ):           1.8165339           0.5215451           0.5022879
 Leave Link  202 at Fri Mar 14 14:15:02 2025, MaxMem=   104857600 cpu:               0.0 elap:               0.0
 (Enter /home/enzo/gaussian_versions/gdv.j21/gdv/l301.exe)
 Standard basis: Dummy (5D, 7F)
 There are    19 symmetry adapted cartesian basis functions of A   symmetry.
 There are    19 symmetry adapted basis functions of A   symmetry.
    19 basis functions,    19 primitive gaussians,    19 cartesian basis functions
    14 alpha electrons       14 beta electrons
       nuclear repulsion energy        68.4572581332 Hartrees.
 IExCor=         0 DFT=F Ex=HF Corr=None N6=None ScaHFX=  1.000000
 ScaDFX=  1.000000  1.000000  1.000000  1.000000  1.000000  0.000000
 ScaDFX=  0.000000  0.000000  0.000000  0.000000  0.000000  0.000000
 IRadAn=      5 IRanWt=     -1 IRanGd=            0 ICorTp=0 IEmpDi=  4
 NAtoms=   19 NActive=   19 NUniq=   19 SFac= 1.00D+00 NAtFMM=   60 NAOKFM=F Big=F
 Integral buffers will be    131072 words long.
 Raffenetti 1 integral format.
 Two-electron integral symmetry is turned on.
 Leave Link  301 at Fri Mar 14 14:15:02 2025, MaxMem=   104857600 cpu:               0.0 elap:               0.0
 (Enter /home/enzo/gaussian_versions/gdv.j21/gdv/l402.exe)
 UFF calculation of energy.
 Energy per function type:
 Direct Coulomb + vdW (small)                           0.022411865
 Direct Coulomb (large)                                 0.000000000
 Direct vdW (large)                                   682.406306243
 Non-direct Coulomb + vdW (small)                      -0.014071824
 Non-direct Coulomb (large)                             0.000000000
 Non-direct vdW (large)                              -682.406306243
 Harmonic stretch III                                   0.010506282
 UFF 3-term bend                                        0.004904373
 UFF 2-term bend                                        0.000135026
 UFF torsion fixed V                                    0.002667263
 UFF torsion w/ bond order V                            0.001665368
 UFF torsion w/ sp3 V                                   0.000620420
 Three term Wilson angle                                0.000018415
 Energy per function class:
        Coulomb               0.000000000
    Vanderwaals               0.008340040
     Stretching               0.010506282
        Bending               0.005039399
        Torsion               0.004953051
   Out-of-plane               0.000018415
 Energy=    2.885718764E-02 NIter=   0.
 Dipole moment=       0.000000       0.000000       0.000000
 Leave Link  402 at Fri Mar 14 14:15:02 2025, MaxMem=   104857600 cpu:               0.0 elap:               0.0
 (Enter /home/enzo/gaussian_versions/gdv.j21/gdv/l9999.exe)
 Unable to Open any file for archive entry.
 1\1\GINC-ORACLE\SP\UFF\ZDO\C5H9N1O3S1\ENZO\14-Mar-2025\0\\#p UFF GEOM=
 READALLGIC OUTPUT=PICKETT\\individuo_4530.xyz\\0,1\C,0,2.127403,-0.203
 358,-1.799921\C,0,2.177167,-0.357891,-0.284663\S,0,2.548492,1.244738,0
 .490441\C,0,0.873866,-0.893367,0.234042\O,0,0.859274,-1.964527,0.89611
 5\N,0,-0.345646,-0.184831,-0.010355\C,0,-1.623275,-0.677148,0.494059\C
 ,0,-2.741702,0.20305,0.0432\O,0,-3.254496,1.028881,0.840695\O,0,-3.232
 446,0.089285,-1.250726\H,0,3.105994,0.161395,-2.174466\H,0,1.914284,-1
 .182987,-2.276141\H,0,1.339541,0.52085,-2.094966\H,0,3.001534,-1.05680
 2,-0.031204\H,0,1.802042,1.963674,-0.459927\H,0,-0.3115,0.702193,-0.56
 1269\H,0,-1.794012,-1.711122,0.127086\H,0,-1.600511,-0.696976,1.603538
 \H,0,-3.873328,0.777263,-1.624917\\Version=ES64L-GDVRevJ.21\HF=0.02885
 72\RMSD=0.000e+00\Dipole=0.,0.,0.\PG=C01 [X(C5H9N1O3S1)]\\@
 The archive entry for this job was punched.
 DoSRE=F DoSRN=F DoDH=F DoFC=F DoNQ=F DoQCD=F DoSCD=F
 Inertia tensor (amu-bohr**2): 
                 1             2             3 
      1   0.993508D+03  0.775284D-04 -0.498065D-05
      2   0.775284D-04  0.346037D+04  0.152750D-03
      3  -0.498065D-05  0.152750D-03  0.359304D+04
 Principal inertia moments (amu-bohr**2):
 Iaa = 0.993508D+03 Ibb= 0.346037D+04 Icc= 0.359304D+04
 Rotation matrix to Principal Axis frame: 
                 1             2             3 
      1   0.100000D+01  0.000000D+00  0.000000D+00
      2   0.000000D+00  0.100000D+01  0.115138D-05
      3   0.000000D+00 -0.115138D-05  0.100000D+01
                Principal axis orientation:                
 ---------------------------------------------------------------------
 Center     Atomic                     Coordinates (Angstroms)
 Number     Number                        X           Y           Z
 ---------------------------------------------------------------------
      1          6                    2.127403   -0.203356   -1.799921
      2          6                    2.177167   -0.357891   -0.284663
      3         16                    2.548492    1.244737    0.490442
      4          6                    0.873866   -0.893367    0.234041
      5          8                    0.859274   -1.964528    0.896113
      6          7                   -0.345646   -0.184831   -0.010355
      7          6                   -1.623275   -0.677149    0.494058
      8          6                   -2.741702    0.203050    0.043200
      9          8                   -3.254496    1.028880    0.840696
     10          8                   -3.232446    0.089286   -1.250726
     11          1                    3.105994    0.161398   -2.174466
     12          1                    1.914284   -1.182984   -2.276142
     13          1                    1.339541    0.520852   -2.094965
     14          1                    3.001534   -1.056802   -0.031205
     15          1                    1.802042    1.963675   -0.459925
     16          1                   -0.311500    0.702194   -0.561268
     17          1                   -1.794012   -1.711122    0.127084
     18          1                   -1.600511   -0.696978    1.603537
     19          1                   -3.873328    0.777265   -1.624916
 ---------------------------------------------------------------------
 Rotational constants (MHZ):
   1816.5338700    521.5450963    502.2878715
 Dipole moment (Debye):
      0.0000000      0.0000000      0.0000000  Tot=      0.0000000

 Atoms with significant hyperfine tensors: 

--------------------------------------------------------------------------------
 individuo_4530.xyz                                      
   99  1000  50  0.1760E-11  0.1000E+07  0.1000E+01 1.0000000000
a   1  0  0  0  1  1   1  0  1  0
     10000   0.18165339E+04    0.0000E+00   /  A  /
     20000   0.52154510E+03    0.0000E+00   /  B  /
     30000   0.50228787E+03    0.0000E+00   /  C  /
--------------------------------------------------------------------------------



 Everything starts as somebody's daydream.
                           -- Larry Niven
 Job cpu time:       0 days  0 hours  0 minutes  0.2 seconds.
 Elapsed time:       0 days  0 hours  0 minutes  0.2 seconds.
 File lengths (MBytes):  RWF=     14 Int=      0 D2E=      0 Chk=      9 Scr=      1
 Normal termination of Gaussian DV at Fri Mar 14 14:15:03 2025.
