 Entering Gaussian System, Link 0=gdv
 Input=../generations_tiopronin/population_49/temp_processing/individuo_1141.gjf
 Output=../generations_tiopronin/population_49/temp_processing/individuo_1141.log
 Initial command:
 /home/enzo/gaussian_versions/gdv.j21/gdv/l1.exe "/local/home/enzo/scratch/Gau-2270811.inp" -scrdir="/local/home/enzo/scratch/"
 Entering Link 1 = /home/enzo/gaussian_versions/gdv.j21/gdv/l1.exe PID=   2270812.
  
 Copyright (c) 1988-2022, Gaussian, Inc.  All Rights Reserved.
  
 This is the private, development version of
 the Gaussian(R) DV system of programs. It is based on
 the Gaussian(R) 16 system (copyright 2016, Gaussian, Inc.),
 the Gaussian(R) 09 system (copyright 2009, Gaussian, Inc.),
 the Gaussian(R) 03 system (copyright 2003, Gaussian, Inc.),
 the Gaussian(R) 98 system (copyright 1998, Gaussian, Inc.),
 the Gaussian(R) 94 system (copyright 1995, Gaussian, Inc.),
 the Gaussian 92(TM) system (copyright 1992, Gaussian, Inc.),
 the Gaussian 90(TM) system (copyright 1990, Gaussian, Inc.),
 the Gaussian 88(TM) system (copyright 1988, Gaussian, Inc.),
 the Gaussian 86(TM) system (copyright 1986, Carnegie Mellon
 University), and the Gaussian 82(TM) system (copyright 1983,
 Carnegie Mellon University). Gaussian is a federally registered
 trademark of Gaussian, Inc.
  
 This software contains proprietary and confidential information,
 including trade secrets, belonging to Gaussian, Inc.
  
 This software is provided under written license and may be
 used, copied, transmitted, or stored only in accord with that
 written license.
  
 The following legend is applicable only to US Government
 contracts under FAR:
  
                    RESTRICTED RIGHTS LEGEND
  
 Use, reproduction and disclosure by the US Government is
 subject to restrictions as set forth in subparagraphs (a)
 and (c) of the Commercial Computer Software - Restricted
 Rights clause in FAR 52.227-19.
  
 Gaussian, Inc.
 340 Quinnipiac St., Bldg. 40, Wallingford CT 06492
  
  
 ---------------------------------------------------------------
 Warning -- This program may not be used in any manner that
 competes with the business of Gaussian, Inc. or will provide
 assistance to any competitor of Gaussian, Inc.  The licensee
 of this program is prohibited from giving any competitor of
 Gaussian, Inc. access to this program.  By using this program,
 the user acknowledges that Gaussian, Inc. is engaged in the
 business of creating and licensing software in the field of
 computational chemistry and represents and warrants to the
 licensee that it is not a competitor of Gaussian, Inc. and that
 it will not use this program in any manner prohibited above.
 ---------------------------------------------------------------
  

 Cite this work as:
 Gaussian Development Version, Revision J.21,
 M. J. Frisch, G. W. Trucks, H. B. Schlegel, G. E. Scuseria, 
 M. A. Robb, J. R. Cheeseman, G. Scalmani, V. Barone, 
 G. A. Petersson, H. Nakatsuji, X. Li, A. V. Marenich, M. Caricato, 
 J. Bloino, B. G. Janesko, J. Zheng, R. Gomperts, B. Mennucci, 
 H. P. Hratchian, J. V. Ortiz, A. F. Izmaylov, J. L. Sonnenberg, 
 D. Williams-Young, F. Ding, F. Lipparini, F. Egidi, J. Goings, 
 B. Peng, A. Petrone, T. Henderson, D. Ranasinghe, V. G. Zakrzewski, 
 J. Gao, N. Rega, G. Zheng, W. Liang, M. Hada, M. Ehara, K. Toyota, 
 R. Fukuda, J. Hasegawa, M. Ishida, T. Nakajima, Y. Honda, O. Kitao, 
 H. Nakai, T. Vreven, K. Throssell, J. A. Montgomery, Jr., 
 J. E. Peralta, F. Ogliaro, M. J. Bearpark, J. J. Heyd, 
 E. N. Brothers, K. N. Kudin, V. N. Staroverov, T. A. Keith, 
 R. Kobayashi, J. Normand, K. Raghavachari, A. P. Rendell, 
 J. C. Burant, S. S. Iyengar, J. Tomasi, M. Cossi, J. M. Millam, 
 M. Klene, C. Adamo, R. Cammi, J. W. Ochterski, R. L. Martin, 
 K. Morokuma, O. Farkas, J. B. Foresman, and D. J. Fox, 
 Gaussian, Inc., Wallingford CT, 2020.
 
 ******************************************
 Gaussian DV:  ES64L-GDVRevJ.21 25-Jul-2022
                14-Mar-2025 
 ******************************************
 -------------------------------------
 #p UFF GEOM=READALLGIC OUTPUT=PICKETT
 -------------------------------------
 1/18=20,37=210000000,38=1,56=1,64=2,145=602,172=1/1;
 2/12=2/2;
 3/5=30,11=9,25=1,30=1,41=10020000,43=2/1;
 4/20=10,24=3/2;
 99/5=1,9=1,10=1024/99;
 Leave Link    1 at Fri Mar 14 14:14:59 2025, MaxMem=           0 cpu:               0.0 elap:               0.0
 (Enter /home/enzo/gaussian_versions/gdv.j21/gdv/l101.exe)
 ------------------
 individuo_1141.xyz
 ------------------
 Symbolic Z-matrix:
 Charge =     0 Multiplicity =     1
 6                     3.23843   1.0454   -0.22313 
 6                     2.04069   0.16213  -0.55119 
 16                    2.29056  -1.50253   0.13696 
 6                     0.77728   0.76269  -0.00574 
 8                     0.84289   1.64846   0.88703 
 7                    -0.49615   0.34148  -0.50567 
 6                    -1.73781   0.91889  -0.00166 
 6                    -2.82721  -0.1019    0.00814 
 8                    -3.98243   0.20552  -0.38163 
 8                    -2.56881  -1.38428   0.47371 
 1                     4.16032   0.60846  -0.65922 
 1                     3.09442   2.05818  -0.65372 
 1                     3.37073   1.13525   0.87536 
 1                     1.9687    0.06609  -1.65477 
 1                     1.86781  -2.13744  -1.04433 
 1                    -0.52844  -0.39419  -1.24677 
 1                    -1.57844   1.30112   1.02859 
 1                    -2.04079   1.76809  -0.64891 
 1                    -3.24791  -2.12536   0.35675 
 
 Initializing the GIC definitions file.

 CrInp1: Reading the GIC input below.
 Dihed1 = D( 15, 3, 2, 14)
 Dihed2 = D( 3, 2, 4, 5)
 Dihed3 = D( 4, 6, 7, 8)
 Dihed4 = D( 6, 7, 8, 9)
 Dihed5 = D( 9, 8, 10, 19)
 
 Warning:  Number of GICs=     5 3N-6=    51.
 ITRead=  0  0  0  0  0  0  0  0  0  0  0  0  0  0  0  0  0  0  0
 MicOpt= -1 -1 -1 -1 -1 -1 -1 -1 -1 -1 -1 -1 -1 -1 -1 -1 -1 -1 -1
                           ----------------------------
                           !    Current Parameters    !
                           ! (Angstroms and Degrees)  !
 --------------------------                            --------------------------
 ! Name   Definition             Value                                          !
 --------------------------------------------------------------------------------
 ! Dihed1 D(15,3,2,14)         -16.7625                                         !
 ! Dihed2 D(3,2,4,5)           104.0474                                         !
 ! Dihed3 D(4,6,7,8)          -146.2621                                         !
 ! Dihed4 D(6,7,8,9)          -137.265                                          !
 ! Dihed5 D(9,8,10,19)          10.7846                                         !
 --------------------------------------------------------------------------------
 NAtoms=     19 NQM=       19 NQMF=       0 NMMI=      0 NMMIF=      0
                NMic=       0 NMicF=      0.
                    Isotopes and Nuclear Properties:
 (Nuclear quadrupole moments (NQMom) in fm**2, nuclear magnetic moments (NMagM)
  in nuclear magnetons)

  Atom         1           2           3           4           5           6           7           8           9          10
 IAtWgt=          12          12          32          12          16          14          12          12          16          16
 AtmWgt=  12.0000000  12.0000000  31.9720718  12.0000000  15.9949146  14.0030740  12.0000000  12.0000000  15.9949146  15.9949146
 NucSpn=           0           0           0           0           0           2           0           0           0           0
 AtZEff=  -0.0000000  -0.0000000  -0.0000000  -0.0000000  -0.0000000  -0.0000000  -0.0000000  -0.0000000  -0.0000000  -0.0000000
 NQMom=    0.0000000   0.0000000   0.0000000   0.0000000   0.0000000   2.0440000   0.0000000   0.0000000   0.0000000   0.0000000
 NMagM=    0.0000000   0.0000000   0.0000000   0.0000000   0.0000000   0.4037610   0.0000000   0.0000000   0.0000000   0.0000000
 AtZNuc=   6.0000000   6.0000000  16.0000000   6.0000000   8.0000000   7.0000000   6.0000000   6.0000000   8.0000000   8.0000000

  Atom        11          12          13          14          15          16          17          18          19
 IAtWgt=           1           1           1           1           1           1           1           1           1
 AtmWgt=   1.0078250   1.0078250   1.0078250   1.0078250   1.0078250   1.0078250   1.0078250   1.0078250   1.0078250
 NucSpn=           1           1           1           1           1           1           1           1           1
 AtZEff=  -0.0000000  -0.0000000  -0.0000000  -0.0000000  -0.0000000  -0.0000000  -0.0000000  -0.0000000  -0.0000000
 NQMom=    0.0000000   0.0000000   0.0000000   0.0000000   0.0000000   0.0000000   0.0000000   0.0000000   0.0000000
 NMagM=    2.7928460   2.7928460   2.7928460   2.7928460   2.7928460   2.7928460   2.7928460   2.7928460   2.7928460
 AtZNuc=   1.0000000   1.0000000   1.0000000   1.0000000   1.0000000   1.0000000   1.0000000   1.0000000   1.0000000
 Generating MM parameters.
 Include all MM classes

 MM sanity checks:
 All charges sum to:                0.00000000
 Charges of atoms sum to:           0.00000000
 MMInit generated parameter data with length LenPar=        2803.
 Leave Link  101 at Fri Mar 14 14:14:59 2025, MaxMem=   104857600 cpu:               0.1 elap:               0.1
 (Enter /home/enzo/gaussian_versions/gdv.j21/gdv/l202.exe)
                          Input orientation:                          
 ---------------------------------------------------------------------
 Center     Atomic      Atomic             Coordinates (Angstroms)
 Number     Number       Type             X           Y           Z
 ---------------------------------------------------------------------
      1          6    10061003        3.238431    1.045395   -0.223134
      2          6    10061003        2.040686    0.162132   -0.551186
      3         16    10161003        2.290561   -1.502533    0.136955
      4          6    10061002        0.777276    0.762685   -0.005738
      5          8    10081002        0.842887    1.648463    0.887028
      6          7    10071000       -0.496151    0.341477   -0.505669
      7          6    10061003       -1.737810    0.918892   -0.001663
      8          6    10061000       -2.827207   -0.101901    0.008136
      9          8    10081002       -3.982426    0.205520   -0.381630
     10          8    10081000       -2.568810   -1.384276    0.473711
     11          1    10011000        4.160322    0.608456   -0.659218
     12          1    10011000        3.094424    2.058181   -0.653720
     13          1    10011000        3.370731    1.135251    0.875355
     14          1    10011000        1.968700    0.066089   -1.654768
     15          1    10011000        1.867809   -2.137437   -1.044331
     16          1    10011000       -0.528441   -0.394189   -1.246773
     17          1    10011000       -1.578442    1.301115    1.028594
     18          1    10011000       -2.040787    1.768086   -0.648911
     19          1    10011000       -3.247911   -2.125360    0.356751
 ---------------------------------------------------------------------
                    Distance matrix (angstroms):
                    1          2          3          4          5
     1  C    0.000000
     2  C    1.523931   0.000000
     3  S    2.742273   1.818539   0.000000
     4  C    2.486859   1.501460   2.727931   0.000000
     5  O    2.708280   2.390055   3.547837   1.259341   0.000000
     6  N    3.810831   2.543576   3.402808   1.431420   2.332561
     7  C    4.982773   3.892518   4.702158   2.519935   2.825251
     8  C    6.177519   4.907029   5.307534   3.706750   4.160026
     9  O    7.271264   6.025654   6.522020   4.806921   5.193768
    10  O    6.333478   4.968827   4.872461   4.004448   4.583450
    11  H    1.109490   2.168809   2.930217   3.449032   3.804979
    12  H    1.109900   2.171607   3.734976   2.732648   2.758839
    13  H    1.110070   2.179679   2.944470   2.764261   2.579441
    14  H    2.149612   1.110090   2.403007   2.150357   3.198764
    15  H    3.561375   2.358198   1.406150   3.267820   4.371916
    16  H    4.160476   2.719145   3.330150   2.140893   3.256697
    17  H    4.983421   4.109875   4.860519   2.628528   2.450209
    18  H    5.345438   4.387147   5.484078   3.060389   3.269403
    19  H    7.243106   5.833200   5.577714   4.967327   5.590846
                    6          7          8          9         10
     6  N    0.000000
     7  C    1.459160   0.000000
     8  C    2.427839   1.492950   0.000000
     9  O    3.491129   2.385702   1.257361   0.000000
    10  O    2.869377   2.494218   1.388530   2.292895   0.000000
    11  H    4.666647   5.942786   7.055178   8.157436   7.108848
    12  H    3.982615   5.007359   6.337959   7.320396   6.722636
    13  H    4.182114   5.187790   6.379424   7.517535   6.464324
    14  H    2.733452   4.147077   5.078799   6.087382   5.217564
    15  H    3.467489   4.840330   5.224392   6.336708   4.749241
    16  H    1.044740   2.176477   2.635252   3.610836   2.846655
    17  H    2.108607   1.110370   2.137569   2.994695   2.915484
    18  H    2.107518   1.109890   2.132374   2.506594   3.387695
    19  H    3.794896   3.417065   2.095927   2.552983   1.011960
                   11         12         13         14         15
    11  H    0.000000
    12  H    1.799409   0.000000
    13  H    1.804406   1.807267   0.000000
    14  H    2.467486   2.497555   3.083881   0.000000
    15  H    3.597757   4.388664   4.080987   2.288742   0.000000
    16  H    4.830633   4.414859   4.695333   2.571775   2.970170
    17  H    6.021785   5.023844   4.954322   4.616052   5.291248
    18  H    6.308613   5.143401   5.657596   4.470406   5.539548
    19  H    7.961649   7.664743   7.396415   6.005138   5.304127
                   16         17         18         19
    16  H    0.000000
    17  H    3.025533   0.000000
    18  H    2.705561   1.801624   0.000000
    19  H    3.600522   3.870301   4.198503   0.000000
 Stoichiometry    C5H9NO3S
 Framework group  C1[X(C5H9NO3S)]
 Deg. of freedom    51
 Full point group                 C1      NOp   1
 Largest Abelian subgroup         C1      NOp   1
 Largest concise Abelian subgroup C1      NOp   1
                         Standard orientation:                         
 ---------------------------------------------------------------------
 Center     Atomic      Atomic             Coordinates (Angstroms)
 Number     Number       Type             X           Y           Z
 ---------------------------------------------------------------------
      1          6    10061003        3.212295   -0.988838    0.184311
      2          6    10061003        2.005717   -0.118686    0.515022
      3         16    10161003        2.228101    1.543437   -0.188526
      4          6    10061002        0.745958   -0.740162   -0.015221
      5          8    10081002        0.816012   -1.632262   -0.901330
      6          7    10071000       -0.528825   -0.331598    0.491699
      7          6    10061003       -1.766806   -0.929316    0.002532
      8          6    10061000       -2.869585    0.077011   -0.006580
      9          8    10081002       -4.017475   -0.242319    0.395084
     10          8    10081000       -2.631853    1.358817   -0.484567
     11          1    10011000        4.131846   -0.536320    0.609307
     12          1    10011000        3.085108   -1.999874    0.624204
     13          1    10011000        3.336895   -1.085916   -0.914464
     14          1    10011000        1.941383   -0.014590    1.618346
     15          1    10011000        1.806579    2.182371    0.991025
     16          1    10011000       -0.564811    0.409606    1.227092
     17          1    10011000       -1.610743   -1.317815   -1.025882
     18          1    10011000       -2.053347   -1.777093    0.659055
     19          1    10011000       -3.319682    2.091875   -0.368030
 ---------------------------------------------------------------------
 Rotational constants (GHZ):           2.1505470           0.5285227           0.4512381
 Leave Link  202 at Fri Mar 14 14:14:59 2025, MaxMem=   104857600 cpu:               0.0 elap:               0.0
 (Enter /home/enzo/gaussian_versions/gdv.j21/gdv/l301.exe)
 Standard basis: Dummy (5D, 7F)
 There are    19 symmetry adapted cartesian basis functions of A   symmetry.
 There are    19 symmetry adapted basis functions of A   symmetry.
    19 basis functions,    19 primitive gaussians,    19 cartesian basis functions
    14 alpha electrons       14 beta electrons
       nuclear repulsion energy        67.6232264951 Hartrees.
 IExCor=         0 DFT=F Ex=HF Corr=None N6=None ScaHFX=  1.000000
 ScaDFX=  1.000000  1.000000  1.000000  1.000000  1.000000  0.000000
 ScaDFX=  0.000000  0.000000  0.000000  0.000000  0.000000  0.000000
 IRadAn=      5 IRanWt=     -1 IRanGd=            0 ICorTp=0 IEmpDi=  4
 NAtoms=   19 NActive=   19 NUniq=   19 SFac= 1.00D+00 NAtFMM=   60 NAOKFM=F Big=F
 Integral buffers will be    131072 words long.
 Raffenetti 1 integral format.
 Two-electron integral symmetry is turned on.
 Leave Link  301 at Fri Mar 14 14:14:59 2025, MaxMem=   104857600 cpu:               0.0 elap:               0.0
 (Enter /home/enzo/gaussian_versions/gdv.j21/gdv/l402.exe)
 UFF calculation of energy.
 Energy per function type:
 Direct Coulomb + vdW (small)                           0.023131784
 Direct Coulomb (large)                                 0.000000000
 Direct vdW (large)                                   682.405864252
 Non-direct Coulomb + vdW (small)                      -0.014071918
 Non-direct Coulomb (large)                             0.000000000
 Non-direct vdW (large)                              -682.405864252
 Harmonic stretch III                                   0.010506368
 UFF 3-term bend                                        0.004904353
 UFF 2-term bend                                        0.000135017
 UFF torsion fixed V                                    0.003320091
 UFF torsion w/ bond order V                            0.001337486
 UFF torsion w/ sp3 V                                   0.001348805
 Three term Wilson angle                                0.000018416
 Energy per function class:
        Coulomb               0.000000000
    Vanderwaals               0.009059866
     Stretching               0.010506368
        Bending               0.005039371
        Torsion               0.006006382
   Out-of-plane               0.000018416
 Energy=    3.063040269E-02 NIter=   0.
 Dipole moment=       0.000000       0.000000       0.000000
 Leave Link  402 at Fri Mar 14 14:14:59 2025, MaxMem=   104857600 cpu:               0.0 elap:               0.0
 (Enter /home/enzo/gaussian_versions/gdv.j21/gdv/l9999.exe)
 Unable to Open any file for archive entry.
 1\1\GINC-ORACLE\SP\UFF\ZDO\C5H9N1O3S1\ENZO\14-Mar-2025\0\\#p UFF GEOM=
 READALLGIC OUTPUT=PICKETT\\individuo_1141.xyz\\0,1\C,0,3.238431,1.0453
 95,-0.223134\C,0,2.040686,0.162132,-0.551186\S,0,2.290561,-1.502533,0.
 136955\C,0,0.777276,0.762685,-0.005738\O,0,0.842887,1.648463,0.887028\
 N,0,-0.496151,0.341477,-0.505669\C,0,-1.73781,0.918892,-0.001663\C,0,-
 2.827207,-0.101901,0.008136\O,0,-3.982426,0.20552,-0.38163\O,0,-2.5688
 1,-1.384276,0.473711\H,0,4.160322,0.608456,-0.659218\H,0,3.094424,2.05
 8181,-0.65372\H,0,3.370731,1.135251,0.875355\H,0,1.9687,0.066089,-1.65
 4768\H,0,1.867809,-2.137437,-1.044331\H,0,-0.528441,-0.394189,-1.24677
 3\H,0,-1.578442,1.301115,1.028594\H,0,-2.040787,1.768086,-0.648911\H,0
 ,-3.247911,-2.12536,0.356751\\Version=ES64L-GDVRevJ.21\HF=0.0306304\RM
 SD=0.000e+00\Dipole=0.,0.,0.\PG=C01 [X(C5H9N1O3S1)]\\@
 The archive entry for this job was punched.
 DoSRE=F DoSRN=F DoDH=F DoFC=F DoNQ=F DoQCD=F DoSCD=F
 Inertia tensor (amu-bohr**2): 
                 1             2             3 
      1   0.839201D+03 -0.681060D-04 -0.154043D-03
      2  -0.681060D-04  0.341469D+04 -0.122735D-04
      3  -0.154043D-03 -0.122735D-04  0.399953D+04
 Principal inertia moments (amu-bohr**2):
 Iaa = 0.839201D+03 Ibb= 0.341469D+04 Icc= 0.399953D+04
 Rotation matrix to Principal Axis frame: 
                 1             2             3 
      1   0.100000D+01  0.000000D+00  0.000000D+00
      2   0.000000D+00  0.100000D+01  0.000000D+00
      3   0.000000D+00  0.000000D+00  0.100000D+01
                Principal axis orientation:                
 ---------------------------------------------------------------------
 Center     Atomic                     Coordinates (Angstroms)
 Number     Number                        X           Y           Z
 ---------------------------------------------------------------------
      1          6                    3.238431    1.045395   -0.223134
      2          6                    2.040686    0.162132   -0.551186
      3         16                    2.290561   -1.502533    0.136955
      4          6                    0.777276    0.762685   -0.005738
      5          8                    0.842887    1.648463    0.887028
      6          7                   -0.496151    0.341477   -0.505669
      7          6                   -1.737810    0.918892   -0.001663
      8          6                   -2.827207   -0.101901    0.008136
      9          8                   -3.982426    0.205520   -0.381630
     10          8                   -2.568810   -1.384276    0.473711
     11          1                    4.160322    0.608456   -0.659218
     12          1                    3.094424    2.058181   -0.653720
     13          1                    3.370731    1.135251    0.875355
     14          1                    1.968700    0.066089   -1.654768
     15          1                    1.867809   -2.137437   -1.044331
     16          1                   -0.528441   -0.394189   -1.246773
     17          1                   -1.578442    1.301115    1.028594
     18          1                   -2.040787    1.768086   -0.648911
     19          1                   -3.247911   -2.125360    0.356751
 ---------------------------------------------------------------------
 Rotational constants (MHZ):
   2150.5470002    528.5227451    451.2380958
 Dipole moment (Debye):
      0.0000000      0.0000000     -0.0000000  Tot=      0.0000000

 Atoms with significant hyperfine tensors: 

--------------------------------------------------------------------------------
 individuo_1141.xyz                                      
   99  1000  50  0.1760E-11  0.1000E+07  0.1000E+01 1.0000000000
a   1  0  0  0  1  1   1  0  1  0
     10000   0.21505470E+04    0.0000E+00   /  A  /
     20000   0.52852275E+03    0.0000E+00   /  B  /
     30000   0.45123810E+03    0.0000E+00   /  C  /
--------------------------------------------------------------------------------



 ASKING FOR EFFICIENCY AND ADAPTABILITY IN THE SAME PROGRAM IS LIKE
 ASKING FOR A BEAUTIFUL AND MODEST WIFE ...
 WE'LL PROBABLY HAVE TO SETTLE FOR ONE OR THE OTHER.

             -- THE PSYCHOLOGY OF COMPUTER PROGRAMMING
                GERALD M. WEINBERG
 Job cpu time:       0 days  0 hours  0 minutes  0.2 seconds.
 Elapsed time:       0 days  0 hours  0 minutes  0.2 seconds.
 File lengths (MBytes):  RWF=     14 Int=      0 D2E=      0 Chk=      9 Scr=      1
 Normal termination of Gaussian DV at Fri Mar 14 14:14:59 2025.
