 Entering Gaussian System, Link 0=gdv
 Input=../generations_tiopronin/population_49/temp_processing/individuo_3436.gjf
 Output=../generations_tiopronin/population_49/temp_processing/individuo_3436.log
 Initial command:
 /home/enzo/gaussian_versions/gdv.j21/gdv/l1.exe "/local/home/enzo/scratch/Gau-2270867.inp" -scrdir="/local/home/enzo/scratch/"
 Entering Link 1 = /home/enzo/gaussian_versions/gdv.j21/gdv/l1.exe PID=   2270868.
  
 Copyright (c) 1988-2022, Gaussian, Inc.  All Rights Reserved.
  
 This is the private, development version of
 the Gaussian(R) DV system of programs. It is based on
 the Gaussian(R) 16 system (copyright 2016, Gaussian, Inc.),
 the Gaussian(R) 09 system (copyright 2009, Gaussian, Inc.),
 the Gaussian(R) 03 system (copyright 2003, Gaussian, Inc.),
 the Gaussian(R) 98 system (copyright 1998, Gaussian, Inc.),
 the Gaussian(R) 94 system (copyright 1995, Gaussian, Inc.),
 the Gaussian 92(TM) system (copyright 1992, Gaussian, Inc.),
 the Gaussian 90(TM) system (copyright 1990, Gaussian, Inc.),
 the Gaussian 88(TM) system (copyright 1988, Gaussian, Inc.),
 the Gaussian 86(TM) system (copyright 1986, Carnegie Mellon
 University), and the Gaussian 82(TM) system (copyright 1983,
 Carnegie Mellon University). Gaussian is a federally registered
 trademark of Gaussian, Inc.
  
 This software contains proprietary and confidential information,
 including trade secrets, belonging to Gaussian, Inc.
  
 This software is provided under written license and may be
 used, copied, transmitted, or stored only in accord with that
 written license.
  
 The following legend is applicable only to US Government
 contracts under FAR:
  
                    RESTRICTED RIGHTS LEGEND
  
 Use, reproduction and disclosure by the US Government is
 subject to restrictions as set forth in subparagraphs (a)
 and (c) of the Commercial Computer Software - Restricted
 Rights clause in FAR 52.227-19.
  
 Gaussian, Inc.
 340 Quinnipiac St., Bldg. 40, Wallingford CT 06492
  
  
 ---------------------------------------------------------------
 Warning -- This program may not be used in any manner that
 competes with the business of Gaussian, Inc. or will provide
 assistance to any competitor of Gaussian, Inc.  The licensee
 of this program is prohibited from giving any competitor of
 Gaussian, Inc. access to this program.  By using this program,
 the user acknowledges that Gaussian, Inc. is engaged in the
 business of creating and licensing software in the field of
 computational chemistry and represents and warrants to the
 licensee that it is not a competitor of Gaussian, Inc. and that
 it will not use this program in any manner prohibited above.
 ---------------------------------------------------------------
  

 Cite this work as:
 Gaussian Development Version, Revision J.21,
 M. J. Frisch, G. W. Trucks, H. B. Schlegel, G. E. Scuseria, 
 M. A. Robb, J. R. Cheeseman, G. Scalmani, V. Barone, 
 G. A. Petersson, H. Nakatsuji, X. Li, A. V. Marenich, M. Caricato, 
 J. Bloino, B. G. Janesko, J. Zheng, R. Gomperts, B. Mennucci, 
 H. P. Hratchian, J. V. Ortiz, A. F. Izmaylov, J. L. Sonnenberg, 
 D. Williams-Young, F. Ding, F. Lipparini, F. Egidi, J. Goings, 
 B. Peng, A. Petrone, T. Henderson, D. Ranasinghe, V. G. Zakrzewski, 
 J. Gao, N. Rega, G. Zheng, W. Liang, M. Hada, M. Ehara, K. Toyota, 
 R. Fukuda, J. Hasegawa, M. Ishida, T. Nakajima, Y. Honda, O. Kitao, 
 H. Nakai, T. Vreven, K. Throssell, J. A. Montgomery, Jr., 
 J. E. Peralta, F. Ogliaro, M. J. Bearpark, J. J. Heyd, 
 E. N. Brothers, K. N. Kudin, V. N. Staroverov, T. A. Keith, 
 R. Kobayashi, J. Normand, K. Raghavachari, A. P. Rendell, 
 J. C. Burant, S. S. Iyengar, J. Tomasi, M. Cossi, J. M. Millam, 
 M. Klene, C. Adamo, R. Cammi, J. W. Ochterski, R. L. Martin, 
 K. Morokuma, O. Farkas, J. B. Foresman, and D. J. Fox, 
 Gaussian, Inc., Wallingford CT, 2020.
 
 ******************************************
 Gaussian DV:  ES64L-GDVRevJ.21 25-Jul-2022
                14-Mar-2025 
 ******************************************
 -------------------------------------
 #p UFF GEOM=READALLGIC OUTPUT=PICKETT
 -------------------------------------
 1/18=20,37=210000000,38=1,56=1,64=2,145=602,172=1/1;
 2/12=2/2;
 3/5=30,11=9,25=1,30=1,41=10020000,43=2/1;
 4/20=10,24=3/2;
 99/5=1,9=1,10=1024/99;
 Leave Link    1 at Fri Mar 14 14:15:05 2025, MaxMem=           0 cpu:               0.0 elap:               0.0
 (Enter /home/enzo/gaussian_versions/gdv.j21/gdv/l101.exe)
 ------------------
 individuo_3436.xyz
 ------------------
 Symbolic Z-matrix:
 Charge =     0 Multiplicity =     1
 6                    -1.5987    1.90947  -0.07289 
 6                    -1.84941   0.52358   0.50919 
 16                   -3.1756   -0.30754  -0.41685 
 6                    -0.59513  -0.30071   0.46788 
 8                    -0.63361  -1.47167   0.00603 
 7                     0.64205   0.24415   0.93849 
 6                     1.87726  -0.53154   0.89695 
 6                     2.76878  -0.04363  -0.19669 
 8                     3.93762   0.33808   0.06612 
 8                     2.29561   0.01299  -1.50089 
 1                    -2.52307   2.51951  -0.00676 
 1                    -0.79889   2.42416   0.49919 
 1                    -1.2929    1.83858  -1.13765 
 1                    -2.19069   0.64156   1.55891 
 1                    -3.43876  -1.21472   0.6248 
 1                     0.65238   1.21778   1.3172 
 1                     2.4034   -0.4447    1.87088 
 1                     1.6373   -1.60079   0.72093 
 1                     1.32505   0.22649  -1.69188 
 
 Initializing the GIC definitions file.

 CrInp1: Reading the GIC input below.
 Dihed1 = D( 15, 3, 2, 14)
 Dihed2 = D( 3, 2, 4, 5)
 Dihed3 = D( 4, 6, 7, 8)
 Dihed4 = D( 6, 7, 8, 9)
 Dihed5 = D( 9, 8, 10, 19)
 
 Warning:  Number of GICs=     5 3N-6=    51.
 ITRead=  0  0  0  0  0  0  0  0  0  0  0  0  0  0  0  0  0  0  0
 MicOpt= -1 -1 -1 -1 -1 -1 -1 -1 -1 -1 -1 -1 -1 -1 -1 -1 -1 -1 -1
                           ----------------------------
                           !    Current Parameters    !
                           ! (Angstroms and Degrees)  !
 --------------------------                            --------------------------
 ! Name   Definition             Value                                          !
 --------------------------------------------------------------------------------
 ! Dihed1 D(15,3,2,14)         -42.042                                          !
 ! Dihed2 D(3,2,4,5)            -9.5623                                         !
 ! Dihed3 D(4,6,7,8)           105.7028                                         !
 ! Dihed4 D(6,7,8,9)           123.1545                                         !
 ! Dihed5 D(9,8,10,19)        -145.1985                                         !
 --------------------------------------------------------------------------------
 NAtoms=     19 NQM=       19 NQMF=       0 NMMI=      0 NMMIF=      0
                NMic=       0 NMicF=      0.
                    Isotopes and Nuclear Properties:
 (Nuclear quadrupole moments (NQMom) in fm**2, nuclear magnetic moments (NMagM)
  in nuclear magnetons)

  Atom         1           2           3           4           5           6           7           8           9          10
 IAtWgt=          12          12          32          12          16          14          12          12          16          16
 AtmWgt=  12.0000000  12.0000000  31.9720718  12.0000000  15.9949146  14.0030740  12.0000000  12.0000000  15.9949146  15.9949146
 NucSpn=           0           0           0           0           0           2           0           0           0           0
 AtZEff=  -0.0000000  -0.0000000  -0.0000000  -0.0000000  -0.0000000  -0.0000000  -0.0000000  -0.0000000  -0.0000000  -0.0000000
 NQMom=    0.0000000   0.0000000   0.0000000   0.0000000   0.0000000   2.0440000   0.0000000   0.0000000   0.0000000   0.0000000
 NMagM=    0.0000000   0.0000000   0.0000000   0.0000000   0.0000000   0.4037610   0.0000000   0.0000000   0.0000000   0.0000000
 AtZNuc=   6.0000000   6.0000000  16.0000000   6.0000000   8.0000000   7.0000000   6.0000000   6.0000000   8.0000000   8.0000000

  Atom        11          12          13          14          15          16          17          18          19
 IAtWgt=           1           1           1           1           1           1           1           1           1
 AtmWgt=   1.0078250   1.0078250   1.0078250   1.0078250   1.0078250   1.0078250   1.0078250   1.0078250   1.0078250
 NucSpn=           1           1           1           1           1           1           1           1           1
 AtZEff=  -0.0000000  -0.0000000  -0.0000000  -0.0000000  -0.0000000  -0.0000000  -0.0000000  -0.0000000  -0.0000000
 NQMom=    0.0000000   0.0000000   0.0000000   0.0000000   0.0000000   0.0000000   0.0000000   0.0000000   0.0000000
 NMagM=    2.7928460   2.7928460   2.7928460   2.7928460   2.7928460   2.7928460   2.7928460   2.7928460   2.7928460
 AtZNuc=   1.0000000   1.0000000   1.0000000   1.0000000   1.0000000   1.0000000   1.0000000   1.0000000   1.0000000
 Generating MM parameters.
 Include all MM classes

 MM sanity checks:
 All charges sum to:                0.00000000
 Charges of atoms sum to:           0.00000000
 MMInit generated parameter data with length LenPar=        2803.
 Leave Link  101 at Fri Mar 14 14:15:05 2025, MaxMem=   104857600 cpu:               0.1 elap:               0.1
 (Enter /home/enzo/gaussian_versions/gdv.j21/gdv/l202.exe)
                          Input orientation:                          
 ---------------------------------------------------------------------
 Center     Atomic      Atomic             Coordinates (Angstroms)
 Number     Number       Type             X           Y           Z
 ---------------------------------------------------------------------
      1          6    10061003       -1.598701    1.909472   -0.072891
      2          6    10061003       -1.849411    0.523583    0.509190
      3         16    10161003       -3.175596   -0.307542   -0.416851
      4          6    10061002       -0.595129   -0.300705    0.467879
      5          8    10081002       -0.633613   -1.471669    0.006034
      6          7    10071000        0.642054    0.244151    0.938490
      7          6    10061003        1.877258   -0.531538    0.896946
      8          6    10061000        2.768777   -0.043631   -0.196689
      9          8    10081002        3.937615    0.338078    0.066123
     10          8    10081000        2.295614    0.012986   -1.500885
     11          1    10011000       -2.523067    2.519507   -0.006763
     12          1    10011000       -0.798889    2.424156    0.499192
     13          1    10011000       -1.292903    1.838575   -1.137653
     14          1    10011000       -2.190695    0.641558    1.558908
     15          1    10011000       -3.438759   -1.214723    0.624795
     16          1    10011000        0.652380    1.217779    1.317201
     17          1    10011000        2.403404   -0.444699    1.870882
     18          1    10011000        1.637295   -1.600787    0.720933
     19          1    10011000        1.325047    0.226489   -1.691878
 ---------------------------------------------------------------------
                    Distance matrix (angstroms):
                    1          2          3          4          5
     1  C    0.000000
     2  C    1.523930   0.000000
     3  S    2.742272   1.818540   0.000000
     4  C    2.486860   1.501460   2.727930   0.000000
     5  O    3.517064   2.390055   2.827667   1.259341   0.000000
     6  N    2.969372   2.543576   4.088492   1.431420   2.332561
     7  C    4.356765   3.892518   5.225665   2.519936   2.825251
     8  C    4.785896   4.706130   5.954300   3.438546   3.695490
     9  O    5.756683   5.806926   7.158761   4.595130   4.916800
    10  O    4.560868   4.634905   5.586771   3.511528   3.613222
    11  H    1.109490   2.168809   2.930217   3.449033   4.415845
    12  H    1.109900   2.171606   3.734976   2.732648   3.930391
    13  H    1.110071   2.179678   2.944471   2.764261   3.563762
    14  H    2.149612   1.110090   2.403007   2.150357   3.049861
    15  H    3.692313   2.358198   1.406150   2.991034   2.884048
    16  H    2.734623   2.719145   4.470676   2.140892   3.256696
    17  H    5.033609   4.569268   6.031399   3.313661   3.708881
    18  H    4.839808   4.088386   5.111845   2.595759   2.384277
    19  H    3.741905   3.874293   4.708149   2.937611   3.098870
                    6          7          8          9         10
     6  N    0.000000
     7  C    1.459160   0.000000
     8  C    2.427839   1.492949   0.000000
     9  O    3.410362   2.385701   1.257360   0.000000
    10  O    2.956053   2.494218   1.388530   2.292895   0.000000
    11  H    4.011077   5.430325   5.882972   6.819410   5.633359
    12  H    2.649853   4.007006   4.393457   5.193625   4.403407
    13  H    3.255244   4.450500   4.574424   5.573050   4.042545
    14  H    2.926998   4.285159   5.305466   6.314799   5.466663
    15  H    4.345084   5.366642   6.370227   7.558717   6.237693
    16  H    1.044739   2.176477   2.891739   3.623788   3.477550
    17  H    2.108607   1.110370   2.137569   2.494734   3.404395
    18  H    2.107518   1.109890   2.132373   3.078871   2.823849
    19  H    2.717651   2.753462   2.095927   3.150957   1.011960
                   11         12         13         14         15
    11  H    0.000000
    12  H    1.799409   0.000000
    13  H    1.804407   1.807268   0.000000
    14  H    2.467486   2.497554   3.083881   0.000000
    15  H    3.896387   4.497347   4.127172   2.424048   0.000000
    16  H    3.678429   2.056858   3.193090   2.910933   4.809772
    17  H    6.048321   4.512931   5.284629   4.731070   6.023001
    18  H    5.900422   4.710024   4.885654   4.514844   5.091622
    19  H    4.785972   3.760536   3.124044   4.806281   5.489801
                   16         17         18         19
    16  H    0.000000
    17  H    2.477192   0.000000
    18  H    3.044652   1.801623   0.000000
    19  H    3.238780   3.782407   3.042712   0.000000
 Stoichiometry    C5H9NO3S
 Framework group  C1[X(C5H9NO3S)]
 Deg. of freedom    51
 Full point group                 C1      NOp   1
 Largest Abelian subgroup         C1      NOp   1
 Largest concise Abelian subgroup C1      NOp   1
                         Standard orientation:                         
 ---------------------------------------------------------------------
 Center     Atomic      Atomic             Coordinates (Angstroms)
 Number     Number       Type             X           Y           Z
 ---------------------------------------------------------------------
      1          6    10061003        1.597431    1.859543    0.022441
      2          6    10061003        1.830731    0.449089   -0.505339
      3         16    10161003        3.146310   -0.362100    0.452948
      4          6    10061002        0.566183   -0.357159   -0.432787
      5          8    10081002        0.589917   -1.509727    0.074126
      6          7    10071000       -0.664025    0.184538   -0.924841
      7          6    10061003       -1.908886   -0.573382   -0.853930
      8          6    10061000       -2.794263   -0.032282    0.219483
      9          8    10081002       -3.958195    0.353602   -0.058566
     10          8    10081000       -2.320500    0.068910    1.520761
     11          1    10011000        2.529397    2.454897   -0.066783
     12          1    10011000        0.804185    2.361665   -0.569600
     13          1    10011000        1.290705    1.833827    1.088985
     14          1    10011000        2.173532    0.521981   -1.558655
     15          1    10011000        3.398107   -1.312218   -0.552603
     16          1    10011000       -0.662088    1.142804   -1.341017
     17          1    10011000       -2.433843   -0.517766   -1.830786
     18          1    10011000       -1.682394   -1.637932   -0.636467
     19          1    10011000       -1.347337    0.277450    1.703862
 ---------------------------------------------------------------------
 Rotational constants (GHZ):           2.5676765           0.5072240           0.4919976
 Leave Link  202 at Fri Mar 14 14:15:05 2025, MaxMem=   104857600 cpu:               0.0 elap:               0.0
 (Enter /home/enzo/gaussian_versions/gdv.j21/gdv/l301.exe)
 Standard basis: Dummy (5D, 7F)
 There are    19 symmetry adapted cartesian basis functions of A   symmetry.
 There are    19 symmetry adapted basis functions of A   symmetry.
    19 basis functions,    19 primitive gaussians,    19 cartesian basis functions
    14 alpha electrons       14 beta electrons
       nuclear repulsion energy        69.5992604112 Hartrees.
 IExCor=         0 DFT=F Ex=HF Corr=None N6=None ScaHFX=  1.000000
 ScaDFX=  1.000000  1.000000  1.000000  1.000000  1.000000  0.000000
 ScaDFX=  0.000000  0.000000  0.000000  0.000000  0.000000  0.000000
 IRadAn=      5 IRanWt=     -1 IRanGd=            0 ICorTp=0 IEmpDi=  4
 NAtoms=   19 NActive=   19 NUniq=   19 SFac= 1.00D+00 NAtFMM=   60 NAOKFM=F Big=F
 Integral buffers will be    131072 words long.
 Raffenetti 1 integral format.
 Two-electron integral symmetry is turned on.
 Leave Link  301 at Fri Mar 14 14:15:05 2025, MaxMem=   104857600 cpu:               0.0 elap:               0.0
 (Enter /home/enzo/gaussian_versions/gdv.j21/gdv/l402.exe)
 UFF calculation of energy.
 Energy per function type:
 Direct Coulomb + vdW (small)                           0.027285272
 Direct Coulomb (large)                                 0.000000000
 Direct vdW (large)                                   682.406713273
 Non-direct Coulomb + vdW (small)                      -0.014071858
 Non-direct Coulomb (large)                             0.000000000
 Non-direct vdW (large)                              -682.406713273
 Harmonic stretch III                                   0.010506335
 UFF 3-term bend                                        0.004904388
 UFF 2-term bend                                        0.000135019
 UFF torsion fixed V                                    0.001095995
 UFF torsion w/ bond order V                            0.013542146
 UFF torsion w/ sp3 V                                   0.000360483
 Three term Wilson angle                                0.000018416
 Energy per function class:
        Coulomb               0.000000000
    Vanderwaals               0.013213414
     Stretching               0.010506335
        Bending               0.005039408
        Torsion               0.014998625
   Out-of-plane               0.000018416
 Energy=    4.377619746E-02 NIter=   0.
 Dipole moment=       0.000000       0.000000       0.000000
 Leave Link  402 at Fri Mar 14 14:15:05 2025, MaxMem=   104857600 cpu:               0.0 elap:               0.0
 (Enter /home/enzo/gaussian_versions/gdv.j21/gdv/l9999.exe)
 Unable to Open any file for archive entry.
 1\1\GINC-ORACLE\SP\UFF\ZDO\C5H9N1O3S1\ENZO\14-Mar-2025\0\\#p UFF GEOM=
 READALLGIC OUTPUT=PICKETT\\individuo_3436.xyz\\0,1\C,0,-1.598701,1.909
 472,-0.072891\C,0,-1.849411,0.523583,0.50919\S,0,-3.175596,-0.307542,-
 0.416851\C,0,-0.595129,-0.300705,0.467879\O,0,-0.633613,-1.471669,0.00
 6034\N,0,0.642054,0.244151,0.93849\C,0,1.877258,-0.531538,0.896946\C,0
 ,2.768777,-0.043631,-0.196689\O,0,3.937615,0.338078,0.066123\O,0,2.295
 614,0.012986,-1.500885\H,0,-2.523067,2.519507,-0.006763\H,0,-0.798889,
 2.424156,0.499192\H,0,-1.292903,1.838575,-1.137653\H,0,-2.190695,0.641
 558,1.558908\H,0,-3.438759,-1.214723,0.624795\H,0,0.65238,1.217779,1.3
 17201\H,0,2.403404,-0.444699,1.870882\H,0,1.637295,-1.600787,0.720933\
 H,0,1.325047,0.226489,-1.691878\\Version=ES64L-GDVRevJ.21\HF=0.0437762
 \RMSD=0.000e+00\Dipole=0.,0.,0.\PG=C01 [X(C5H9N1O3S1)]\\@
 The archive entry for this job was punched.
 DoSRE=F DoSRN=F DoDH=F DoFC=F DoNQ=F DoQCD=F DoSCD=F
 Inertia tensor (amu-bohr**2): 
                 1             2             3 
      1   0.702869D+03  0.159251D-03 -0.425764D-04
      2   0.159251D-03  0.355808D+04 -0.428368D-05
      3  -0.425764D-04 -0.428368D-05  0.366819D+04
 Principal inertia moments (amu-bohr**2):
 Iaa = 0.702869D+03 Ibb= 0.355808D+04 Icc= 0.366819D+04
 Rotation matrix to Principal Axis frame: 
                 1             2             3 
      1   0.100000D+01  0.000000D+00  0.000000D+00
      2   0.000000D+00  0.100000D+01  0.000000D+00
      3   0.000000D+00  0.000000D+00  0.100000D+01
                Principal axis orientation:                
 ---------------------------------------------------------------------
 Center     Atomic                     Coordinates (Angstroms)
 Number     Number                        X           Y           Z
 ---------------------------------------------------------------------
      1          6                   -1.598701    1.909472   -0.072891
      2          6                   -1.849411    0.523583    0.509190
      3         16                   -3.175596   -0.307542   -0.416851
      4          6                   -0.595129   -0.300705    0.467879
      5          8                   -0.633613   -1.471669    0.006034
      6          7                    0.642054    0.244151    0.938490
      7          6                    1.877258   -0.531538    0.896946
      8          6                    2.768777   -0.043631   -0.196689
      9          8                    3.937615    0.338078    0.066123
     10          8                    2.295614    0.012986   -1.500885
     11          1                   -2.523067    2.519507   -0.006763
     12          1                   -0.798889    2.424156    0.499192
     13          1                   -1.292903    1.838575   -1.137653
     14          1                   -2.190695    0.641558    1.558908
     15          1                   -3.438759   -1.214723    0.624795
     16          1                    0.652380    1.217779    1.317201
     17          1                    2.403404   -0.444699    1.870882
     18          1                    1.637295   -1.600787    0.720933
     19          1                    1.325047    0.226489   -1.691878
 ---------------------------------------------------------------------
 Rotational constants (MHZ):
   2567.6765262    507.2239803    491.9976002
 Dipole moment (Debye):
      0.0000000      0.0000000      0.0000000  Tot=      0.0000000

 Atoms with significant hyperfine tensors: 

--------------------------------------------------------------------------------
 individuo_3436.xyz                                      
   99  1000  50  0.1760E-11  0.1000E+07  0.1000E+01 1.0000000000
a   1  0  0  0  1  1   1  0  1  0
     10000   0.25676765E+04    0.0000E+00   /  A  /
     20000   0.50722398E+03    0.0000E+00   /  B  /
     30000   0.49199760E+03    0.0000E+00   /  C  /
--------------------------------------------------------------------------------



 ERWIN WITH HIS PSI CAN DO
 CALCULATIONS QUITE A FEW.
 BUT ONE THING HAS NOT BEEN SEEN
 JUST WHAT DOES PSI REALLY MEAN.
 -- WALTER HUCKEL, TRANS. BY FELIX BLOCH
 Job cpu time:       0 days  0 hours  0 minutes  0.2 seconds.
 Elapsed time:       0 days  0 hours  0 minutes  0.2 seconds.
 File lengths (MBytes):  RWF=     14 Int=      0 D2E=      0 Chk=      9 Scr=      1
 Normal termination of Gaussian DV at Fri Mar 14 14:15:05 2025.
