 Entering Gaussian System, Link 0=gdv
 Input=../generations_tiopronin/population_49/temp_processing/individuo_9294.gjf
 Output=../generations_tiopronin/population_49/temp_processing/individuo_9294.log
 Initial command:
 /home/enzo/gaussian_versions/gdv.j21/gdv/l1.exe "/local/home/enzo/scratch/Gau-2270839.inp" -scrdir="/local/home/enzo/scratch/"
 Entering Link 1 = /home/enzo/gaussian_versions/gdv.j21/gdv/l1.exe PID=   2270840.
  
 Copyright (c) 1988-2022, Gaussian, Inc.  All Rights Reserved.
  
 This is the private, development version of
 the Gaussian(R) DV system of programs. It is based on
 the Gaussian(R) 16 system (copyright 2016, Gaussian, Inc.),
 the Gaussian(R) 09 system (copyright 2009, Gaussian, Inc.),
 the Gaussian(R) 03 system (copyright 2003, Gaussian, Inc.),
 the Gaussian(R) 98 system (copyright 1998, Gaussian, Inc.),
 the Gaussian(R) 94 system (copyright 1995, Gaussian, Inc.),
 the Gaussian 92(TM) system (copyright 1992, Gaussian, Inc.),
 the Gaussian 90(TM) system (copyright 1990, Gaussian, Inc.),
 the Gaussian 88(TM) system (copyright 1988, Gaussian, Inc.),
 the Gaussian 86(TM) system (copyright 1986, Carnegie Mellon
 University), and the Gaussian 82(TM) system (copyright 1983,
 Carnegie Mellon University). Gaussian is a federally registered
 trademark of Gaussian, Inc.
  
 This software contains proprietary and confidential information,
 including trade secrets, belonging to Gaussian, Inc.
  
 This software is provided under written license and may be
 used, copied, transmitted, or stored only in accord with that
 written license.
  
 The following legend is applicable only to US Government
 contracts under FAR:
  
                    RESTRICTED RIGHTS LEGEND
  
 Use, reproduction and disclosure by the US Government is
 subject to restrictions as set forth in subparagraphs (a)
 and (c) of the Commercial Computer Software - Restricted
 Rights clause in FAR 52.227-19.
  
 Gaussian, Inc.
 340 Quinnipiac St., Bldg. 40, Wallingford CT 06492
  
  
 ---------------------------------------------------------------
 Warning -- This program may not be used in any manner that
 competes with the business of Gaussian, Inc. or will provide
 assistance to any competitor of Gaussian, Inc.  The licensee
 of this program is prohibited from giving any competitor of
 Gaussian, Inc. access to this program.  By using this program,
 the user acknowledges that Gaussian, Inc. is engaged in the
 business of creating and licensing software in the field of
 computational chemistry and represents and warrants to the
 licensee that it is not a competitor of Gaussian, Inc. and that
 it will not use this program in any manner prohibited above.
 ---------------------------------------------------------------
  

 Cite this work as:
 Gaussian Development Version, Revision J.21,
 M. J. Frisch, G. W. Trucks, H. B. Schlegel, G. E. Scuseria, 
 M. A. Robb, J. R. Cheeseman, G. Scalmani, V. Barone, 
 G. A. Petersson, H. Nakatsuji, X. Li, A. V. Marenich, M. Caricato, 
 J. Bloino, B. G. Janesko, J. Zheng, R. Gomperts, B. Mennucci, 
 H. P. Hratchian, J. V. Ortiz, A. F. Izmaylov, J. L. Sonnenberg, 
 D. Williams-Young, F. Ding, F. Lipparini, F. Egidi, J. Goings, 
 B. Peng, A. Petrone, T. Henderson, D. Ranasinghe, V. G. Zakrzewski, 
 J. Gao, N. Rega, G. Zheng, W. Liang, M. Hada, M. Ehara, K. Toyota, 
 R. Fukuda, J. Hasegawa, M. Ishida, T. Nakajima, Y. Honda, O. Kitao, 
 H. Nakai, T. Vreven, K. Throssell, J. A. Montgomery, Jr., 
 J. E. Peralta, F. Ogliaro, M. J. Bearpark, J. J. Heyd, 
 E. N. Brothers, K. N. Kudin, V. N. Staroverov, T. A. Keith, 
 R. Kobayashi, J. Normand, K. Raghavachari, A. P. Rendell, 
 J. C. Burant, S. S. Iyengar, J. Tomasi, M. Cossi, J. M. Millam, 
 M. Klene, C. Adamo, R. Cammi, J. W. Ochterski, R. L. Martin, 
 K. Morokuma, O. Farkas, J. B. Foresman, and D. J. Fox, 
 Gaussian, Inc., Wallingford CT, 2020.
 
 ******************************************
 Gaussian DV:  ES64L-GDVRevJ.21 25-Jul-2022
                14-Mar-2025 
 ******************************************
 -------------------------------------
 #p UFF GEOM=READALLGIC OUTPUT=PICKETT
 -------------------------------------
 1/18=20,37=210000000,38=1,56=1,64=2,145=602,172=1/1;
 2/12=2/2;
 3/5=30,11=9,25=1,30=1,41=10020000,43=2/1;
 4/20=10,24=3/2;
 99/5=1,9=1,10=1024/99;
 Leave Link    1 at Fri Mar 14 14:15:02 2025, MaxMem=           0 cpu:               0.0 elap:               0.0
 (Enter /home/enzo/gaussian_versions/gdv.j21/gdv/l101.exe)
 ------------------
 individuo_9294.xyz
 ------------------
 Symbolic Z-matrix:
 Charge =     0 Multiplicity =     1
 6                     2.89293   1.18957   0.58552 
 6                     2.01913   0.34691  -0.33577 
 16                    2.161    -1.41023   0.11079 
 6                     0.58619   0.78746  -0.25217 
 8                     0.27318   1.75244   0.49399 
 7                    -0.41889   0.12386  -1.02574 
 6                    -1.81607   0.54122  -0.97231 
 6                    -2.55225  -0.21762   0.08178 
 8                    -3.54886   0.29774   0.64934 
 8                    -2.11805  -1.48317   0.45309 
 1                     3.95315   0.87674   0.49042 
 1                     2.81858   2.2612    0.30631 
 1                     2.57845   1.06911   1.64327 
 1                     2.39147   0.46432  -1.37494 
 1                     3.222    -1.63102  -0.7852 
 1                    -0.13801  -0.67403  -1.6389 
 1                    -1.87091   1.62838  -0.75323 
 1                    -2.29573   0.35601  -1.95591 
 1                    -1.24558  -1.85626   0.10144 
 
 Initializing the GIC definitions file.

 CrInp1: Reading the GIC input below.
 Dihed1 = D( 15, 3, 2, 14)
 Dihed2 = D( 3, 2, 4, 5)
 Dihed3 = D( 4, 6, 7, 8)
 Dihed4 = D( 6, 7, 8, 9)
 Dihed5 = D( 9, 8, 10, 19)
 
 Warning:  Number of GICs=     5 3N-6=    51.
 ITRead=  0  0  0  0  0  0  0  0  0  0  0  0  0  0  0  0  0  0  0
 MicOpt= -1 -1 -1 -1 -1 -1 -1 -1 -1 -1 -1 -1 -1 -1 -1 -1 -1 -1 -1
                           ----------------------------
                           !    Current Parameters    !
                           ! (Angstroms and Degrees)  !
 --------------------------                            --------------------------
 ! Name   Definition             Value                                          !
 --------------------------------------------------------------------------------
 ! Dihed1 D(15,3,2,14)          26.6713                                         !
 ! Dihed2 D(3,2,4,5)           122.9635                                         !
 ! Dihed3 D(4,6,7,8)           -91.217                                          !
 ! Dihed4 D(6,7,8,9)           152.1537                                         !
 ! Dihed5 D(9,8,10,19)        -171.2913                                         !
 --------------------------------------------------------------------------------
 NAtoms=     19 NQM=       19 NQMF=       0 NMMI=      0 NMMIF=      0
                NMic=       0 NMicF=      0.
                    Isotopes and Nuclear Properties:
 (Nuclear quadrupole moments (NQMom) in fm**2, nuclear magnetic moments (NMagM)
  in nuclear magnetons)

  Atom         1           2           3           4           5           6           7           8           9          10
 IAtWgt=          12          12          32          12          16          14          12          12          16          16
 AtmWgt=  12.0000000  12.0000000  31.9720718  12.0000000  15.9949146  14.0030740  12.0000000  12.0000000  15.9949146  15.9949146
 NucSpn=           0           0           0           0           0           2           0           0           0           0
 AtZEff=  -0.0000000  -0.0000000  -0.0000000  -0.0000000  -0.0000000  -0.0000000  -0.0000000  -0.0000000  -0.0000000  -0.0000000
 NQMom=    0.0000000   0.0000000   0.0000000   0.0000000   0.0000000   2.0440000   0.0000000   0.0000000   0.0000000   0.0000000
 NMagM=    0.0000000   0.0000000   0.0000000   0.0000000   0.0000000   0.4037610   0.0000000   0.0000000   0.0000000   0.0000000
 AtZNuc=   6.0000000   6.0000000  16.0000000   6.0000000   8.0000000   7.0000000   6.0000000   6.0000000   8.0000000   8.0000000

  Atom        11          12          13          14          15          16          17          18          19
 IAtWgt=           1           1           1           1           1           1           1           1           1
 AtmWgt=   1.0078250   1.0078250   1.0078250   1.0078250   1.0078250   1.0078250   1.0078250   1.0078250   1.0078250
 NucSpn=           1           1           1           1           1           1           1           1           1
 AtZEff=  -0.0000000  -0.0000000  -0.0000000  -0.0000000  -0.0000000  -0.0000000  -0.0000000  -0.0000000  -0.0000000
 NQMom=    0.0000000   0.0000000   0.0000000   0.0000000   0.0000000   0.0000000   0.0000000   0.0000000   0.0000000
 NMagM=    2.7928460   2.7928460   2.7928460   2.7928460   2.7928460   2.7928460   2.7928460   2.7928460   2.7928460
 AtZNuc=   1.0000000   1.0000000   1.0000000   1.0000000   1.0000000   1.0000000   1.0000000   1.0000000   1.0000000
 Generating MM parameters.
 Include all MM classes

 MM sanity checks:
 All charges sum to:                0.00000000
 Charges of atoms sum to:           0.00000000
 MMInit generated parameter data with length LenPar=        2803.
 Leave Link  101 at Fri Mar 14 14:15:02 2025, MaxMem=   104857600 cpu:               0.1 elap:               0.1
 (Enter /home/enzo/gaussian_versions/gdv.j21/gdv/l202.exe)
                          Input orientation:                          
 ---------------------------------------------------------------------
 Center     Atomic      Atomic             Coordinates (Angstroms)
 Number     Number       Type             X           Y           Z
 ---------------------------------------------------------------------
      1          6    10061003        2.892932    1.189570    0.585516
      2          6    10061003        2.019130    0.346910   -0.335765
      3         16    10161003        2.161002   -1.410232    0.110789
      4          6    10061002        0.586191    0.787456   -0.252174
      5          8    10081002        0.273180    1.752442    0.493992
      6          7    10071000       -0.418894    0.123857   -1.025739
      7          6    10061003       -1.816069    0.541223   -0.972307
      8          6    10061000       -2.552250   -0.217624    0.081775
      9          8    10081002       -3.548857    0.297739    0.649339
     10          8    10081000       -2.118051   -1.483173    0.453088
     11          1    10011000        3.953151    0.876744    0.490416
     12          1    10011000        2.818577    2.261200    0.306306
     13          1    10011000        2.578451    1.069111    1.643271
     14          1    10011000        2.391468    0.464320   -1.374937
     15          1    10011000        3.221997   -1.631022   -0.785201
     16          1    10011000       -0.138013   -0.674027   -1.638903
     17          1    10011000       -1.870912    1.628384   -0.753231
     18          1    10011000       -2.295731    0.356010   -1.955910
     19          1    10011000       -1.245576   -1.856261    0.101441
 ---------------------------------------------------------------------
                    Distance matrix (angstroms):
                    1          2          3          4          5
     1  C    0.000000
     2  C    1.523931   0.000000
     3  S    2.742272   1.818540   0.000000
     4  C    2.486860   1.501460   2.727930   0.000000
     5  O    2.681101   2.390054   3.703137   1.259340   0.000000
     6  N    3.834068   2.543576   3.209515   1.431420   2.332560
     7  C    5.002185   3.892518   4.560523   2.519936   2.825251
     8  C    5.646588   4.624992   4.861882   3.312328   3.469025
     9  O    6.503544   5.654673   5.984120   4.260419   4.092464
    10  O    5.680761   4.592141   4.293342   3.600844   4.023539
    11  H    1.109490   2.168810   2.930217   3.449033   3.782730
    12  H    1.109900   2.171607   3.734976   2.732649   2.602519
    13  H    1.110070   2.179678   2.944470   2.764261   2.664969
    14  H    2.149612   1.110090   2.403007   2.150358   3.104722
    15  H    3.153235   2.358198   1.406150   3.616715   4.666871
    16  H    4.196148   2.719145   2.981424   2.140893   3.256697
    17  H    4.967797   4.116902   5.122114   2.644915   2.483563
    18  H    5.837456   4.609011   5.220472   3.375550   3.814623
    19  H    5.161266   3.962754   3.435666   3.235684   3.934902
                    6          7          8          9         10
     6  N    0.000000
     7  C    1.459160   0.000000
     8  C    2.427839   1.492950   0.000000
     9  O    3.554264   2.385702   1.257360   0.000000
    10  O    2.767058   2.494218   1.388530   2.292895   0.000000
    11  H    4.688320   5.961211   6.609453   7.525997   6.513839
    12  H    4.101682   5.106184   5.919524   6.672111   6.197755
    13  H    4.123251   5.141179   5.515256   6.255143   5.476114
    14  H    2.852365   4.227457   5.198789   6.277970   5.241199
    15  H    4.048894   5.489605   6.007601   7.184879   5.483733
    16  H    1.044741   2.176478   2.999596   4.220692   2.991938
    17  H    2.108606   1.110370   2.137569   2.559945   3.346352
    18  H    2.107518   1.109889   2.132374   2.891547   3.036023
    19  H    2.423800   2.688183   2.095928   3.200783   1.011960
                   11         12         13         14         15
    11  H    0.000000
    12  H    1.799409   0.000000
    13  H    1.804406   1.807266   0.000000
    14  H    2.467486   2.497554   3.083880   0.000000
    15  H    2.907005   4.062453   3.688136   2.329812   0.000000
    16  H    4.865852   4.597915   4.603300   2.786357   3.596431
    17  H    6.002610   4.849163   5.084569   4.462000   6.046691
    18  H    6.730840   5.907920   6.100842   4.724309   5.980316
    19  H    5.886203   5.789024   5.055514   4.559921   4.560271
                   16         17         18         19
    16  H    0.000000
    17  H    3.014706   0.000000
    18  H    2.411891   1.801622   0.000000
    19  H    2.377640   3.642013   3.198384   0.000000
 Stoichiometry    C5H9NO3S
 Framework group  C1[X(C5H9NO3S)]
 Deg. of freedom    51
 Full point group                 C1      NOp   1
 Largest Abelian subgroup         C1      NOp   1
 Largest concise Abelian subgroup C1      NOp   1
                         Standard orientation:                         
 ---------------------------------------------------------------------
 Center     Atomic      Atomic             Coordinates (Angstroms)
 Number     Number       Type             X           Y           Z
 ---------------------------------------------------------------------
      1          6    10061003        2.857484   -1.153210   -0.559635
      2          6    10061003        1.965034   -0.304636    0.338040
      3         16    10161003        2.091500    1.445932   -0.137988
      4          6    10061002        0.538075   -0.762995    0.248169
      5          8    10081002        0.243476   -1.744423   -0.483916
      6          7    10071000       -0.482141   -0.097535    1.000024
      7          6    10061003       -1.873904   -0.531780    0.940248
      8          6    10061000       -2.608026    0.200000   -0.134211
      9          8    10081002       -3.593012   -0.336623   -0.702358
     10          8    10081000       -2.184463    1.463755   -0.523485
     11          1    10011000        3.913094   -0.826620   -0.459664
     12          1    10011000        2.792455   -2.220571   -0.262332
     13          1    10011000        2.552267   -1.054902   -1.622382
     14          1    10011000        2.328253   -0.399557    1.382722
     15          1    10011000        3.140908    1.694535    0.764340
     16          1    10011000       -0.216448    0.714131    1.601763
     17          1    10011000       -1.914259   -1.623167    0.739832
     18          1    10011000       -2.365452   -0.334895    1.915682
     19          1    10011000       -1.319825    1.852930   -0.169922
 ---------------------------------------------------------------------
 Rotational constants (GHZ):           1.9770454           0.6209155           0.5316047
 Leave Link  202 at Fri Mar 14 14:15:02 2025, MaxMem=   104857600 cpu:               0.0 elap:               0.0
 (Enter /home/enzo/gaussian_versions/gdv.j21/gdv/l301.exe)
 Standard basis: Dummy (5D, 7F)
 There are    19 symmetry adapted cartesian basis functions of A   symmetry.
 There are    19 symmetry adapted basis functions of A   symmetry.
    19 basis functions,    19 primitive gaussians,    19 cartesian basis functions
    14 alpha electrons       14 beta electrons
       nuclear repulsion energy        69.0022191308 Hartrees.
 IExCor=         0 DFT=F Ex=HF Corr=None N6=None ScaHFX=  1.000000
 ScaDFX=  1.000000  1.000000  1.000000  1.000000  1.000000  0.000000
 ScaDFX=  0.000000  0.000000  0.000000  0.000000  0.000000  0.000000
 IRadAn=      5 IRanWt=     -1 IRanGd=            0 ICorTp=0 IEmpDi=  4
 NAtoms=   19 NActive=   19 NUniq=   19 SFac= 1.00D+00 NAtFMM=   60 NAOKFM=F Big=F
 Integral buffers will be    131072 words long.
 Raffenetti 1 integral format.
 Two-electron integral symmetry is turned on.
 Leave Link  301 at Fri Mar 14 14:15:02 2025, MaxMem=   104857600 cpu:               0.0 elap:               0.0
 (Enter /home/enzo/gaussian_versions/gdv.j21/gdv/l402.exe)
 UFF calculation of energy.
 Energy per function type:
 Direct Coulomb + vdW (small)                           0.025567620
 Direct Coulomb (large)                                 0.000000000
 Direct vdW (large)                                   682.407312322
 Non-direct Coulomb + vdW (small)                      -0.014071906
 Non-direct Coulomb (large)                             0.000000000
 Non-direct vdW (large)                              -682.407312322
 Harmonic stretch III                                   0.010506305
 UFF 3-term bend                                        0.004904420
 UFF 2-term bend                                        0.000135027
 UFF torsion fixed V                                    0.003122380
 UFF torsion w/ bond order V                            0.000851545
 UFF torsion w/ sp3 V                                   0.000924087
 Three term Wilson angle                                0.000018414
 Energy per function class:
        Coulomb               0.000000000
    Vanderwaals               0.011495714
     Stretching               0.010506305
        Bending               0.005039447
        Torsion               0.004898012
   Out-of-plane               0.000018414
 Energy=    3.195789129E-02 NIter=   0.
 Dipole moment=       0.000000       0.000000       0.000000
 Leave Link  402 at Fri Mar 14 14:15:02 2025, MaxMem=   104857600 cpu:               0.0 elap:               0.0
 (Enter /home/enzo/gaussian_versions/gdv.j21/gdv/l9999.exe)
 Unable to Open any file for archive entry.
 1\1\GINC-ORACLE\SP\UFF\ZDO\C5H9N1O3S1\ENZO\14-Mar-2025\0\\#p UFF GEOM=
 READALLGIC OUTPUT=PICKETT\\individuo_9294.xyz\\0,1\C,0,2.892932,1.1895
 7,0.585516\C,0,2.01913,0.34691,-0.335765\S,0,2.161002,-1.410232,0.1107
 89\C,0,0.586191,0.787456,-0.252174\O,0,0.27318,1.752442,0.493992\N,0,-
 0.418894,0.123857,-1.025739\C,0,-1.816069,0.541223,-0.972307\C,0,-2.55
 225,-0.217624,0.081775\O,0,-3.548857,0.297739,0.649339\O,0,-2.118051,-
 1.483173,0.453088\H,0,3.953151,0.876744,0.490416\H,0,2.818577,2.2612,0
 .306306\H,0,2.578451,1.069111,1.643271\H,0,2.391468,0.46432,-1.374937\
 H,0,3.221997,-1.631022,-0.785201\H,0,-0.138013,-0.674027,-1.638903\H,0
 ,-1.870912,1.628384,-0.753231\H,0,-2.295731,0.35601,-1.95591\H,0,-1.24
 5576,-1.856261,0.101441\\Version=ES64L-GDVRevJ.21\HF=0.0319579\RMSD=0.
 000e+00\Dipole=0.,0.,0.\PG=C01 [X(C5H9N1O3S1)]\\@
 The archive entry for this job was punched.
 DoSRE=F DoSRN=F DoDH=F DoFC=F DoNQ=F DoQCD=F DoSCD=F
 Inertia tensor (amu-bohr**2): 
                 1             2             3 
      1   0.912848D+03 -0.107583D-03  0.869924D-04
      2  -0.107583D-03  0.290658D+04 -0.365641D-04
      3   0.869924D-04 -0.365641D-04  0.339489D+04
 Principal inertia moments (amu-bohr**2):
 Iaa = 0.912848D+03 Ibb= 0.290658D+04 Icc= 0.339489D+04
 Rotation matrix to Principal Axis frame: 
                 1             2             3 
      1   0.100000D+01  0.000000D+00  0.000000D+00
      2   0.000000D+00  0.100000D+01  0.000000D+00
      3   0.000000D+00  0.000000D+00  0.100000D+01
                Principal axis orientation:                
 ---------------------------------------------------------------------
 Center     Atomic                     Coordinates (Angstroms)
 Number     Number                        X           Y           Z
 ---------------------------------------------------------------------
      1          6                    2.892932    1.189570    0.585516
      2          6                    2.019130    0.346910   -0.335765
      3         16                    2.161002   -1.410232    0.110789
      4          6                    0.586191    0.787456   -0.252174
      5          8                    0.273180    1.752442    0.493992
      6          7                   -0.418894    0.123857   -1.025739
      7          6                   -1.816069    0.541223   -0.972307
      8          6                   -2.552250   -0.217624    0.081775
      9          8                   -3.548857    0.297739    0.649339
     10          8                   -2.118051   -1.483173    0.453088
     11          1                    3.953151    0.876744    0.490416
     12          1                    2.818577    2.261200    0.306306
     13          1                    2.578451    1.069111    1.643271
     14          1                    2.391468    0.464320   -1.374937
     15          1                    3.221997   -1.631022   -0.785201
     16          1                   -0.138013   -0.674027   -1.638903
     17          1                   -1.870912    1.628384   -0.753231
     18          1                   -2.295731    0.356010   -1.955910
     19          1                   -1.245576   -1.856261    0.101441
 ---------------------------------------------------------------------
 Rotational constants (MHZ):
   1977.0453995    620.9154797    531.6046613
 Dipole moment (Debye):
      0.0000000      0.0000000      0.0000000  Tot=      0.0000000

 Atoms with significant hyperfine tensors: 

--------------------------------------------------------------------------------
 individuo_9294.xyz                                      
   99  1000  50  0.1760E-11  0.1000E+07  0.1000E+01 1.0000000000
a   1  0  0  0  1  1   1  0  1  0
     10000   0.19770454E+04    0.0000E+00   /  A  /
     20000   0.62091548E+03    0.0000E+00   /  B  /
     30000   0.53160466E+03    0.0000E+00   /  C  /
--------------------------------------------------------------------------------



 I do not feel obliged to believe that the same God who
 has endowed us with sense, reason, and intellect has
 intended us to forgo their use.
                   --Galileo Galilei
 Job cpu time:       0 days  0 hours  0 minutes  0.2 seconds.
 Elapsed time:       0 days  0 hours  0 minutes  0.2 seconds.
 File lengths (MBytes):  RWF=     14 Int=      0 D2E=      0 Chk=      9 Scr=      1
 Normal termination of Gaussian DV at Fri Mar 14 14:15:02 2025.
