 Entering Gaussian System, Link 0=gdv
 Input=../generations_tiopronin/population_49/temp_processing/individuo_3603.gjf
 Output=../generations_tiopronin/population_49/temp_processing/individuo_3603.log
 Initial command:
 /home/enzo/gaussian_versions/gdv.j21/gdv/l1.exe "/local/home/enzo/scratch/Gau-2270823.inp" -scrdir="/local/home/enzo/scratch/"
 Entering Link 1 = /home/enzo/gaussian_versions/gdv.j21/gdv/l1.exe PID=   2270824.
  
 Copyright (c) 1988-2022, Gaussian, Inc.  All Rights Reserved.
  
 This is the private, development version of
 the Gaussian(R) DV system of programs. It is based on
 the Gaussian(R) 16 system (copyright 2016, Gaussian, Inc.),
 the Gaussian(R) 09 system (copyright 2009, Gaussian, Inc.),
 the Gaussian(R) 03 system (copyright 2003, Gaussian, Inc.),
 the Gaussian(R) 98 system (copyright 1998, Gaussian, Inc.),
 the Gaussian(R) 94 system (copyright 1995, Gaussian, Inc.),
 the Gaussian 92(TM) system (copyright 1992, Gaussian, Inc.),
 the Gaussian 90(TM) system (copyright 1990, Gaussian, Inc.),
 the Gaussian 88(TM) system (copyright 1988, Gaussian, Inc.),
 the Gaussian 86(TM) system (copyright 1986, Carnegie Mellon
 University), and the Gaussian 82(TM) system (copyright 1983,
 Carnegie Mellon University). Gaussian is a federally registered
 trademark of Gaussian, Inc.
  
 This software contains proprietary and confidential information,
 including trade secrets, belonging to Gaussian, Inc.
  
 This software is provided under written license and may be
 used, copied, transmitted, or stored only in accord with that
 written license.
  
 The following legend is applicable only to US Government
 contracts under FAR:
  
                    RESTRICTED RIGHTS LEGEND
  
 Use, reproduction and disclosure by the US Government is
 subject to restrictions as set forth in subparagraphs (a)
 and (c) of the Commercial Computer Software - Restricted
 Rights clause in FAR 52.227-19.
  
 Gaussian, Inc.
 340 Quinnipiac St., Bldg. 40, Wallingford CT 06492
  
  
 ---------------------------------------------------------------
 Warning -- This program may not be used in any manner that
 competes with the business of Gaussian, Inc. or will provide
 assistance to any competitor of Gaussian, Inc.  The licensee
 of this program is prohibited from giving any competitor of
 Gaussian, Inc. access to this program.  By using this program,
 the user acknowledges that Gaussian, Inc. is engaged in the
 business of creating and licensing software in the field of
 computational chemistry and represents and warrants to the
 licensee that it is not a competitor of Gaussian, Inc. and that
 it will not use this program in any manner prohibited above.
 ---------------------------------------------------------------
  

 Cite this work as:
 Gaussian Development Version, Revision J.21,
 M. J. Frisch, G. W. Trucks, H. B. Schlegel, G. E. Scuseria, 
 M. A. Robb, J. R. Cheeseman, G. Scalmani, V. Barone, 
 G. A. Petersson, H. Nakatsuji, X. Li, A. V. Marenich, M. Caricato, 
 J. Bloino, B. G. Janesko, J. Zheng, R. Gomperts, B. Mennucci, 
 H. P. Hratchian, J. V. Ortiz, A. F. Izmaylov, J. L. Sonnenberg, 
 D. Williams-Young, F. Ding, F. Lipparini, F. Egidi, J. Goings, 
 B. Peng, A. Petrone, T. Henderson, D. Ranasinghe, V. G. Zakrzewski, 
 J. Gao, N. Rega, G. Zheng, W. Liang, M. Hada, M. Ehara, K. Toyota, 
 R. Fukuda, J. Hasegawa, M. Ishida, T. Nakajima, Y. Honda, O. Kitao, 
 H. Nakai, T. Vreven, K. Throssell, J. A. Montgomery, Jr., 
 J. E. Peralta, F. Ogliaro, M. J. Bearpark, J. J. Heyd, 
 E. N. Brothers, K. N. Kudin, V. N. Staroverov, T. A. Keith, 
 R. Kobayashi, J. Normand, K. Raghavachari, A. P. Rendell, 
 J. C. Burant, S. S. Iyengar, J. Tomasi, M. Cossi, J. M. Millam, 
 M. Klene, C. Adamo, R. Cammi, J. W. Ochterski, R. L. Martin, 
 K. Morokuma, O. Farkas, J. B. Foresman, and D. J. Fox, 
 Gaussian, Inc., Wallingford CT, 2020.
 
 ******************************************
 Gaussian DV:  ES64L-GDVRevJ.21 25-Jul-2022
                14-Mar-2025 
 ******************************************
 -------------------------------------
 #p UFF GEOM=READALLGIC OUTPUT=PICKETT
 -------------------------------------
 1/18=20,37=210000000,38=1,56=1,64=2,145=602,172=1/1;
 2/12=2/2;
 3/5=30,11=9,25=1,30=1,41=10020000,43=2/1;
 4/20=10,24=3/2;
 99/5=1,9=1,10=1024/99;
 Leave Link    1 at Fri Mar 14 14:15:00 2025, MaxMem=           0 cpu:               0.0 elap:               0.0
 (Enter /home/enzo/gaussian_versions/gdv.j21/gdv/l101.exe)
 ------------------
 individuo_3603.xyz
 ------------------
 Symbolic Z-matrix:
 Charge =     0 Multiplicity =     1
 6                     2.79602   0.67524   1.25406 
 6                     2.18934   0.31272  -0.09609 
 16                    2.0825   -1.495    -0.26285 
 6                     0.82731   0.92693  -0.24437 
 8                     0.69803   2.17826  -0.18607 
 7                    -0.31824   0.0972   -0.46399 
 6                    -1.65055   0.67025  -0.62441 
 6                    -2.67111  -0.16666   0.07342 
 8                    -3.80859   0.30625   0.32529 
 8                    -2.35274  -1.45942   0.46765 
 1                     3.81457   0.24348   1.33833 
 1                     2.87483   1.77793   1.35276 
 1                     2.17158   0.28194   2.0833 
 1                     2.86309   0.68816  -0.89447 
 1                     2.34194  -1.45943  -1.64441 
 1                    -0.18912  -0.93852  -0.50969 
 1                    -1.66542   1.69872  -0.20616 
 1                    -1.90217   0.72591  -1.70396 
 1                    -2.99915  -2.00712   1.02105 
 
 Initializing the GIC definitions file.

 CrInp1: Reading the GIC input below.
 Dihed1 = D( 15, 3, 2, 14)
 Dihed2 = D( 3, 2, 4, 5)
 Dihed3 = D( 4, 6, 7, 8)
 Dihed4 = D( 6, 7, 8, 9)
 Dihed5 = D( 9, 8, 10, 19)
 
 Warning:  Number of GICs=     5 3N-6=    51.
 ITRead=  0  0  0  0  0  0  0  0  0  0  0  0  0  0  0  0  0  0  0
 MicOpt= -1 -1 -1 -1 -1 -1 -1 -1 -1 -1 -1 -1 -1 -1 -1 -1 -1 -1 -1
                           ----------------------------
                           !    Current Parameters    !
                           ! (Angstroms and Degrees)  !
 --------------------------                            --------------------------
 ! Name   Definition             Value                                          !
 --------------------------------------------------------------------------------
 ! Dihed1 D(15,3,2,14)         -27.44                                           !
 ! Dihed2 D(3,2,4,5)          -178.5875                                         !
 ! Dihed3 D(4,6,7,8)          -140.5178                                         !
 ! Dihed4 D(6,7,8,9)           163.1455                                         !
 ! Dihed5 D(9,8,10,19)          -4.8031                                         !
 --------------------------------------------------------------------------------
 NAtoms=     19 NQM=       19 NQMF=       0 NMMI=      0 NMMIF=      0
                NMic=       0 NMicF=      0.
                    Isotopes and Nuclear Properties:
 (Nuclear quadrupole moments (NQMom) in fm**2, nuclear magnetic moments (NMagM)
  in nuclear magnetons)

  Atom         1           2           3           4           5           6           7           8           9          10
 IAtWgt=          12          12          32          12          16          14          12          12          16          16
 AtmWgt=  12.0000000  12.0000000  31.9720718  12.0000000  15.9949146  14.0030740  12.0000000  12.0000000  15.9949146  15.9949146
 NucSpn=           0           0           0           0           0           2           0           0           0           0
 AtZEff=  -0.0000000  -0.0000000  -0.0000000  -0.0000000  -0.0000000  -0.0000000  -0.0000000  -0.0000000  -0.0000000  -0.0000000
 NQMom=    0.0000000   0.0000000   0.0000000   0.0000000   0.0000000   2.0440000   0.0000000   0.0000000   0.0000000   0.0000000
 NMagM=    0.0000000   0.0000000   0.0000000   0.0000000   0.0000000   0.4037610   0.0000000   0.0000000   0.0000000   0.0000000
 AtZNuc=   6.0000000   6.0000000  16.0000000   6.0000000   8.0000000   7.0000000   6.0000000   6.0000000   8.0000000   8.0000000

  Atom        11          12          13          14          15          16          17          18          19
 IAtWgt=           1           1           1           1           1           1           1           1           1
 AtmWgt=   1.0078250   1.0078250   1.0078250   1.0078250   1.0078250   1.0078250   1.0078250   1.0078250   1.0078250
 NucSpn=           1           1           1           1           1           1           1           1           1
 AtZEff=  -0.0000000  -0.0000000  -0.0000000  -0.0000000  -0.0000000  -0.0000000  -0.0000000  -0.0000000  -0.0000000
 NQMom=    0.0000000   0.0000000   0.0000000   0.0000000   0.0000000   0.0000000   0.0000000   0.0000000   0.0000000
 NMagM=    2.7928460   2.7928460   2.7928460   2.7928460   2.7928460   2.7928460   2.7928460   2.7928460   2.7928460
 AtZNuc=   1.0000000   1.0000000   1.0000000   1.0000000   1.0000000   1.0000000   1.0000000   1.0000000   1.0000000
 Generating MM parameters.
 Include all MM classes

 MM sanity checks:
 All charges sum to:                0.00000000
 Charges of atoms sum to:           0.00000000
 MMInit generated parameter data with length LenPar=        2803.
 Leave Link  101 at Fri Mar 14 14:15:00 2025, MaxMem=   104857600 cpu:               0.1 elap:               0.1
 (Enter /home/enzo/gaussian_versions/gdv.j21/gdv/l202.exe)
                          Input orientation:                          
 ---------------------------------------------------------------------
 Center     Atomic      Atomic             Coordinates (Angstroms)
 Number     Number       Type             X           Y           Z
 ---------------------------------------------------------------------
      1          6    10061003        2.796022    0.675237    1.254056
      2          6    10061003        2.189343    0.312723   -0.096087
      3         16    10161003        2.082501   -1.494999   -0.262854
      4          6    10061002        0.827307    0.926932   -0.244370
      5          8    10081002        0.698026    2.178262   -0.186073
      6          7    10071000       -0.318241    0.097204   -0.463991
      7          6    10061003       -1.650546    0.670245   -0.624407
      8          6    10061000       -2.671107   -0.166655    0.073415
      9          8    10081002       -3.808592    0.306252    0.325288
     10          8    10081000       -2.352740   -1.459419    0.467646
     11          1    10011000        3.814573    0.243475    1.338334
     12          1    10011000        2.874829    1.777927    1.352762
     13          1    10011000        2.171581    0.281943    2.083302
     14          1    10011000        2.863086    0.688161   -0.894470
     15          1    10011000        2.341941   -1.459428   -1.644405
     16          1    10011000       -0.189117   -0.938518   -0.509694
     17          1    10011000       -1.665416    1.698722   -0.206155
     18          1    10011000       -1.902168    0.725911   -1.703964
     19          1    10011000       -2.999145   -2.007117    1.021046
 ---------------------------------------------------------------------
                    Distance matrix (angstroms):
                    1          2          3          4          5
     1  C    0.000000
     2  C    1.523930   0.000000
     3  S    2.742271   1.818539   0.000000
     4  C    2.486859   1.501460   2.727930   0.000000
     5  O    2.955443   2.390054   3.926259   1.259341   0.000000
     6  N    3.603393   2.543576   2.887755   1.431420   2.332561
     7  C    4.827071   3.892517   4.330663   2.519935   2.825251
     8  C    5.656164   4.886973   4.947157   3.679106   4.113031
     9  O    6.679797   6.012722   6.188327   4.711827   4.906681
    10  O    5.628938   4.908034   4.495137   4.039101   4.792415
    11  H    1.109490   2.168809   2.930216   3.449032   3.972415
    12  H    1.109900   2.171607   3.734976   2.732649   2.695691
    13  H    1.110070   2.179679   2.944470   2.764261   3.304157
    14  H    2.149611   1.110090   2.403006   2.150358   2.722079
    15  H    3.628231   2.358197   1.406150   3.154192   4.249939
    16  H    3.824405   2.719144   2.351776   2.140892   3.256696
    17  H    4.804598   4.097838   4.924424   2.609749   2.411684
    18  H    5.552066   4.415479   4.784018   3.101751   3.342802
    19  H    6.390092   5.792241   5.266288   4.985144   5.713458
                    6          7          8          9         10
     6  N    0.000000
     7  C    1.459159   0.000000
     8  C    2.427840   1.492951   0.000000
     9  O    3.584580   2.385702   1.257360   0.000000
    10  O    2.725841   2.494218   1.388530   2.292894   0.000000
    11  H    4.511089   5.822543   6.620595   7.690439   6.457066
    12  H    4.039940   5.061144   6.014610   6.920235   6.212191
    13  H    3.566797   4.700119   5.262368   6.233271   5.110007
    14  H    3.264259   4.521740   5.682852   6.793008   5.802784
    15  H    3.300462   4.638519   5.454614   6.695250   5.147892
    16  H    1.044740   2.176477   2.663844   3.917556   2.430596
    17  H    2.108606   1.110370   2.137570   2.610480   3.301557
    18  H    2.107518   1.109890   2.132374   2.815747   3.113611
    19  H    3.717627   3.419723   2.095928   2.547736   1.011961
                   11         12         13         14         15
    11  H    0.000000
    12  H    1.799408   0.000000
    13  H    1.804406   1.807267   0.000000
    14  H    2.467486   2.497555   3.083880   0.000000
    15  H    3.737012   4.443810   4.117911   2.333695   0.000000
    16  H    4.565287   4.498398   3.712957   3.479954   2.822263
    17  H    5.876518   4.801075   4.687368   4.690665   5.301074
    18  H    6.493801   5.768016   5.579957   4.833669   4.774067
    19  H    7.182798   6.995725   5.753659   6.730489   5.994313
                   16         17         18         19
    16  H    0.000000
    17  H    3.037537   0.000000
    18  H    2.670421   1.801623   0.000000
    19  H    3.373622   4.125300   4.012291   0.000000
 Stoichiometry    C5H9NO3S
 Framework group  C1[X(C5H9NO3S)]
 Deg. of freedom    51
 Full point group                 C1      NOp   1
 Largest Abelian subgroup         C1      NOp   1
 Largest concise Abelian subgroup C1      NOp   1
                         Standard orientation:                         
 ---------------------------------------------------------------------
 Center     Atomic      Atomic             Coordinates (Angstroms)
 Number     Number       Type             X           Y           Z
 ---------------------------------------------------------------------
      1          6    10061003        2.772924    0.651985    1.215533
      2          6    10061003        2.149247    0.281540   -0.124676
      3         16    10161003        2.020448   -1.526578   -0.270299
      4          6    10061002        0.792854    0.909527   -0.266852
      5          8    10081002        0.678245    2.162812   -0.221256
      6          7    10071000       -0.364028    0.090510   -0.466348
      7          6    10061003       -1.691273    0.676862   -0.620481
      8          6    10061000       -2.714441   -0.140640    0.096262
      9          8    10081002       -3.844052    0.347918    0.353640
     10          8    10081000       -2.406883   -1.432519    0.501813
     11          1    10011000        3.787309    0.209623    1.294940
     12          1    10011000        2.865094    1.754728    1.301212
     13          1    10011000        2.152093    0.274977    2.054991
     14          1    10011000        2.819469    0.640474   -0.933544
     15          1    10011000        2.266977   -1.509182   -1.654560
     16          1    10011000       -0.247025   -0.947054   -0.501749
     17          1    10011000       -1.690534    1.709987   -0.213575
     18          1    10011000       -1.952619    0.723488   -1.698154
     19          1    10011000       -3.054067   -1.966700    1.067380
 ---------------------------------------------------------------------
 Rotational constants (GHZ):           1.8627053           0.5913640           0.4938143
 Leave Link  202 at Fri Mar 14 14:15:00 2025, MaxMem=   104857600 cpu:               0.0 elap:               0.0
 (Enter /home/enzo/gaussian_versions/gdv.j21/gdv/l301.exe)
 Standard basis: Dummy (5D, 7F)
 There are    19 symmetry adapted cartesian basis functions of A   symmetry.
 There are    19 symmetry adapted basis functions of A   symmetry.
    19 basis functions,    19 primitive gaussians,    19 cartesian basis functions
    14 alpha electrons       14 beta electrons
       nuclear repulsion energy        68.1488104861 Hartrees.
 IExCor=         0 DFT=F Ex=HF Corr=None N6=None ScaHFX=  1.000000
 ScaDFX=  1.000000  1.000000  1.000000  1.000000  1.000000  0.000000
 ScaDFX=  0.000000  0.000000  0.000000  0.000000  0.000000  0.000000
 IRadAn=      5 IRanWt=     -1 IRanGd=            0 ICorTp=0 IEmpDi=  4
 NAtoms=   19 NActive=   19 NUniq=   19 SFac= 1.00D+00 NAtFMM=   60 NAOKFM=F Big=F
 Integral buffers will be    131072 words long.
 Raffenetti 1 integral format.
 Two-electron integral symmetry is turned on.
 Leave Link  301 at Fri Mar 14 14:15:00 2025, MaxMem=   104857600 cpu:               0.0 elap:               0.0
 (Enter /home/enzo/gaussian_versions/gdv.j21/gdv/l402.exe)
 UFF calculation of energy.
 Energy per function type:
 Direct Coulomb + vdW (small)                           0.026175455
 Direct Coulomb (large)                                 0.000000000
 Direct vdW (large)                                   682.418707071
 Non-direct Coulomb + vdW (small)                      -0.014071948
 Non-direct Coulomb (large)                             0.000000000
 Non-direct vdW (large)                              -682.406730399
 Harmonic stretch III                                   0.010506220
 UFF 3-term bend                                        0.004904418
 UFF 2-term bend                                        0.000135026
 UFF torsion fixed V                                    0.001928063
 UFF torsion w/ bond order V                            0.000392941
 UFF torsion w/ sp3 V                                   0.000948144
 Three term Wilson angle                                0.000018419
 Energy per function class:
        Coulomb               0.000000000
    Vanderwaals               0.024080179
     Stretching               0.010506220
        Bending               0.005039444
        Torsion               0.003269148
   Out-of-plane               0.000018419
 Energy=    4.291340979E-02 NIter=   0.
 Dipole moment=       0.000000       0.000000       0.000000
 Leave Link  402 at Fri Mar 14 14:15:00 2025, MaxMem=   104857600 cpu:               0.0 elap:               0.0
 (Enter /home/enzo/gaussian_versions/gdv.j21/gdv/l9999.exe)
 Unable to Open any file for archive entry.
 1\1\GINC-ORACLE\SP\UFF\ZDO\C5H9N1O3S1\ENZO\14-Mar-2025\0\\#p UFF GEOM=
 READALLGIC OUTPUT=PICKETT\\individuo_3603.xyz\\0,1\C,0,2.796022,0.6752
 37,1.254056\C,0,2.189343,0.312723,-0.096087\S,0,2.082501,-1.494999,-0.
 262854\C,0,0.827307,0.926932,-0.24437\O,0,0.698026,2.178262,-0.186073\
 N,0,-0.318241,0.097204,-0.463991\C,0,-1.650546,0.670245,-0.624407\C,0,
 -2.671107,-0.166655,0.073415\O,0,-3.808592,0.306252,0.325288\O,0,-2.35
 274,-1.459419,0.467646\H,0,3.814573,0.243475,1.338334\H,0,2.874829,1.7
 77927,1.352762\H,0,2.171581,0.281943,2.083302\H,0,2.863086,0.688161,-0
 .89447\H,0,2.341941,-1.459428,-1.644405\H,0,-0.189117,-0.938518,-0.509
 694\H,0,-1.665416,1.698722,-0.206155\H,0,-1.902168,0.725911,-1.703964\
 H,0,-2.999145,-2.007117,1.021046\\Version=ES64L-GDVRevJ.21\HF=0.042913
 4\RMSD=0.000e+00\Dipole=0.,0.,0.\PG=C01 [X(C5H9N1O3S1)]\\@
 The archive entry for this job was punched.
 DoSRE=F DoSRN=F DoDH=F DoFC=F DoNQ=F DoQCD=F DoSCD=F
 Inertia tensor (amu-bohr**2): 
                 1             2             3 
      1   0.968882D+03 -0.106475D-03 -0.404427D-04
      2  -0.106475D-03  0.305183D+04  0.101391D-03
      3  -0.404427D-04  0.101391D-03  0.365470D+04
 Principal inertia moments (amu-bohr**2):
 Iaa = 0.968882D+03 Ibb= 0.305183D+04 Icc= 0.365470D+04
 Rotation matrix to Principal Axis frame: 
                 1             2             3 
      1   0.100000D+01  0.000000D+00  0.000000D+00
      2   0.000000D+00  0.100000D+01  0.000000D+00
      3   0.000000D+00  0.000000D+00  0.100000D+01
                Principal axis orientation:                
 ---------------------------------------------------------------------
 Center     Atomic                     Coordinates (Angstroms)
 Number     Number                        X           Y           Z
 ---------------------------------------------------------------------
      1          6                    2.796022    0.675237    1.254056
      2          6                    2.189343    0.312723   -0.096087
      3         16                    2.082501   -1.494999   -0.262854
      4          6                    0.827307    0.926932   -0.244370
      5          8                    0.698026    2.178262   -0.186073
      6          7                   -0.318241    0.097204   -0.463991
      7          6                   -1.650546    0.670245   -0.624407
      8          6                   -2.671107   -0.166655    0.073415
      9          8                   -3.808592    0.306252    0.325288
     10          8                   -2.352740   -1.459419    0.467646
     11          1                    3.814573    0.243474    1.338334
     12          1                    2.874829    1.777927    1.352762
     13          1                    2.171581    0.281942    2.083302
     14          1                    2.863086    0.688161   -0.894470
     15          1                    2.341941   -1.459428   -1.644405
     16          1                   -0.189117   -0.938518   -0.509694
     17          1                   -1.665416    1.698722   -0.206155
     18          1                   -1.902168    0.725911   -1.703964
     19          1                   -2.999145   -2.007117    1.021046
 ---------------------------------------------------------------------
 Rotational constants (MHZ):
   1862.7053257    591.3639760    493.8143188
 Dipole moment (Debye):
      0.0000000      0.0000000      0.0000000  Tot=      0.0000000

 Atoms with significant hyperfine tensors: 

--------------------------------------------------------------------------------
 individuo_3603.xyz                                      
   99  1000  50  0.1760E-11  0.1000E+07  0.1000E+01 1.0000000000
a   1  0  0  0  1  1   1  0  1  0
     10000   0.18627053E+04    0.0000E+00   /  A  /
     20000   0.59136398E+03    0.0000E+00   /  B  /
     30000   0.49381432E+03    0.0000E+00   /  C  /
--------------------------------------------------------------------------------



 I LOVE THOSE WHO LONG FOR THE IMPOSSIBLE.

                                 -- GOETHE
 Job cpu time:       0 days  0 hours  0 minutes  0.2 seconds.
 Elapsed time:       0 days  0 hours  0 minutes  0.2 seconds.
 File lengths (MBytes):  RWF=     14 Int=      0 D2E=      0 Chk=      9 Scr=      1
 Normal termination of Gaussian DV at Fri Mar 14 14:15:00 2025.
