#p UFF GEOM=READALLGIC OUTPUT=PICKETT

individuo_1886.xyz

0 1
6 -1.721080 1.875251 -0.017068
6 -1.980749 0.451394 0.459970
16 -3.065726 -0.409472 -0.718514
6 -0.688357 -0.297074 0.614561
8 -0.686059 -1.555182 0.558905
7 0.538172 0.414182 0.811297
6 1.808997 -0.289106 0.951071
6 2.732576 0.065282 -0.167102
8 2.821535 1.257258 -0.557271
8 3.473319 -0.928348 -0.793212
1 -2.680009 2.427719 -0.095824
1 -1.070011 2.407194 0.707518
1 -1.227836 1.872240 -1.011531
1 -2.509224 0.500038 1.434982
1 -2.083977 -1.362133 -1.043879
1 0.514407 1.457786 0.853821
1 2.278779 -0.018411 1.920066
1 1.629169 -1.384286 0.941169
1 4.109548 -0.703821 -1.547442

Dihed1 = D( 15, 3, 2, 14)
Dihed2 = D(  3, 2, 4, 5)
Dihed3 = D(  4, 6, 7, 8)
Dihed4 = D(  6, 7, 8, 9)
Dihed5 = D(  9, 8, 10, 19)

