 Entering Gaussian System, Link 0=gdv
 Input=../generations_tiopronin/population_49/temp_processing/individuo_9793.gjf
 Output=../generations_tiopronin/population_49/temp_processing/individuo_9793.log
 Initial command:
 /home/enzo/gaussian_versions/gdv.j21/gdv/l1.exe "/local/home/enzo/scratch/Gau-2270831.inp" -scrdir="/local/home/enzo/scratch/"
 Entering Link 1 = /home/enzo/gaussian_versions/gdv.j21/gdv/l1.exe PID=   2270832.
  
 Copyright (c) 1988-2022, Gaussian, Inc.  All Rights Reserved.
  
 This is the private, development version of
 the Gaussian(R) DV system of programs. It is based on
 the Gaussian(R) 16 system (copyright 2016, Gaussian, Inc.),
 the Gaussian(R) 09 system (copyright 2009, Gaussian, Inc.),
 the Gaussian(R) 03 system (copyright 2003, Gaussian, Inc.),
 the Gaussian(R) 98 system (copyright 1998, Gaussian, Inc.),
 the Gaussian(R) 94 system (copyright 1995, Gaussian, Inc.),
 the Gaussian 92(TM) system (copyright 1992, Gaussian, Inc.),
 the Gaussian 90(TM) system (copyright 1990, Gaussian, Inc.),
 the Gaussian 88(TM) system (copyright 1988, Gaussian, Inc.),
 the Gaussian 86(TM) system (copyright 1986, Carnegie Mellon
 University), and the Gaussian 82(TM) system (copyright 1983,
 Carnegie Mellon University). Gaussian is a federally registered
 trademark of Gaussian, Inc.
  
 This software contains proprietary and confidential information,
 including trade secrets, belonging to Gaussian, Inc.
  
 This software is provided under written license and may be
 used, copied, transmitted, or stored only in accord with that
 written license.
  
 The following legend is applicable only to US Government
 contracts under FAR:
  
                    RESTRICTED RIGHTS LEGEND
  
 Use, reproduction and disclosure by the US Government is
 subject to restrictions as set forth in subparagraphs (a)
 and (c) of the Commercial Computer Software - Restricted
 Rights clause in FAR 52.227-19.
  
 Gaussian, Inc.
 340 Quinnipiac St., Bldg. 40, Wallingford CT 06492
  
  
 ---------------------------------------------------------------
 Warning -- This program may not be used in any manner that
 competes with the business of Gaussian, Inc. or will provide
 assistance to any competitor of Gaussian, Inc.  The licensee
 of this program is prohibited from giving any competitor of
 Gaussian, Inc. access to this program.  By using this program,
 the user acknowledges that Gaussian, Inc. is engaged in the
 business of creating and licensing software in the field of
 computational chemistry and represents and warrants to the
 licensee that it is not a competitor of Gaussian, Inc. and that
 it will not use this program in any manner prohibited above.
 ---------------------------------------------------------------
  

 Cite this work as:
 Gaussian Development Version, Revision J.21,
 M. J. Frisch, G. W. Trucks, H. B. Schlegel, G. E. Scuseria, 
 M. A. Robb, J. R. Cheeseman, G. Scalmani, V. Barone, 
 G. A. Petersson, H. Nakatsuji, X. Li, A. V. Marenich, M. Caricato, 
 J. Bloino, B. G. Janesko, J. Zheng, R. Gomperts, B. Mennucci, 
 H. P. Hratchian, J. V. Ortiz, A. F. Izmaylov, J. L. Sonnenberg, 
 D. Williams-Young, F. Ding, F. Lipparini, F. Egidi, J. Goings, 
 B. Peng, A. Petrone, T. Henderson, D. Ranasinghe, V. G. Zakrzewski, 
 J. Gao, N. Rega, G. Zheng, W. Liang, M. Hada, M. Ehara, K. Toyota, 
 R. Fukuda, J. Hasegawa, M. Ishida, T. Nakajima, Y. Honda, O. Kitao, 
 H. Nakai, T. Vreven, K. Throssell, J. A. Montgomery, Jr., 
 J. E. Peralta, F. Ogliaro, M. J. Bearpark, J. J. Heyd, 
 E. N. Brothers, K. N. Kudin, V. N. Staroverov, T. A. Keith, 
 R. Kobayashi, J. Normand, K. Raghavachari, A. P. Rendell, 
 J. C. Burant, S. S. Iyengar, J. Tomasi, M. Cossi, J. M. Millam, 
 M. Klene, C. Adamo, R. Cammi, J. W. Ochterski, R. L. Martin, 
 K. Morokuma, O. Farkas, J. B. Foresman, and D. J. Fox, 
 Gaussian, Inc., Wallingford CT, 2020.
 
 ******************************************
 Gaussian DV:  ES64L-GDVRevJ.21 25-Jul-2022
                14-Mar-2025 
 ******************************************
 -------------------------------------
 #p UFF GEOM=READALLGIC OUTPUT=PICKETT
 -------------------------------------
 1/18=20,37=210000000,38=1,56=1,64=2,145=602,172=1/1;
 2/12=2/2;
 3/5=30,11=9,25=1,30=1,41=10020000,43=2/1;
 4/20=10,24=3/2;
 99/5=1,9=1,10=1024/99;
 Leave Link    1 at Fri Mar 14 14:15:01 2025, MaxMem=           0 cpu:               0.0 elap:               0.0
 (Enter /home/enzo/gaussian_versions/gdv.j21/gdv/l101.exe)
 ------------------
 individuo_9793.xyz
 ------------------
 Symbolic Z-matrix:
 Charge =     0 Multiplicity =     1
 6                    -2.21034   1.83994   0.23569 
 6                    -1.81134   0.40382   0.55306 
 16                   -3.14742  -0.73202   0.07157 
 6                    -0.5411    0.03946  -0.15977 
 8                    -0.47221  -1.0454   -0.7956 
 7                     0.58295   0.92519  -0.12908 
 6                     1.82398   0.60043  -0.82445 
 6                     2.74405  -0.16321   0.06955 
 8                     2.2988   -1.10058   0.77952 
 8                     4.08757   0.18118   0.1355 
 1                    -3.13129   2.10785   0.79341 
 1                    -1.40198   2.53646   0.54113 
 1                    -2.40209   1.96312  -0.85073 
 1                    -1.66883   0.31471   1.65035 
 1                    -2.72295  -0.78533  -1.26793 
 1                     0.50478   1.82051   0.40364 
 1                     1.5966   -0.00507  -1.727 
 1                     2.32418   1.53745  -1.14638 
 1                     4.72592  -0.33121   0.73051 
 
 Initializing the GIC definitions file.

 CrInp1: Reading the GIC input below.
 Dihed1 = D( 15, 3, 2, 14)
 Dihed2 = D( 3, 2, 4, 5)
 Dihed3 = D( 4, 6, 7, 8)
 Dihed4 = D( 6, 7, 8, 9)
 Dihed5 = D( 9, 8, 10, 19)
 
 Warning:  Number of GICs=     5 3N-6=    51.
 ITRead=  0  0  0  0  0  0  0  0  0  0  0  0  0  0  0  0  0  0  0
 MicOpt= -1 -1 -1 -1 -1 -1 -1 -1 -1 -1 -1 -1 -1 -1 -1 -1 -1 -1 -1
                           ----------------------------
                           !    Current Parameters    !
                           ! (Angstroms and Degrees)  !
 --------------------------                            --------------------------
 ! Name   Definition             Value                                          !
 --------------------------------------------------------------------------------
 ! Dihed1 D(15,3,2,14)        -158.294                                          !
 ! Dihed2 D(3,2,4,5)           -10.5485                                         !
 ! Dihed3 D(4,6,7,8)           -89.7804                                         !
 ! Dihed4 D(6,7,8,9)            44.1431                                         !
 ! Dihed5 D(9,8,10,19)           1.8003                                         !
 --------------------------------------------------------------------------------
 NAtoms=     19 NQM=       19 NQMF=       0 NMMI=      0 NMMIF=      0
                NMic=       0 NMicF=      0.
                    Isotopes and Nuclear Properties:
 (Nuclear quadrupole moments (NQMom) in fm**2, nuclear magnetic moments (NMagM)
  in nuclear magnetons)

  Atom         1           2           3           4           5           6           7           8           9          10
 IAtWgt=          12          12          32          12          16          14          12          12          16          16
 AtmWgt=  12.0000000  12.0000000  31.9720718  12.0000000  15.9949146  14.0030740  12.0000000  12.0000000  15.9949146  15.9949146
 NucSpn=           0           0           0           0           0           2           0           0           0           0
 AtZEff=  -0.0000000  -0.0000000  -0.0000000  -0.0000000  -0.0000000  -0.0000000  -0.0000000  -0.0000000  -0.0000000  -0.0000000
 NQMom=    0.0000000   0.0000000   0.0000000   0.0000000   0.0000000   2.0440000   0.0000000   0.0000000   0.0000000   0.0000000
 NMagM=    0.0000000   0.0000000   0.0000000   0.0000000   0.0000000   0.4037610   0.0000000   0.0000000   0.0000000   0.0000000
 AtZNuc=   6.0000000   6.0000000  16.0000000   6.0000000   8.0000000   7.0000000   6.0000000   6.0000000   8.0000000   8.0000000

  Atom        11          12          13          14          15          16          17          18          19
 IAtWgt=           1           1           1           1           1           1           1           1           1
 AtmWgt=   1.0078250   1.0078250   1.0078250   1.0078250   1.0078250   1.0078250   1.0078250   1.0078250   1.0078250
 NucSpn=           1           1           1           1           1           1           1           1           1
 AtZEff=  -0.0000000  -0.0000000  -0.0000000  -0.0000000  -0.0000000  -0.0000000  -0.0000000  -0.0000000  -0.0000000
 NQMom=    0.0000000   0.0000000   0.0000000   0.0000000   0.0000000   0.0000000   0.0000000   0.0000000   0.0000000
 NMagM=    2.7928460   2.7928460   2.7928460   2.7928460   2.7928460   2.7928460   2.7928460   2.7928460   2.7928460
 AtZNuc=   1.0000000   1.0000000   1.0000000   1.0000000   1.0000000   1.0000000   1.0000000   1.0000000   1.0000000
 Generating MM parameters.
 Include all MM classes

 MM sanity checks:
 All charges sum to:                0.00000000
 Charges of atoms sum to:           0.00000000
 MMInit generated parameter data with length LenPar=        2803.
 Leave Link  101 at Fri Mar 14 14:15:01 2025, MaxMem=   104857600 cpu:               0.1 elap:               0.1
 (Enter /home/enzo/gaussian_versions/gdv.j21/gdv/l202.exe)
                          Input orientation:                          
 ---------------------------------------------------------------------
 Center     Atomic      Atomic             Coordinates (Angstroms)
 Number     Number       Type             X           Y           Z
 ---------------------------------------------------------------------
      1          6    10061003       -2.210340    1.839942    0.235694
      2          6    10061003       -1.811341    0.403822    0.553057
      3         16    10161003       -3.147424   -0.732021    0.071566
      4          6    10061002       -0.541104    0.039462   -0.159768
      5          8    10081002       -0.472213   -1.045395   -0.795596
      6          7    10071000        0.582952    0.925193   -0.129078
      7          6    10061003        1.823976    0.600426   -0.824445
      8          6    10061000        2.744045   -0.163214    0.069549
      9          8    10081002        2.298798   -1.100580    0.779516
     10          8    10081000        4.087569    0.181181    0.135503
     11          1    10011000       -3.131288    2.107847    0.793413
     12          1    10011000       -1.401978    2.536462    0.541126
     13          1    10011000       -2.402090    1.963115   -0.850730
     14          1    10011000       -1.668825    0.314706    1.650348
     15          1    10011000       -2.722952   -0.785330   -1.267926
     16          1    10011000        0.504782    1.820507    0.403636
     17          1    10011000        1.596604   -0.005070   -1.726996
     18          1    10011000        2.324180    1.537448   -1.146379
     19          1    10011000        4.725919   -0.331210    0.730505
 ---------------------------------------------------------------------
                    Distance matrix (angstroms):
                    1          2          3          4          5
     1  C    0.000000
     2  C    1.523929   0.000000
     3  S    2.742272   1.818541   0.000000
     4  C    2.486859   1.501459   2.727931   0.000000
     5  O    3.522757   2.390054   2.829651   1.259340   0.000000
     6  N    2.961808   2.543575   4.086847   1.431420   2.332560
     7  C    4.351551   3.892518   5.224277   2.519936   2.825251
     8  C    5.346603   4.615935   5.918864   3.299374   3.445437
     9  O    5.410613   4.382665   5.504395   3.201093   3.187872
    10  O    6.513462   5.917859   7.292678   4.640246   4.812800
    11  H    1.109490   2.168809   2.930217   3.449032   4.420245
    12  H    1.109900   2.171606   3.734976   2.732648   3.934589
    13  H    1.110071   2.179678   2.944471   2.764261   3.574716
    14  H    2.149611   1.110090   2.403007   2.150357   3.043747
    15  H    3.068501   2.358198   1.406150   2.582394   2.314423
    16  H    2.720380   2.719145   4.468140   2.140893   3.256696
    17  H    4.663587   4.120670   5.125338   2.651034   2.495954
    18  H    4.750105   4.612562   6.047506   3.380417   3.822818
    19  H    7.284945   6.580846   7.911029   5.354579   5.464396
                    6          7          8          9         10
     6  N    0.000000
     7  C    1.459161   0.000000
     8  C    2.427840   1.492950   0.000000
     9  O    2.805963   2.385701   1.257360   0.000000
    10  O    3.592478   2.494217   1.388530   2.292895   0.000000
    11  H    4.005651   5.426272   6.340444   6.307141   7.500452
    12  H    2.642973   4.002474   4.969924   5.194290   5.987237
    13  H    3.241688   4.440411   5.643660   5.843139   6.801736
    14  H    2.934204   4.290209   4.711768   4.301560   5.953877
    15  H    3.892540   4.774050   5.662502   5.432253   7.020467
    16  H    1.044740   2.176477   3.010160   3.448555   3.949133
    17  H    2.108607   1.110370   2.137570   2.824150   3.115846
    18  H    2.107518   1.109890   2.132374   3.266329   2.567532
    19  H    4.413797   3.421562   2.095927   2.546615   1.011960
                   11         12         13         14         15
    11  H    0.000000
    12  H    1.799409   0.000000
    13  H    1.804407   1.807267   0.000000
    14  H    2.467487   2.497555   3.083881   0.000000
    15  H    3.575798   4.006488   2.798384   3.292049   0.000000
    16  H    3.668173   2.041379   3.169176   2.923405   4.472446
    17  H    5.759327   4.538200   4.542152   4.708687   4.413402
    18  H    5.818099   4.210695   4.754601   5.026019   5.557303
    19  H    8.227312   6.768348   7.653283   6.492771   7.725648
                   16         17         18         19
    16  H    0.000000
    17  H    3.010714   0.000000
    18  H    2.406840   1.801623   0.000000
    19  H    4.749182   3.992279   3.575322   0.000000
 Stoichiometry    C5H9NO3S
 Framework group  C1[X(C5H9NO3S)]
 Deg. of freedom    51
 Full point group                 C1      NOp   1
 Largest Abelian subgroup         C1      NOp   1
 Largest concise Abelian subgroup C1      NOp   1
                         Standard orientation:                         
 ---------------------------------------------------------------------
 Center     Atomic      Atomic             Coordinates (Angstroms)
 Number     Number       Type             X           Y           Z
 ---------------------------------------------------------------------
      1          6    10061003        2.218582    1.765301   -0.206795
      2          6    10061003        1.803698    0.339280   -0.548401
      3         16    10161003        3.125387   -0.819723   -0.082630
      4          6    10061002        0.527655   -0.021838    0.155650
      5          8    10081002        0.444698   -1.116032    0.773546
      6          7    10071000       -0.585977    0.877293    0.136995
      7          6    10061003       -1.832309    0.555705    0.824300
      8          6    10061000       -2.759078   -0.182517   -0.084011
      9          8    10081002       -2.323071   -1.113312   -0.808215
     10          8    10081000       -4.098359    0.178515   -0.147228
     11          1    10011000        3.143879    2.031521   -0.758086
     12          1    10011000        1.419070    2.476061   -0.502562
     13          1    10011000        2.409204    1.868523    0.881904
     14          1    10011000        1.662727    0.269712   -1.647304
     15          1    10011000        2.697190   -0.889899    1.254897
     16          1    10011000       -0.496182    1.780195   -0.380873
     17          1    10011000       -1.614089   -0.067016    1.717340
     18          1    10011000       -2.322364    1.493115    1.160400
     19          1    10011000       -4.741214   -0.316655   -0.751882
 ---------------------------------------------------------------------
 Rotational constants (GHZ):           2.8140240           0.4994861           0.4583964
 Leave Link  202 at Fri Mar 14 14:15:01 2025, MaxMem=   104857600 cpu:               0.0 elap:               0.0
 (Enter /home/enzo/gaussian_versions/gdv.j21/gdv/l301.exe)
 Standard basis: Dummy (5D, 7F)
 There are    19 symmetry adapted cartesian basis functions of A   symmetry.
 There are    19 symmetry adapted basis functions of A   symmetry.
    19 basis functions,    19 primitive gaussians,    19 cartesian basis functions
    14 alpha electrons       14 beta electrons
       nuclear repulsion energy        68.7337232209 Hartrees.
 IExCor=         0 DFT=F Ex=HF Corr=None N6=None ScaHFX=  1.000000
 ScaDFX=  1.000000  1.000000  1.000000  1.000000  1.000000  0.000000
 ScaDFX=  0.000000  0.000000  0.000000  0.000000  0.000000  0.000000
 IRadAn=      5 IRanWt=     -1 IRanGd=            0 ICorTp=0 IEmpDi=  4
 NAtoms=   19 NActive=   19 NUniq=   19 SFac= 1.00D+00 NAtFMM=   60 NAOKFM=F Big=F
 Integral buffers will be    131072 words long.
 Raffenetti 1 integral format.
 Two-electron integral symmetry is turned on.
 Leave Link  301 at Fri Mar 14 14:15:01 2025, MaxMem=   104857600 cpu:               0.0 elap:               0.0
 (Enter /home/enzo/gaussian_versions/gdv.j21/gdv/l402.exe)
 UFF calculation of energy.
 Energy per function type:
 Direct Coulomb + vdW (small)                           0.031285399
 Direct Coulomb (large)                                 0.000000000
 Direct vdW (large)                                   682.406459101
 Non-direct Coulomb + vdW (small)                      -0.014071872
 Non-direct Coulomb (large)                             0.000000000
 Non-direct vdW (large)                              -682.406459101
 Harmonic stretch III                                   0.010506187
 UFF 3-term bend                                        0.004904391
 UFF 2-term bend                                        0.000135019
 UFF torsion fixed V                                    0.002975056
 UFF torsion w/ bond order V                            0.000023769
 UFF torsion w/ sp3 V                                   0.000499266
 Three term Wilson angle                                0.000018416
 Energy per function class:
        Coulomb               0.000000000
    Vanderwaals               0.017213528
     Stretching               0.010506187
        Bending               0.005039410
        Torsion               0.003498091
   Out-of-plane               0.000018416
 Energy=    3.627563169E-02 NIter=   0.
 Dipole moment=       0.000000       0.000000       0.000000
 Leave Link  402 at Fri Mar 14 14:15:01 2025, MaxMem=   104857600 cpu:               0.0 elap:               0.0
 (Enter /home/enzo/gaussian_versions/gdv.j21/gdv/l9999.exe)
 Unable to Open any file for archive entry.
 1\1\GINC-ORACLE\SP\UFF\ZDO\C5H9N1O3S1\ENZO\14-Mar-2025\0\\#p UFF GEOM=
 READALLGIC OUTPUT=PICKETT\\individuo_9793.xyz\\0,1\C,0,-2.21034,1.8399
 42,0.235694\C,0,-1.811341,0.403822,0.553057\S,0,-3.147424,-0.732021,0.
 071566\C,0,-0.541104,0.039462,-0.159768\O,0,-0.472213,-1.045395,-0.795
 596\N,0,0.582952,0.925193,-0.129078\C,0,1.823976,0.600426,-0.824445\C,
 0,2.744045,-0.163214,0.069549\O,0,2.298798,-1.10058,0.779516\O,0,4.087
 569,0.181181,0.135503\H,0,-3.131288,2.107847,0.793413\H,0,-1.401978,2.
 536462,0.541126\H,0,-2.40209,1.963115,-0.85073\H,0,-1.668825,0.314706,
 1.650348\H,0,-2.722952,-0.78533,-1.267926\H,0,0.504782,1.820507,0.4036
 36\H,0,1.596604,-0.00507,-1.726996\H,0,2.32418,1.537448,-1.146379\H,0,
 4.725919,-0.33121,0.730505\\Version=ES64L-GDVRevJ.21\HF=0.0362756\RMSD
 =0.000e+00\Dipole=0.,0.,0.\PG=C01 [X(C5H9N1O3S1)]\\@
 The archive entry for this job was punched.
 DoSRE=F DoSRN=F DoDH=F DoFC=F DoNQ=F DoQCD=F DoSCD=F
 Inertia tensor (amu-bohr**2): 
                 1             2             3 
      1   0.641338D+03 -0.205729D-03 -0.110134D-03
      2  -0.205729D-03  0.361320D+04 -0.101692D-03
      3  -0.110134D-03 -0.101692D-03  0.393708D+04
 Principal inertia moments (amu-bohr**2):
 Iaa = 0.641338D+03 Ibb= 0.361320D+04 Icc= 0.393708D+04
 Rotation matrix to Principal Axis frame: 
                 1             2             3 
      1   0.100000D+01  0.000000D+00  0.000000D+00
      2   0.000000D+00  0.100000D+01  0.000000D+00
      3   0.000000D+00  0.000000D+00  0.100000D+01
                Principal axis orientation:                
 ---------------------------------------------------------------------
 Center     Atomic                     Coordinates (Angstroms)
 Number     Number                        X           Y           Z
 ---------------------------------------------------------------------
      1          6                   -2.210340    1.839942    0.235694
      2          6                   -1.811341    0.403822    0.553057
      3         16                   -3.147424   -0.732021    0.071566
      4          6                   -0.541104    0.039462   -0.159768
      5          8                   -0.472213   -1.045395   -0.795596
      6          7                    0.582952    0.925193   -0.129078
      7          6                    1.823976    0.600426   -0.824445
      8          6                    2.744045   -0.163214    0.069549
      9          8                    2.298798   -1.100580    0.779516
     10          8                    4.087569    0.181181    0.135503
     11          1                   -3.131288    2.107847    0.793412
     12          1                   -1.401978    2.536462    0.541125
     13          1                   -2.402090    1.963115   -0.850731
     14          1                   -1.668825    0.314707    1.650348
     15          1                   -2.722952   -0.785330   -1.267926
     16          1                    0.504782    1.820507    0.403635
     17          1                    1.596604   -0.005071   -1.726996
     18          1                    2.324180    1.537447   -1.146380
     19          1                    4.725919   -0.331210    0.730505
 ---------------------------------------------------------------------
 Rotational constants (MHZ):
   2814.0239559    499.4861097    458.3963760
 Dipole moment (Debye):
      0.0000000      0.0000000      0.0000000  Tot=      0.0000000

 Atoms with significant hyperfine tensors: 

--------------------------------------------------------------------------------
 individuo_9793.xyz                                      
   99  1000  50  0.1760E-11  0.1000E+07  0.1000E+01 1.0000000000
a   1  0  0  0  1  1   1  0  1  0
     10000   0.28140240E+04    0.0000E+00   /  A  /
     20000   0.49948611E+03    0.0000E+00   /  B  /
     30000   0.45839638E+03    0.0000E+00   /  C  /
--------------------------------------------------------------------------------



 ...THOSE SCIENCES ARE VAIN AND FULL OF ERRORS WHICH 
 ARE NOT BORN FROM EXPERIMENT, THE MOTHER OF CERTAINTY...

                          -- LEONARDO DA VINCI, 1452-1519
 Job cpu time:       0 days  0 hours  0 minutes  0.2 seconds.
 Elapsed time:       0 days  0 hours  0 minutes  0.2 seconds.
 File lengths (MBytes):  RWF=     14 Int=      0 D2E=      0 Chk=      9 Scr=      1
 Normal termination of Gaussian DV at Fri Mar 14 14:15:01 2025.
