 Entering Gaussian System, Link 0=gdv
 Input=../generations_tiopronin/population_49/temp_processing/individuo_8518.gjf
 Output=../generations_tiopronin/population_49/temp_processing/individuo_8518.log
 Initial command:
 /home/enzo/gaussian_versions/gdv.j21/gdv/l1.exe "/local/home/enzo/scratch/Gau-2270851.inp" -scrdir="/local/home/enzo/scratch/"
 Entering Link 1 = /home/enzo/gaussian_versions/gdv.j21/gdv/l1.exe PID=   2270852.
  
 Copyright (c) 1988-2022, Gaussian, Inc.  All Rights Reserved.
  
 This is the private, development version of
 the Gaussian(R) DV system of programs. It is based on
 the Gaussian(R) 16 system (copyright 2016, Gaussian, Inc.),
 the Gaussian(R) 09 system (copyright 2009, Gaussian, Inc.),
 the Gaussian(R) 03 system (copyright 2003, Gaussian, Inc.),
 the Gaussian(R) 98 system (copyright 1998, Gaussian, Inc.),
 the Gaussian(R) 94 system (copyright 1995, Gaussian, Inc.),
 the Gaussian 92(TM) system (copyright 1992, Gaussian, Inc.),
 the Gaussian 90(TM) system (copyright 1990, Gaussian, Inc.),
 the Gaussian 88(TM) system (copyright 1988, Gaussian, Inc.),
 the Gaussian 86(TM) system (copyright 1986, Carnegie Mellon
 University), and the Gaussian 82(TM) system (copyright 1983,
 Carnegie Mellon University). Gaussian is a federally registered
 trademark of Gaussian, Inc.
  
 This software contains proprietary and confidential information,
 including trade secrets, belonging to Gaussian, Inc.
  
 This software is provided under written license and may be
 used, copied, transmitted, or stored only in accord with that
 written license.
  
 The following legend is applicable only to US Government
 contracts under FAR:
  
                    RESTRICTED RIGHTS LEGEND
  
 Use, reproduction and disclosure by the US Government is
 subject to restrictions as set forth in subparagraphs (a)
 and (c) of the Commercial Computer Software - Restricted
 Rights clause in FAR 52.227-19.
  
 Gaussian, Inc.
 340 Quinnipiac St., Bldg. 40, Wallingford CT 06492
  
  
 ---------------------------------------------------------------
 Warning -- This program may not be used in any manner that
 competes with the business of Gaussian, Inc. or will provide
 assistance to any competitor of Gaussian, Inc.  The licensee
 of this program is prohibited from giving any competitor of
 Gaussian, Inc. access to this program.  By using this program,
 the user acknowledges that Gaussian, Inc. is engaged in the
 business of creating and licensing software in the field of
 computational chemistry and represents and warrants to the
 licensee that it is not a competitor of Gaussian, Inc. and that
 it will not use this program in any manner prohibited above.
 ---------------------------------------------------------------
  

 Cite this work as:
 Gaussian Development Version, Revision J.21,
 M. J. Frisch, G. W. Trucks, H. B. Schlegel, G. E. Scuseria, 
 M. A. Robb, J. R. Cheeseman, G. Scalmani, V. Barone, 
 G. A. Petersson, H. Nakatsuji, X. Li, A. V. Marenich, M. Caricato, 
 J. Bloino, B. G. Janesko, J. Zheng, R. Gomperts, B. Mennucci, 
 H. P. Hratchian, J. V. Ortiz, A. F. Izmaylov, J. L. Sonnenberg, 
 D. Williams-Young, F. Ding, F. Lipparini, F. Egidi, J. Goings, 
 B. Peng, A. Petrone, T. Henderson, D. Ranasinghe, V. G. Zakrzewski, 
 J. Gao, N. Rega, G. Zheng, W. Liang, M. Hada, M. Ehara, K. Toyota, 
 R. Fukuda, J. Hasegawa, M. Ishida, T. Nakajima, Y. Honda, O. Kitao, 
 H. Nakai, T. Vreven, K. Throssell, J. A. Montgomery, Jr., 
 J. E. Peralta, F. Ogliaro, M. J. Bearpark, J. J. Heyd, 
 E. N. Brothers, K. N. Kudin, V. N. Staroverov, T. A. Keith, 
 R. Kobayashi, J. Normand, K. Raghavachari, A. P. Rendell, 
 J. C. Burant, S. S. Iyengar, J. Tomasi, M. Cossi, J. M. Millam, 
 M. Klene, C. Adamo, R. Cammi, J. W. Ochterski, R. L. Martin, 
 K. Morokuma, O. Farkas, J. B. Foresman, and D. J. Fox, 
 Gaussian, Inc., Wallingford CT, 2020.
 
 ******************************************
 Gaussian DV:  ES64L-GDVRevJ.21 25-Jul-2022
                14-Mar-2025 
 ******************************************
 -------------------------------------
 #p UFF GEOM=READALLGIC OUTPUT=PICKETT
 -------------------------------------
 1/18=20,37=210000000,38=1,56=1,64=2,145=602,172=1/1;
 2/12=2/2;
 3/5=30,11=9,25=1,30=1,41=10020000,43=2/1;
 4/20=10,24=3/2;
 99/5=1,9=1,10=1024/99;
 Leave Link    1 at Fri Mar 14 14:15:03 2025, MaxMem=           0 cpu:               0.0 elap:               0.0
 (Enter /home/enzo/gaussian_versions/gdv.j21/gdv/l101.exe)
 ------------------
 individuo_8518.xyz
 ------------------
 Symbolic Z-matrix:
 Charge =     0 Multiplicity =     1
 6                    -2.46728   1.69472   0.50241 
 6                    -1.85054   0.30491   0.60448 
 16                   -3.08923  -0.95628   0.17771 
 6                    -0.66008   0.18814  -0.30302 
 8                    -0.72903   0.62704  -1.48138 
 7                     0.55256  -0.40693   0.17067 
 6                     1.72753  -0.52032  -0.68708 
 6                     2.96177  -0.12942   0.05637 
 8                     3.77265  -1.01083   0.43916 
 8                     3.19916   1.2073    0.3477 
 1                    -3.32499   1.77929   1.20108 
 1                    -1.71698   2.46564   0.77556 
 1                    -2.82661   1.88989  -0.5296 
 1                    -1.54224   0.13547   1.65735 
 1                    -2.38678  -1.36799  -0.96872 
 1                     0.58899  -0.76416   1.15176 
 1                     1.82622  -1.56659  -1.04555 
 1                     1.60807   0.14363  -1.56842 
 1                     2.45811   1.89294   0.27842 
 
 Initializing the GIC definitions file.

 CrInp1: Reading the GIC input below.
 Dihed1 = D( 15, 3, 2, 14)
 Dihed2 = D( 3, 2, 4, 5)
 Dihed3 = D( 4, 6, 7, 8)
 Dihed4 = D( 6, 7, 8, 9)
 Dihed5 = D( 9, 8, 10, 19)
 
 Warning:  Number of GICs=     5 3N-6=    51.
 ITRead=  0  0  0  0  0  0  0  0  0  0  0  0  0  0  0  0  0  0  0
 MicOpt= -1 -1 -1 -1 -1 -1 -1 -1 -1 -1 -1 -1 -1 -1 -1 -1 -1 -1 -1
                           ----------------------------
                           !    Current Parameters    !
                           ! (Angstroms and Degrees)  !
 --------------------------                            --------------------------
 ! Name   Definition             Value                                          !
 --------------------------------------------------------------------------------
 ! Dihed1 D(15,3,2,14)        -127.0879                                         !
 ! Dihed2 D(3,2,4,5)            76.8477                                         !
 ! Dihed3 D(4,6,7,8)           135.7897                                         !
 ! Dihed4 D(6,7,8,9)           105.6237                                         !
 ! Dihed5 D(9,8,10,19)        -163.1676                                         !
 --------------------------------------------------------------------------------
 NAtoms=     19 NQM=       19 NQMF=       0 NMMI=      0 NMMIF=      0
                NMic=       0 NMicF=      0.
                    Isotopes and Nuclear Properties:
 (Nuclear quadrupole moments (NQMom) in fm**2, nuclear magnetic moments (NMagM)
  in nuclear magnetons)

  Atom         1           2           3           4           5           6           7           8           9          10
 IAtWgt=          12          12          32          12          16          14          12          12          16          16
 AtmWgt=  12.0000000  12.0000000  31.9720718  12.0000000  15.9949146  14.0030740  12.0000000  12.0000000  15.9949146  15.9949146
 NucSpn=           0           0           0           0           0           2           0           0           0           0
 AtZEff=  -0.0000000  -0.0000000  -0.0000000  -0.0000000  -0.0000000  -0.0000000  -0.0000000  -0.0000000  -0.0000000  -0.0000000
 NQMom=    0.0000000   0.0000000   0.0000000   0.0000000   0.0000000   2.0440000   0.0000000   0.0000000   0.0000000   0.0000000
 NMagM=    0.0000000   0.0000000   0.0000000   0.0000000   0.0000000   0.4037610   0.0000000   0.0000000   0.0000000   0.0000000
 AtZNuc=   6.0000000   6.0000000  16.0000000   6.0000000   8.0000000   7.0000000   6.0000000   6.0000000   8.0000000   8.0000000

  Atom        11          12          13          14          15          16          17          18          19
 IAtWgt=           1           1           1           1           1           1           1           1           1
 AtmWgt=   1.0078250   1.0078250   1.0078250   1.0078250   1.0078250   1.0078250   1.0078250   1.0078250   1.0078250
 NucSpn=           1           1           1           1           1           1           1           1           1
 AtZEff=  -0.0000000  -0.0000000  -0.0000000  -0.0000000  -0.0000000  -0.0000000  -0.0000000  -0.0000000  -0.0000000
 NQMom=    0.0000000   0.0000000   0.0000000   0.0000000   0.0000000   0.0000000   0.0000000   0.0000000   0.0000000
 NMagM=    2.7928460   2.7928460   2.7928460   2.7928460   2.7928460   2.7928460   2.7928460   2.7928460   2.7928460
 AtZNuc=   1.0000000   1.0000000   1.0000000   1.0000000   1.0000000   1.0000000   1.0000000   1.0000000   1.0000000
 Generating MM parameters.
 Include all MM classes

 MM sanity checks:
 All charges sum to:                0.00000000
 Charges of atoms sum to:           0.00000000
 MMInit generated parameter data with length LenPar=        2803.
 Leave Link  101 at Fri Mar 14 14:15:03 2025, MaxMem=   104857600 cpu:               0.1 elap:               0.1
 (Enter /home/enzo/gaussian_versions/gdv.j21/gdv/l202.exe)
                          Input orientation:                          
 ---------------------------------------------------------------------
 Center     Atomic      Atomic             Coordinates (Angstroms)
 Number     Number       Type             X           Y           Z
 ---------------------------------------------------------------------
      1          6    10061003       -2.467276    1.694723    0.502410
      2          6    10061003       -1.850539    0.304910    0.604477
      3         16    10161003       -3.089235   -0.956276    0.177709
      4          6    10061002       -0.660076    0.188142   -0.303016
      5          8    10081002       -0.729034    0.627038   -1.481384
      6          7    10071000        0.552556   -0.406932    0.170666
      7          6    10061003        1.727527   -0.520322   -0.687083
      8          6    10061000        2.961773   -0.129415    0.056374
      9          8    10081002        3.772653   -1.010834    0.439163
     10          8    10081000        3.199155    1.207296    0.347698
     11          1    10011000       -3.324991    1.779287    1.201081
     12          1    10011000       -1.716975    2.465643    0.775556
     13          1    10011000       -2.826607    1.889887   -0.529602
     14          1    10011000       -1.542244    0.135474    1.657352
     15          1    10011000       -2.386775   -1.367994   -0.968718
     16          1    10011000        0.588993   -0.764164    1.151757
     17          1    10011000        1.826220   -1.566592   -1.045554
     18          1    10011000        1.608067    0.143633   -1.568417
     19          1    10011000        2.458106    1.892941    0.278424
 ---------------------------------------------------------------------
                    Distance matrix (angstroms):
                    1          2          3          4          5
     1  C    0.000000
     2  C    1.523930   0.000000
     3  S    2.742273   1.818540   0.000000
     4  C    2.486859   1.501459   2.727930   0.000000
     5  O    2.845501   2.390054   3.290900   1.259340   0.000000
     6  N    3.694102   2.543576   3.682997   1.431420   2.332560
     7  C    4.890572   3.892517   4.913158   2.519936   2.825251
     8  C    5.744650   4.862859   6.108447   3.653463   4.069272
     9  O    6.801526   5.777439   6.867084   4.651608   5.161038
    10  O    5.689461   5.136112   6.652352   4.044226   4.371831
    11  H    1.109490   2.168809   2.930218   3.449032   3.906698
    12  H    1.109900   2.171606   3.734976   2.732648   3.074130
    13  H    1.110071   2.179678   2.944470   2.764260   2.626878
    14  H    2.149612   1.110090   2.403007   2.150357   3.279422
    15  H    3.398666   2.358198   1.406150   2.417893   2.644066
    16  H    3.975998   2.719145   3.809861   2.140893   3.256696
    17  H    5.609499   4.443386   5.102015   3.132431   3.395774
    18  H    4.827279   4.087717   5.130634   2.597632   2.388157
    19  H    4.934455   4.603539   6.237081   3.601038   3.854516
                    6          7          8          9         10
     6  N    0.000000
     7  C    1.459160   0.000000
     8  C    2.427840   1.492950   0.000000
     9  O    3.287220   2.385702   1.257360   0.000000
    10  O    3.105086   2.494218   1.388530   2.292895   0.000000
    11  H    4.569100   5.863557   6.669100   7.664323   6.604538
    12  H    3.710573   4.787473   5.398355   6.506540   5.092625
    13  H    4.145419   5.155002   6.158433   7.273439   6.127430
    14  H    2.625381   4.076499   4.787428   5.571906   5.034368
    15  H    3.295679   4.210148   5.584967   6.328368   6.290285
    16  H    1.044740   2.176477   2.689397   3.271747   3.368399
    17  H    2.108607   1.110371   2.137570   2.510349   3.394194
    18  H    2.107519   1.109890   2.132374   3.169953   2.708217
    19  H    2.988670   2.699961   2.095927   3.191517   1.011959
                   11         12         13         14         15
    11  H    0.000000
    12  H    1.799409   0.000000
    13  H    1.804406   1.807267   0.000000
    14  H    2.467487   2.497555   3.083881   0.000000
    15  H    3.936198   4.264727   3.316634   3.141638   0.000000
    16  H    4.668067   3.986310   4.640827   2.367941   3.703542
    17  H    6.540432   5.668297   5.819128   4.642120   4.218373
    18  H    5.889019   4.684212   4.877999   4.508893   4.313168
    19  H    5.857339   4.243398   5.346130   4.581805   5.971761
                   16         17         18         19
    16  H    0.000000
    17  H    2.646280   0.000000
    18  H    3.043346   1.801623   0.000000
    19  H    3.364001   3.757734   2.682064   0.000000
 Stoichiometry    C5H9NO3S
 Framework group  C1[X(C5H9NO3S)]
 Deg. of freedom    51
 Full point group                 C1      NOp   1
 Largest Abelian subgroup         C1      NOp   1
 Largest concise Abelian subgroup C1      NOp   1
                         Standard orientation:                         
 ---------------------------------------------------------------------
 Center     Atomic      Atomic             Coordinates (Angstroms)
 Number     Number       Type             X           Y           Z
 ---------------------------------------------------------------------
      1          6    10061003        2.459409    1.667627   -0.368556
      2          6    10061003        1.827028    0.295409   -0.567241
      3         16    10161003        3.047571   -1.006576   -0.217673
      4          6    10061002        0.628688    0.132991    0.322693
      5          8    10081002        0.694251    0.491399    1.528173
      6          7    10071000       -0.587419   -0.414196   -0.197532
      7          6    10061003       -1.769865   -0.570115    0.643097
      8          6    10061000       -2.993951   -0.115326   -0.080561
      9          8    10081002       -3.812396   -0.959203   -0.526626
     10          8    10081000       -3.213370    1.240662   -0.283460
     11          1    10011000        3.323130    1.788071   -1.054446
     12          1    10011000        1.720293    2.464220   -0.594441
     13          1    10011000        2.813498    1.789060    0.676494
     14          1    10011000        1.524426    0.200409   -1.631059
     15          1    10011000        2.331957   -1.485207    0.894112
     16          1    10011000       -0.620934   -0.704692   -1.200513
     17          1    10011000       -1.883541   -1.636680    0.930219
     18          1    10011000       -1.648979    0.032033    1.567576
     19          1    10011000       -2.464783    1.910994   -0.163734
 ---------------------------------------------------------------------
 Rotational constants (GHZ):           2.4618855           0.4682812           0.4391217
 Leave Link  202 at Fri Mar 14 14:15:03 2025, MaxMem=   104857600 cpu:               0.0 elap:               0.0
 (Enter /home/enzo/gaussian_versions/gdv.j21/gdv/l301.exe)
 Standard basis: Dummy (5D, 7F)
 There are    19 symmetry adapted cartesian basis functions of A   symmetry.
 There are    19 symmetry adapted basis functions of A   symmetry.
    19 basis functions,    19 primitive gaussians,    19 cartesian basis functions
    14 alpha electrons       14 beta electrons
       nuclear repulsion energy        68.4291404114 Hartrees.
 IExCor=         0 DFT=F Ex=HF Corr=None N6=None ScaHFX=  1.000000
 ScaDFX=  1.000000  1.000000  1.000000  1.000000  1.000000  0.000000
 ScaDFX=  0.000000  0.000000  0.000000  0.000000  0.000000  0.000000
 IRadAn=      5 IRanWt=     -1 IRanGd=            0 ICorTp=0 IEmpDi=  4
 NAtoms=   19 NActive=   19 NUniq=   19 SFac= 1.00D+00 NAtFMM=   60 NAOKFM=F Big=F
 Integral buffers will be    131072 words long.
 Raffenetti 1 integral format.
 Two-electron integral symmetry is turned on.
 Leave Link  301 at Fri Mar 14 14:15:03 2025, MaxMem=   104857600 cpu:               0.0 elap:               0.0
 (Enter /home/enzo/gaussian_versions/gdv.j21/gdv/l402.exe)
 UFF calculation of energy.
 Energy per function type:
 Direct Coulomb + vdW (small)                           0.024963076
 Direct Coulomb (large)                                 0.000000000
 Direct vdW (large)                                   682.407028870
 Non-direct Coulomb + vdW (small)                      -0.014071877
 Non-direct Coulomb (large)                             0.000000000
 Non-direct vdW (large)                              -682.407028870
 Harmonic stretch III                                   0.010506218
 UFF 3-term bend                                        0.004904384
 UFF 2-term bend                                        0.000135016
 UFF torsion fixed V                                    0.002243436
 UFF torsion w/ bond order V                            0.003343949
 UFF torsion w/ sp3 V                                   0.001573230
 Three term Wilson angle                                0.000018416
 Energy per function class:
        Coulomb               0.000000000
    Vanderwaals               0.010891199
     Stretching               0.010506218
        Bending               0.005039400
        Torsion               0.007160615
   Out-of-plane               0.000018416
 Energy=    3.361584873E-02 NIter=   0.
 Dipole moment=       0.000000       0.000000       0.000000
 Leave Link  402 at Fri Mar 14 14:15:03 2025, MaxMem=   104857600 cpu:               0.0 elap:               0.0
 (Enter /home/enzo/gaussian_versions/gdv.j21/gdv/l9999.exe)
 Unable to Open any file for archive entry.
 1\1\GINC-ORACLE\SP\UFF\ZDO\C5H9N1O3S1\ENZO\14-Mar-2025\0\\#p UFF GEOM=
 READALLGIC OUTPUT=PICKETT\\individuo_8518.xyz\\0,1\C,0,-2.467276,1.694
 723,0.50241\C,0,-1.850539,0.30491,0.604477\S,0,-3.089235,-0.956276,0.1
 77709\C,0,-0.660076,0.188142,-0.303016\O,0,-0.729034,0.627038,-1.48138
 4\N,0,0.552556,-0.406932,0.170666\C,0,1.727527,-0.520322,-0.687083\C,0
 ,2.961773,-0.129415,0.056374\O,0,3.772653,-1.010834,0.439163\O,0,3.199
 155,1.207296,0.347698\H,0,-3.324991,1.779287,1.201081\H,0,-1.716975,2.
 465643,0.775556\H,0,-2.826607,1.889887,-0.529602\H,0,-1.542244,0.13547
 4,1.657352\H,0,-2.386775,-1.367994,-0.968718\H,0,0.588993,-0.764164,1.
 151757\H,0,1.82622,-1.566592,-1.045554\H,0,1.608067,0.143633,-1.568417
 \H,0,2.458106,1.892941,0.278424\\Version=ES64L-GDVRevJ.21\HF=0.0336158
 \RMSD=0.000e+00\Dipole=0.,0.,0.\PG=C01 [X(C5H9N1O3S1)]\\@
 The archive entry for this job was punched.
 DoSRE=F DoSRN=F DoDH=F DoFC=F DoNQ=F DoQCD=F DoSCD=F
 Inertia tensor (amu-bohr**2): 
                 1             2             3 
      1   0.733073D+03  0.219820D-04 -0.174782D-03
      2   0.219820D-04  0.385397D+04 -0.126604D-03
      3  -0.174782D-03 -0.126604D-03  0.410989D+04
 Principal inertia moments (amu-bohr**2):
 Iaa = 0.733073D+03 Ibb= 0.385397D+04 Icc= 0.410989D+04
 Rotation matrix to Principal Axis frame: 
                 1             2             3 
      1   0.100000D+01  0.000000D+00  0.000000D+00
      2   0.000000D+00  0.100000D+01  0.000000D+00
      3   0.000000D+00  0.000000D+00  0.100000D+01
                Principal axis orientation:                
 ---------------------------------------------------------------------
 Center     Atomic                     Coordinates (Angstroms)
 Number     Number                        X           Y           Z
 ---------------------------------------------------------------------
      1          6                   -2.467276    1.694723    0.502409
      2          6                   -1.850539    0.304910    0.604477
      3         16                   -3.089235   -0.956276    0.177710
      4          6                   -0.660076    0.188142   -0.303016
      5          8                   -0.729034    0.627037   -1.481384
      6          7                    0.552556   -0.406932    0.170666
      7          6                    1.727527   -0.520322   -0.687083
      8          6                    2.961773   -0.129415    0.056374
      9          8                    3.772653   -1.010834    0.439163
     10          8                    3.199155    1.207296    0.347697
     11          1                   -3.324991    1.779287    1.201080
     12          1                   -1.716975    2.465643    0.775555
     13          1                   -2.826607    1.889887   -0.529603
     14          1                   -1.542244    0.135475    1.657352
     15          1                   -2.386775   -1.367995   -0.968717
     16          1                    0.588993   -0.764164    1.151757
     17          1                    1.826220   -1.566593   -1.045553
     18          1                    1.608067    0.143632   -1.568417
     19          1                    2.458106    1.892941    0.278423
 ---------------------------------------------------------------------
 Rotational constants (MHZ):
   2461.8855308    468.2811592    439.1217359
 Dipole moment (Debye):
      0.0000000      0.0000000      0.0000000  Tot=      0.0000000

 Atoms with significant hyperfine tensors: 

--------------------------------------------------------------------------------
 individuo_8518.xyz                                      
   99  1000  50  0.1760E-11  0.1000E+07  0.1000E+01 1.0000000000
a   1  0  0  0  1  1   1  0  1  0
     10000   0.24618855E+04    0.0000E+00   /  A  /
     20000   0.46828116E+03    0.0000E+00   /  B  /
     30000   0.43912174E+03    0.0000E+00   /  C  /
--------------------------------------------------------------------------------



 Everything starts as somebody's daydream.
                           -- Larry Niven
 Job cpu time:       0 days  0 hours  0 minutes  0.2 seconds.
 Elapsed time:       0 days  0 hours  0 minutes  0.2 seconds.
 File lengths (MBytes):  RWF=     14 Int=      0 D2E=      0 Chk=      9 Scr=      1
 Normal termination of Gaussian DV at Fri Mar 14 14:15:03 2025.
