#p UFF GEOM=READALLGIC OUTPUT=PICKETT

individuo_1141.xyz

0 1
6 3.238431 1.045395 -0.223134
6 2.040686 0.162132 -0.551186
16 2.290561 -1.502533 0.136955
6 0.777276 0.762685 -0.005738
8 0.842887 1.648463 0.887028
7 -0.496151 0.341477 -0.505669
6 -1.737810 0.918892 -0.001663
6 -2.827207 -0.101901 0.008136
8 -3.982426 0.205520 -0.381630
8 -2.568810 -1.384276 0.473711
1 4.160322 0.608456 -0.659218
1 3.094424 2.058181 -0.653720
1 3.370731 1.135251 0.875355
1 1.968700 0.066089 -1.654768
1 1.867809 -2.137437 -1.044331
1 -0.528441 -0.394189 -1.246773
1 -1.578442 1.301115 1.028594
1 -2.040787 1.768086 -0.648911
1 -3.247911 -2.125360 0.356751

Dihed1 = D( 15, 3, 2, 14)
Dihed2 = D(  3, 2, 4, 5)
Dihed3 = D(  4, 6, 7, 8)
Dihed4 = D(  6, 7, 8, 9)
Dihed5 = D(  9, 8, 10, 19)

