 Entering Gaussian System, Link 0=gdv
 Input=../generations_tiopronin/population_49/temp_processing/individuo_8596.gjf
 Output=../generations_tiopronin/population_49/temp_processing/individuo_8596.log
 Initial command:
 /home/enzo/gaussian_versions/gdv.j21/gdv/l1.exe "/local/home/enzo/scratch/Gau-2270855.inp" -scrdir="/local/home/enzo/scratch/"
 Entering Link 1 = /home/enzo/gaussian_versions/gdv.j21/gdv/l1.exe PID=   2270856.
  
 Copyright (c) 1988-2022, Gaussian, Inc.  All Rights Reserved.
  
 This is the private, development version of
 the Gaussian(R) DV system of programs. It is based on
 the Gaussian(R) 16 system (copyright 2016, Gaussian, Inc.),
 the Gaussian(R) 09 system (copyright 2009, Gaussian, Inc.),
 the Gaussian(R) 03 system (copyright 2003, Gaussian, Inc.),
 the Gaussian(R) 98 system (copyright 1998, Gaussian, Inc.),
 the Gaussian(R) 94 system (copyright 1995, Gaussian, Inc.),
 the Gaussian 92(TM) system (copyright 1992, Gaussian, Inc.),
 the Gaussian 90(TM) system (copyright 1990, Gaussian, Inc.),
 the Gaussian 88(TM) system (copyright 1988, Gaussian, Inc.),
 the Gaussian 86(TM) system (copyright 1986, Carnegie Mellon
 University), and the Gaussian 82(TM) system (copyright 1983,
 Carnegie Mellon University). Gaussian is a federally registered
 trademark of Gaussian, Inc.
  
 This software contains proprietary and confidential information,
 including trade secrets, belonging to Gaussian, Inc.
  
 This software is provided under written license and may be
 used, copied, transmitted, or stored only in accord with that
 written license.
  
 The following legend is applicable only to US Government
 contracts under FAR:
  
                    RESTRICTED RIGHTS LEGEND
  
 Use, reproduction and disclosure by the US Government is
 subject to restrictions as set forth in subparagraphs (a)
 and (c) of the Commercial Computer Software - Restricted
 Rights clause in FAR 52.227-19.
  
 Gaussian, Inc.
 340 Quinnipiac St., Bldg. 40, Wallingford CT 06492
  
  
 ---------------------------------------------------------------
 Warning -- This program may not be used in any manner that
 competes with the business of Gaussian, Inc. or will provide
 assistance to any competitor of Gaussian, Inc.  The licensee
 of this program is prohibited from giving any competitor of
 Gaussian, Inc. access to this program.  By using this program,
 the user acknowledges that Gaussian, Inc. is engaged in the
 business of creating and licensing software in the field of
 computational chemistry and represents and warrants to the
 licensee that it is not a competitor of Gaussian, Inc. and that
 it will not use this program in any manner prohibited above.
 ---------------------------------------------------------------
  

 Cite this work as:
 Gaussian Development Version, Revision J.21,
 M. J. Frisch, G. W. Trucks, H. B. Schlegel, G. E. Scuseria, 
 M. A. Robb, J. R. Cheeseman, G. Scalmani, V. Barone, 
 G. A. Petersson, H. Nakatsuji, X. Li, A. V. Marenich, M. Caricato, 
 J. Bloino, B. G. Janesko, J. Zheng, R. Gomperts, B. Mennucci, 
 H. P. Hratchian, J. V. Ortiz, A. F. Izmaylov, J. L. Sonnenberg, 
 D. Williams-Young, F. Ding, F. Lipparini, F. Egidi, J. Goings, 
 B. Peng, A. Petrone, T. Henderson, D. Ranasinghe, V. G. Zakrzewski, 
 J. Gao, N. Rega, G. Zheng, W. Liang, M. Hada, M. Ehara, K. Toyota, 
 R. Fukuda, J. Hasegawa, M. Ishida, T. Nakajima, Y. Honda, O. Kitao, 
 H. Nakai, T. Vreven, K. Throssell, J. A. Montgomery, Jr., 
 J. E. Peralta, F. Ogliaro, M. J. Bearpark, J. J. Heyd, 
 E. N. Brothers, K. N. Kudin, V. N. Staroverov, T. A. Keith, 
 R. Kobayashi, J. Normand, K. Raghavachari, A. P. Rendell, 
 J. C. Burant, S. S. Iyengar, J. Tomasi, M. Cossi, J. M. Millam, 
 M. Klene, C. Adamo, R. Cammi, J. W. Ochterski, R. L. Martin, 
 K. Morokuma, O. Farkas, J. B. Foresman, and D. J. Fox, 
 Gaussian, Inc., Wallingford CT, 2020.
 
 ******************************************
 Gaussian DV:  ES64L-GDVRevJ.21 25-Jul-2022
                14-Mar-2025 
 ******************************************
 -------------------------------------
 #p UFF GEOM=READALLGIC OUTPUT=PICKETT
 -------------------------------------
 1/18=20,37=210000000,38=1,56=1,64=2,145=602,172=1/1;
 2/12=2/2;
 3/5=30,11=9,25=1,30=1,41=10020000,43=2/1;
 4/20=10,24=3/2;
 99/5=1,9=1,10=1024/99;
 Leave Link    1 at Fri Mar 14 14:15:04 2025, MaxMem=           0 cpu:               0.0 elap:               0.0
 (Enter /home/enzo/gaussian_versions/gdv.j21/gdv/l101.exe)
 ------------------
 individuo_8596.xyz
 ------------------
 Symbolic Z-matrix:
 Charge =     0 Multiplicity =     1
 6                    -2.97494   1.341     0.09337 
 6                    -1.94683   0.29169   0.49872 
 16                   -2.50831  -1.35898  -0.01813 
 6                    -0.61059   0.59836  -0.11347 
 8                    -0.31403   1.78853  -0.39893 
 7                     0.32835  -0.4535   -0.36035 
 6                     1.63832  -0.18007  -0.94205 
 6                     2.68915  -0.14987   0.11802 
 8                     2.37195   0.07592   1.31358 
 8                     4.02093  -0.34513  -0.22297 
 1                    -3.94878   1.12216   0.57784 
 1                    -2.64092   2.34787   0.41975 
 1                    -3.11694   1.34667  -1.00756 
 1                    -1.86514   0.29137   1.6058 
 1                    -3.86532  -1.03775   0.16241 
 1                     0.06285  -1.43386  -0.11564 
 1                     1.88536  -0.96565  -1.68687 
 1                     1.6159    0.80122  -1.46014 
 1                     4.75443   0.19192   0.22157 
 
 Initializing the GIC definitions file.

 CrInp1: Reading the GIC input below.
 Dihed1 = D( 15, 3, 2, 14)
 Dihed2 = D( 3, 2, 4, 5)
 Dihed3 = D( 4, 6, 7, 8)
 Dihed4 = D( 6, 7, 8, 9)
 Dihed5 = D( 9, 8, 10, 19)
 
 Warning:  Number of GICs=     5 3N-6=    51.
 ITRead=  0  0  0  0  0  0  0  0  0  0  0  0  0  0  0  0  0  0  0
 MicOpt= -1 -1 -1 -1 -1 -1 -1 -1 -1 -1 -1 -1 -1 -1 -1 -1 -1 -1 -1
                           ----------------------------
                           !    Current Parameters    !
                           ! (Angstroms and Degrees)  !
 --------------------------                            --------------------------
 ! Name   Definition             Value                                          !
 --------------------------------------------------------------------------------
 ! Dihed1 D(15,3,2,14)          85.5655                                         !
 ! Dihed2 D(3,2,4,5)           148.5185                                         !
 ! Dihed3 D(4,6,7,8)           100.1621                                         !
 ! Dihed4 D(6,7,8,9)           -22.4026                                         !
 ! Dihed5 D(9,8,10,19)         -37.8473                                         !
 --------------------------------------------------------------------------------
 NAtoms=     19 NQM=       19 NQMF=       0 NMMI=      0 NMMIF=      0
                NMic=       0 NMicF=      0.
                    Isotopes and Nuclear Properties:
 (Nuclear quadrupole moments (NQMom) in fm**2, nuclear magnetic moments (NMagM)
  in nuclear magnetons)

  Atom         1           2           3           4           5           6           7           8           9          10
 IAtWgt=          12          12          32          12          16          14          12          12          16          16
 AtmWgt=  12.0000000  12.0000000  31.9720718  12.0000000  15.9949146  14.0030740  12.0000000  12.0000000  15.9949146  15.9949146
 NucSpn=           0           0           0           0           0           2           0           0           0           0
 AtZEff=  -0.0000000  -0.0000000  -0.0000000  -0.0000000  -0.0000000  -0.0000000  -0.0000000  -0.0000000  -0.0000000  -0.0000000
 NQMom=    0.0000000   0.0000000   0.0000000   0.0000000   0.0000000   2.0440000   0.0000000   0.0000000   0.0000000   0.0000000
 NMagM=    0.0000000   0.0000000   0.0000000   0.0000000   0.0000000   0.4037610   0.0000000   0.0000000   0.0000000   0.0000000
 AtZNuc=   6.0000000   6.0000000  16.0000000   6.0000000   8.0000000   7.0000000   6.0000000   6.0000000   8.0000000   8.0000000

  Atom        11          12          13          14          15          16          17          18          19
 IAtWgt=           1           1           1           1           1           1           1           1           1
 AtmWgt=   1.0078250   1.0078250   1.0078250   1.0078250   1.0078250   1.0078250   1.0078250   1.0078250   1.0078250
 NucSpn=           1           1           1           1           1           1           1           1           1
 AtZEff=  -0.0000000  -0.0000000  -0.0000000  -0.0000000  -0.0000000  -0.0000000  -0.0000000  -0.0000000  -0.0000000
 NQMom=    0.0000000   0.0000000   0.0000000   0.0000000   0.0000000   0.0000000   0.0000000   0.0000000   0.0000000
 NMagM=    2.7928460   2.7928460   2.7928460   2.7928460   2.7928460   2.7928460   2.7928460   2.7928460   2.7928460
 AtZNuc=   1.0000000   1.0000000   1.0000000   1.0000000   1.0000000   1.0000000   1.0000000   1.0000000   1.0000000
 Generating MM parameters.
 Include all MM classes

 MM sanity checks:
 All charges sum to:                0.00000000
 Charges of atoms sum to:           0.00000000
 MMInit generated parameter data with length LenPar=        2803.
 Leave Link  101 at Fri Mar 14 14:15:04 2025, MaxMem=   104857600 cpu:               0.1 elap:               0.1
 (Enter /home/enzo/gaussian_versions/gdv.j21/gdv/l202.exe)
                          Input orientation:                          
 ---------------------------------------------------------------------
 Center     Atomic      Atomic             Coordinates (Angstroms)
 Number     Number       Type             X           Y           Z
 ---------------------------------------------------------------------
      1          6    10061003       -2.974942    1.341000    0.093374
      2          6    10061003       -1.946833    0.291690    0.498720
      3         16    10161003       -2.508306   -1.358977   -0.018129
      4          6    10061002       -0.610587    0.598362   -0.113474
      5          8    10081002       -0.314029    1.788532   -0.398929
      6          7    10071000        0.328354   -0.453496   -0.360350
      7          6    10061003        1.638322   -0.180070   -0.942046
      8          6    10061000        2.689154   -0.149870    0.118020
      9          8    10081002        2.371951    0.075921    1.313576
     10          8    10081000        4.020927   -0.345125   -0.222967
     11          1    10011000       -3.948782    1.122155    0.577843
     12          1    10011000       -2.640922    2.347871    0.419747
     13          1    10011000       -3.116936    1.346665   -1.007562
     14          1    10011000       -1.865135    0.291366    1.605799
     15          1    10011000       -3.865317   -1.037751    0.162408
     16          1    10011000        0.062846   -1.433855   -0.115637
     17          1    10011000        1.885360   -0.965647   -1.686870
     18          1    10011000        1.615903    0.801224   -1.460135
     19          1    10011000        4.754430    0.191924    0.221570
 ---------------------------------------------------------------------
                    Distance matrix (angstroms):
                    1          2          3          4          5
     1  C    0.000000
     2  C    1.523931   0.000000
     3  S    2.742272   1.818540   0.000000
     4  C    2.486860   1.501460   2.727930   0.000000
     5  O    2.742828   2.390054   3.855732   1.259339   0.000000
     6  N    3.786535   2.543576   2.997274   1.431420   2.332559
     7  C    4.966684   3.892519   4.408851   2.519936   2.825251
     8  C    5.857071   4.672503   5.337983   3.391420   3.611613
     9  O    5.628373   4.400277   5.258258   3.347379   3.616656
    10  O    7.203143   6.044876   6.610653   4.727904   4.834801
    11  H    1.109490   2.168809   2.930217   3.449032   3.822247
    12  H    1.109900   2.171607   3.734976   2.732648   2.529332
    13  H    1.110070   2.179679   2.944471   2.764260   2.902063
    14  H    2.149612   1.110089   2.403007   2.150357   2.943870
    15  H    2.540864   2.358198   1.406150   3.653251   4.573251
    16  H    4.119668   2.719145   2.574090   2.140893   3.256696
    17  H    5.666783   4.587309   4.716323   3.339379   3.752547
    18  H    4.876536   4.097539   4.873905   2.609963   2.413622
    19  H    7.815370   6.707734   7.430349   5.390812   5.350089
                    6          7          8          9         10
     6  N    0.000000
     7  C    1.459160   0.000000
     8  C    2.427839   1.492950   0.000000
     9  O    2.694179   2.385702   1.257360   0.000000
    10  O    3.696717   2.494218   1.388530   2.292895   0.000000
    11  H    4.653684   5.934777   6.774340   6.448843   8.143124
    12  H    4.156057   5.153338   5.894019   5.575803   7.214260
    13  H    3.940747   4.994766   6.100593   6.093468   7.377454
    14  H    3.038413   4.357520   4.811416   4.252612   6.196389
    15  H    4.266322   5.678510   6.614484   6.439640   7.925976
    16  H    1.044741   2.176477   2.932696   3.107095   4.106490
    17  H    2.108607   1.110370   2.137570   3.213147   2.662462
    18  H    2.107518   1.109890   2.132374   2.964987   2.937489
    19  H    4.510582   3.347015   2.095927   2.623383   1.011959
                   11         12         13         14         15
    11  H    0.000000
    12  H    1.799409   0.000000
    13  H    1.804406   1.807267   0.000000
    14  H    2.467486   2.497554   3.083880   0.000000
    15  H    2.201079   3.609405   2.759410   2.801902   0.000000
    16  H    4.807001   4.679578   4.317156   3.107546   3.957862
    17  H    6.597352   5.992033   5.552586   5.146646   6.041135
    18  H    5.934818   4.903737   4.785613   4.666640   6.004852
    19  H    8.760032   7.705752   8.050006   6.763477   8.707218
                   16         17         18         19
    16  H    0.000000
    17  H    2.451438   0.000000
    18  H    3.035661   1.801624   0.000000
    19  H    4.976728   3.635062   3.612441   0.000000
 Stoichiometry    C5H9NO3S
 Framework group  C1[X(C5H9NO3S)]
 Deg. of freedom    51
 Full point group                 C1      NOp   1
 Largest Abelian subgroup         C1      NOp   1
 Largest concise Abelian subgroup C1      NOp   1
                         Standard orientation:                         
 ---------------------------------------------------------------------
 Center     Atomic      Atomic             Coordinates (Angstroms)
 Number     Number       Type             X           Y           Z
 ---------------------------------------------------------------------
      1          6    10061003       -2.951684    1.287689    0.059924
      2          6    10061003       -1.913528    0.256642    0.485998
      3         16    10161003       -2.448455   -1.406901   -0.017555
      4          6    10061002       -0.575954    0.574344   -0.117611
      5          8    10081002       -0.292559    1.765160   -0.413552
      6          7    10071000        0.378989   -0.467570   -0.344460
      7          6    10061003        1.690451   -0.183125   -0.917441
      8          6    10061000        2.731143   -0.127359    0.151554
      9          8    10081002        2.400166    0.107256    1.341665
     10          8    10081000        4.068413   -0.308602   -0.175365
     11          1    10011000       -3.926901    1.061224    0.538081
     12          1    10011000       -2.633956    2.302423    0.378110
     13          1    10011000       -3.083758    1.279424   -1.042230
     14          1    10011000       -1.841869    0.269513    1.593697
     15          1    10011000       -3.811169   -1.101796    0.147313
     16          1    10011000        0.124239   -1.448639   -0.091300
     17          1    10011000        1.954577   -0.973446   -1.651301
     18          1    10011000        1.659776    0.792059   -1.446527
     19          1    10011000        4.790704    0.242984    0.269729
 ---------------------------------------------------------------------
 Rotational constants (GHZ):           2.3812283           0.5241696           0.4748711
 Leave Link  202 at Fri Mar 14 14:15:04 2025, MaxMem=   104857600 cpu:               0.0 elap:               0.0
 (Enter /home/enzo/gaussian_versions/gdv.j21/gdv/l301.exe)
 Standard basis: Dummy (5D, 7F)
 There are    19 symmetry adapted cartesian basis functions of A   symmetry.
 There are    19 symmetry adapted basis functions of A   symmetry.
    19 basis functions,    19 primitive gaussians,    19 cartesian basis functions
    14 alpha electrons       14 beta electrons
       nuclear repulsion energy        67.9387874177 Hartrees.
 IExCor=         0 DFT=F Ex=HF Corr=None N6=None ScaHFX=  1.000000
 ScaDFX=  1.000000  1.000000  1.000000  1.000000  1.000000  0.000000
 ScaDFX=  0.000000  0.000000  0.000000  0.000000  0.000000  0.000000
 IRadAn=      5 IRanWt=     -1 IRanGd=            0 ICorTp=0 IEmpDi=  4
 NAtoms=   19 NActive=   19 NUniq=   19 SFac= 1.00D+00 NAtFMM=   60 NAOKFM=F Big=F
 Integral buffers will be    131072 words long.
 Raffenetti 1 integral format.
 Two-electron integral symmetry is turned on.
 Leave Link  301 at Fri Mar 14 14:15:04 2025, MaxMem=   104857600 cpu:               0.0 elap:               0.0
 (Enter /home/enzo/gaussian_versions/gdv.j21/gdv/l402.exe)
 UFF calculation of energy.
 Energy per function type:
 Direct Coulomb + vdW (small)                           0.030740075
 Direct Coulomb (large)                                 0.000000000
 Direct vdW (large)                                   682.407726804
 Non-direct Coulomb + vdW (small)                      -0.014071867
 Non-direct Coulomb (large)                             0.000000000
 Non-direct vdW (large)                              -682.407726804
 Harmonic stretch III                                   0.010506222
 UFF 3-term bend                                        0.004904377
 UFF 2-term bend                                        0.000135026
 UFF torsion fixed V                                    0.003846693
 UFF torsion w/ bond order V                            0.016636983
 UFF torsion w/ sp3 V                                   0.000654678
 Three term Wilson angle                                0.000018417
 Energy per function class:
        Coulomb               0.000000000
    Vanderwaals               0.016668208
     Stretching               0.010506222
        Bending               0.005039403
        Torsion               0.021138355
   Out-of-plane               0.000018417
 Energy=    5.337060523E-02 NIter=   0.
 Dipole moment=       0.000000       0.000000       0.000000
 Leave Link  402 at Fri Mar 14 14:15:04 2025, MaxMem=   104857600 cpu:               0.0 elap:               0.0
 (Enter /home/enzo/gaussian_versions/gdv.j21/gdv/l9999.exe)
 Unable to Open any file for archive entry.
 1\1\GINC-ORACLE\SP\UFF\ZDO\C5H9N1O3S1\ENZO\14-Mar-2025\0\\#p UFF GEOM=
 READALLGIC OUTPUT=PICKETT\\individuo_8596.xyz\\0,1\C,0,-2.974942,1.341
 ,0.093374\C,0,-1.946833,0.29169,0.49872\S,0,-2.508306,-1.358977,-0.018
 129\C,0,-0.610587,0.598362,-0.113474\O,0,-0.314029,1.788532,-0.398929\
 N,0,0.328354,-0.453496,-0.36035\C,0,1.638322,-0.18007,-0.942046\C,0,2.
 689154,-0.14987,0.11802\O,0,2.371951,0.075921,1.313576\O,0,4.020927,-0
 .345125,-0.222967\H,0,-3.948782,1.122155,0.577843\H,0,-2.640922,2.3478
 71,0.419747\H,0,-3.116936,1.346665,-1.007562\H,0,-1.865135,0.291366,1.
 605799\H,0,-3.865317,-1.037751,0.162408\H,0,0.062846,-1.433855,-0.1156
 37\H,0,1.88536,-0.965647,-1.68687\H,0,1.615903,0.801224,-1.460135\H,0,
 4.75443,0.191924,0.22157\\Version=ES64L-GDVRevJ.21\HF=0.0533706\RMSD=0
 .000e+00\Dipole=0.,0.,0.\PG=C01 [X(C5H9N1O3S1)]\\@
 The archive entry for this job was punched.
 DoSRE=F DoSRN=F DoDH=F DoFC=F DoNQ=F DoQCD=F DoSCD=F
 Inertia tensor (amu-bohr**2): 
                 1             2             3 
      1   0.757903D+03  0.621787D-04 -0.263194D-04
      2   0.621787D-04  0.344305D+04 -0.399617D-04
      3  -0.263194D-04 -0.399617D-04  0.380049D+04
 Principal inertia moments (amu-bohr**2):
 Iaa = 0.757903D+03 Ibb= 0.344305D+04 Icc= 0.380049D+04
 Rotation matrix to Principal Axis frame: 
                 1             2             3 
      1   0.100000D+01  0.000000D+00  0.000000D+00
      2   0.000000D+00  0.100000D+01  0.000000D+00
      3   0.000000D+00  0.000000D+00  0.100000D+01
                Principal axis orientation:                
 ---------------------------------------------------------------------
 Center     Atomic                     Coordinates (Angstroms)
 Number     Number                        X           Y           Z
 ---------------------------------------------------------------------
      1          6                   -2.974942    1.341000    0.093374
      2          6                   -1.946833    0.291690    0.498720
      3         16                   -2.508306   -1.358977   -0.018129
      4          6                   -0.610587    0.598362   -0.113474
      5          8                   -0.314029    1.788532   -0.398929
      6          7                    0.328354   -0.453496   -0.360350
      7          6                    1.638322   -0.180070   -0.942046
      8          6                    2.689154   -0.149870    0.118020
      9          8                    2.371951    0.075921    1.313576
     10          8                    4.020927   -0.345125   -0.222967
     11          1                   -3.948782    1.122155    0.577843
     12          1                   -2.640922    2.347871    0.419747
     13          1                   -3.116936    1.346665   -1.007562
     14          1                   -1.865135    0.291366    1.605799
     15          1                   -3.865317   -1.037751    0.162408
     16          1                    0.062846   -1.433855   -0.115637
     17          1                    1.885360   -0.965647   -1.686870
     18          1                    1.615903    0.801224   -1.460135
     19          1                    4.754430    0.191924    0.221570
 ---------------------------------------------------------------------
 Rotational constants (MHZ):
   2381.2283462    524.1696245    474.8710770
 Dipole moment (Debye):
      0.0000000      0.0000000      0.0000000  Tot=      0.0000000

 Atoms with significant hyperfine tensors: 

--------------------------------------------------------------------------------
 individuo_8596.xyz                                      
   99  1000  50  0.1760E-11  0.1000E+07  0.1000E+01 1.0000000000
a   1  0  0  0  1  1   1  0  1  0
     10000   0.23812283E+04    0.0000E+00   /  A  /
     20000   0.52416962E+03    0.0000E+00   /  B  /
     30000   0.47487108E+03    0.0000E+00   /  C  /
--------------------------------------------------------------------------------



 PENOTUS DIED A HUNDRED YEARS OLD WANTING BUT TWO...
 AND HE USED TO SAY BEFORE HE DIED, HAVING SPENT HIS
 WHOLE LIFE IN VAINLY SEARCHING AFTER THE PHILOSOPHER'S
 STONE, THAT IF HE HAD A MORTAL ENEMY HE DID NOT DARE
 TO ENCOUNTER OPENLY, HE WOULD ADVISE HIM ABOVE ALL
 THINGS TO GIVE HIMSELF UP TO THE STUDY AND PRACTICE
 OF ALCHEMY.  --  NICOLAS LEMERY, M.D.
 "A COURSE OF CHYMISTRY", WALTER KETTILBY, LONDON, 1686
 Job cpu time:       0 days  0 hours  0 minutes  0.2 seconds.
 Elapsed time:       0 days  0 hours  0 minutes  0.2 seconds.
 File lengths (MBytes):  RWF=     14 Int=      0 D2E=      0 Chk=      9 Scr=      1
 Normal termination of Gaussian DV at Fri Mar 14 14:15:04 2025.
