 Entering Gaussian System, Link 0=gdv
 Input=../generations_tiopronin/population_49/temp_processing/individuo_4935.gjf
 Output=../generations_tiopronin/population_49/temp_processing/individuo_4935.log
 Initial command:
 /home/enzo/gaussian_versions/gdv.j21/gdv/l1.exe "/local/home/enzo/scratch/Gau-2270773.inp" -scrdir="/local/home/enzo/scratch/"
 Entering Link 1 = /home/enzo/gaussian_versions/gdv.j21/gdv/l1.exe PID=   2270774.
  
 Copyright (c) 1988-2022, Gaussian, Inc.  All Rights Reserved.
  
 This is the private, development version of
 the Gaussian(R) DV system of programs. It is based on
 the Gaussian(R) 16 system (copyright 2016, Gaussian, Inc.),
 the Gaussian(R) 09 system (copyright 2009, Gaussian, Inc.),
 the Gaussian(R) 03 system (copyright 2003, Gaussian, Inc.),
 the Gaussian(R) 98 system (copyright 1998, Gaussian, Inc.),
 the Gaussian(R) 94 system (copyright 1995, Gaussian, Inc.),
 the Gaussian 92(TM) system (copyright 1992, Gaussian, Inc.),
 the Gaussian 90(TM) system (copyright 1990, Gaussian, Inc.),
 the Gaussian 88(TM) system (copyright 1988, Gaussian, Inc.),
 the Gaussian 86(TM) system (copyright 1986, Carnegie Mellon
 University), and the Gaussian 82(TM) system (copyright 1983,
 Carnegie Mellon University). Gaussian is a federally registered
 trademark of Gaussian, Inc.
  
 This software contains proprietary and confidential information,
 including trade secrets, belonging to Gaussian, Inc.
  
 This software is provided under written license and may be
 used, copied, transmitted, or stored only in accord with that
 written license.
  
 The following legend is applicable only to US Government
 contracts under FAR:
  
                    RESTRICTED RIGHTS LEGEND
  
 Use, reproduction and disclosure by the US Government is
 subject to restrictions as set forth in subparagraphs (a)
 and (c) of the Commercial Computer Software - Restricted
 Rights clause in FAR 52.227-19.
  
 Gaussian, Inc.
 340 Quinnipiac St., Bldg. 40, Wallingford CT 06492
  
  
 ---------------------------------------------------------------
 Warning -- This program may not be used in any manner that
 competes with the business of Gaussian, Inc. or will provide
 assistance to any competitor of Gaussian, Inc.  The licensee
 of this program is prohibited from giving any competitor of
 Gaussian, Inc. access to this program.  By using this program,
 the user acknowledges that Gaussian, Inc. is engaged in the
 business of creating and licensing software in the field of
 computational chemistry and represents and warrants to the
 licensee that it is not a competitor of Gaussian, Inc. and that
 it will not use this program in any manner prohibited above.
 ---------------------------------------------------------------
  

 Cite this work as:
 Gaussian Development Version, Revision J.21,
 M. J. Frisch, G. W. Trucks, H. B. Schlegel, G. E. Scuseria, 
 M. A. Robb, J. R. Cheeseman, G. Scalmani, V. Barone, 
 G. A. Petersson, H. Nakatsuji, X. Li, A. V. Marenich, M. Caricato, 
 J. Bloino, B. G. Janesko, J. Zheng, R. Gomperts, B. Mennucci, 
 H. P. Hratchian, J. V. Ortiz, A. F. Izmaylov, J. L. Sonnenberg, 
 D. Williams-Young, F. Ding, F. Lipparini, F. Egidi, J. Goings, 
 B. Peng, A. Petrone, T. Henderson, D. Ranasinghe, V. G. Zakrzewski, 
 J. Gao, N. Rega, G. Zheng, W. Liang, M. Hada, M. Ehara, K. Toyota, 
 R. Fukuda, J. Hasegawa, M. Ishida, T. Nakajima, Y. Honda, O. Kitao, 
 H. Nakai, T. Vreven, K. Throssell, J. A. Montgomery, Jr., 
 J. E. Peralta, F. Ogliaro, M. J. Bearpark, J. J. Heyd, 
 E. N. Brothers, K. N. Kudin, V. N. Staroverov, T. A. Keith, 
 R. Kobayashi, J. Normand, K. Raghavachari, A. P. Rendell, 
 J. C. Burant, S. S. Iyengar, J. Tomasi, M. Cossi, J. M. Millam, 
 M. Klene, C. Adamo, R. Cammi, J. W. Ochterski, R. L. Martin, 
 K. Morokuma, O. Farkas, J. B. Foresman, and D. J. Fox, 
 Gaussian, Inc., Wallingford CT, 2020.
 
 ******************************************
 Gaussian DV:  ES64L-GDVRevJ.21 25-Jul-2022
                14-Mar-2025 
 ******************************************
 -------------------------------------
 #p UFF GEOM=READALLGIC OUTPUT=PICKETT
 -------------------------------------
 1/18=20,37=210000000,38=1,56=1,64=2,145=602,172=1/1;
 2/12=2/2;
 3/5=30,11=9,25=1,30=1,41=10020000,43=2/1;
 4/20=10,24=3/2;
 99/5=1,9=1,10=1024/99;
 Leave Link    1 at Fri Mar 14 14:14:56 2025, MaxMem=           0 cpu:               0.0 elap:               0.0
 (Enter /home/enzo/gaussian_versions/gdv.j21/gdv/l101.exe)
 ------------------
 individuo_4935.xyz
 ------------------
 Symbolic Z-matrix:
 Charge =     0 Multiplicity =     1
 6                     3.27939   1.01267  -0.2624 
 6                     2.08537   0.10433  -0.52999 
 16                    2.29672  -1.47329   0.34952 
 6                     0.80983   0.76927  -0.0996 
 8                     0.79347   2.0113    0.10783 
 7                    -0.38608  -0.00052   0.0622 
 6                    -1.64134   0.62386   0.46671 
 6                    -2.80628  -0.17901  -0.00996 
 8                    -2.62082  -1.29882  -0.55086 
 8                    -4.09336   0.32524   0.121 
 1                     4.21143   0.52444  -0.61441 
 1                     3.15922   1.97111  -0.80906 
 1                     3.37542   1.22528   0.82288 
 1                     2.04974  -0.11532  -1.61755 
 1                     1.73017  -2.2209   -0.69802 
 1                    -0.35112  -1.02944  -0.11551 
 1                    -1.67561   0.70612   1.5735 
 1                    -1.70264   1.64497   0.03607 
 1                    -4.88987  -0.18618  -0.23689 
 
 Initializing the GIC definitions file.

 CrInp1: Reading the GIC input below.
 Dihed1 = D( 15, 3, 2, 14)
 Dihed2 = D( 3, 2, 4, 5)
 Dihed3 = D( 4, 6, 7, 8)
 Dihed4 = D( 6, 7, 8, 9)
 Dihed5 = D( 9, 8, 10, 19)
 
 Warning:  Number of GICs=     5 3N-6=    51.
 ITRead=  0  0  0  0  0  0  0  0  0  0  0  0  0  0  0  0  0  0  0
 MicOpt= -1 -1 -1 -1 -1 -1 -1 -1 -1 -1 -1 -1 -1 -1 -1 -1 -1 -1 -1
                           ----------------------------
                           !    Current Parameters    !
                           ! (Angstroms and Degrees)  !
 --------------------------                            --------------------------
 ! Name   Definition             Value                                          !
 --------------------------------------------------------------------------------
 ! Dihed1 D(15,3,2,14)         -24.5772                                         !
 ! Dihed2 D(3,2,4,5)           138.0826                                         !
 ! Dihed3 D(4,6,7,8)           154.5363                                         !
 ! Dihed4 D(6,7,8,9)             6.8411                                         !
 ! Dihed5 D(9,8,10,19)          -1.6712                                         !
 --------------------------------------------------------------------------------
 NAtoms=     19 NQM=       19 NQMF=       0 NMMI=      0 NMMIF=      0
                NMic=       0 NMicF=      0.
                    Isotopes and Nuclear Properties:
 (Nuclear quadrupole moments (NQMom) in fm**2, nuclear magnetic moments (NMagM)
  in nuclear magnetons)

  Atom         1           2           3           4           5           6           7           8           9          10
 IAtWgt=          12          12          32          12          16          14          12          12          16          16
 AtmWgt=  12.0000000  12.0000000  31.9720718  12.0000000  15.9949146  14.0030740  12.0000000  12.0000000  15.9949146  15.9949146
 NucSpn=           0           0           0           0           0           2           0           0           0           0
 AtZEff=  -0.0000000  -0.0000000  -0.0000000  -0.0000000  -0.0000000  -0.0000000  -0.0000000  -0.0000000  -0.0000000  -0.0000000
 NQMom=    0.0000000   0.0000000   0.0000000   0.0000000   0.0000000   2.0440000   0.0000000   0.0000000   0.0000000   0.0000000
 NMagM=    0.0000000   0.0000000   0.0000000   0.0000000   0.0000000   0.4037610   0.0000000   0.0000000   0.0000000   0.0000000
 AtZNuc=   6.0000000   6.0000000  16.0000000   6.0000000   8.0000000   7.0000000   6.0000000   6.0000000   8.0000000   8.0000000

  Atom        11          12          13          14          15          16          17          18          19
 IAtWgt=           1           1           1           1           1           1           1           1           1
 AtmWgt=   1.0078250   1.0078250   1.0078250   1.0078250   1.0078250   1.0078250   1.0078250   1.0078250   1.0078250
 NucSpn=           1           1           1           1           1           1           1           1           1
 AtZEff=  -0.0000000  -0.0000000  -0.0000000  -0.0000000  -0.0000000  -0.0000000  -0.0000000  -0.0000000  -0.0000000
 NQMom=    0.0000000   0.0000000   0.0000000   0.0000000   0.0000000   0.0000000   0.0000000   0.0000000   0.0000000
 NMagM=    2.7928460   2.7928460   2.7928460   2.7928460   2.7928460   2.7928460   2.7928460   2.7928460   2.7928460
 AtZNuc=   1.0000000   1.0000000   1.0000000   1.0000000   1.0000000   1.0000000   1.0000000   1.0000000   1.0000000
 Generating MM parameters.
 Include all MM classes

 MM sanity checks:
 All charges sum to:                0.00000000
 Charges of atoms sum to:           0.00000000
 MMInit generated parameter data with length LenPar=        2803.
 Leave Link  101 at Fri Mar 14 14:14:56 2025, MaxMem=   104857600 cpu:               0.1 elap:               0.1
 (Enter /home/enzo/gaussian_versions/gdv.j21/gdv/l202.exe)
                          Input orientation:                          
 ---------------------------------------------------------------------
 Center     Atomic      Atomic             Coordinates (Angstroms)
 Number     Number       Type             X           Y           Z
 ---------------------------------------------------------------------
      1          6    10061003        3.279390    1.012668   -0.262402
      2          6    10061003        2.085373    0.104329   -0.529993
      3         16    10161003        2.296724   -1.473288    0.349521
      4          6    10061002        0.809832    0.769265   -0.099602
      5          8    10081002        0.793468    2.011297    0.107826
      6          7    10071000       -0.386082   -0.000522    0.062202
      7          6    10061003       -1.641337    0.623864    0.466708
      8          6    10061000       -2.806276   -0.179008   -0.009963
      9          8    10081002       -2.620825   -1.298824   -0.550863
     10          8    10081000       -4.093364    0.325243    0.121001
     11          1    10011000        4.211428    0.524442   -0.614409
     12          1    10011000        3.159218    1.971105   -0.809060
     13          1    10011000        3.375416    1.225280    0.822877
     14          1    10011000        2.049740   -0.115322   -1.617551
     15          1    10011000        1.730172   -2.220901   -0.698023
     16          1    10011000       -0.351123   -1.029443   -0.115509
     17          1    10011000       -1.675606    0.706117    1.573496
     18          1    10011000       -1.702637    1.644966    0.036071
     19          1    10011000       -4.889871   -0.186184   -0.236885
 ---------------------------------------------------------------------
                    Distance matrix (angstroms):
                    1          2          3          4          5
     1  C    0.000000
     2  C    1.523930   0.000000
     3  S    2.742273   1.818540   0.000000
     4  C    2.486859   1.501460   2.727930   0.000000
     5  O    2.704466   2.390054   3.802700   1.259340   0.000000
     6  N    3.816753   2.543576   3.073929   1.431420   2.332560
     7  C    4.989622   3.892518   4.463194   2.519936   2.825251
     8  C    6.206380   4.927367   5.276836   3.739451   4.215385
     9  O    6.343401   4.910965   5.002341   4.031133   4.800851
    10  O    7.414651   6.216863   6.642301   4.928200   5.169534
    11  H    1.109490   2.168809   2.930218   3.449032   3.796684
    12  H    1.109900   2.171606   3.734976   2.732648   2.537532
    13  H    1.110070   2.179679   2.944471   2.764261   2.792056
    14  H    2.149611   1.110089   2.403007   2.150357   3.012914
    15  H    3.611898   2.358198   1.406149   3.185314   4.408890
    16  H    4.168023   2.719145   2.724765   2.140892   3.256696
    17  H    5.293060   4.351066   4.693328   2.996773   3.154047
    18  H    5.030853   4.128318   5.081008   2.664162   2.523864
    19  H    8.256799   6.987442   7.324456   5.780860   6.103121
                    6          7          8          9         10
     6  N    0.000000
     7  C    1.459160   0.000000
     8  C    2.427839   1.492951   0.000000
     9  O    2.656222   2.385703   1.257359   0.000000
    10  O    3.722032   2.494218   1.388530   2.292895   0.000000
    11  H    4.676589   5.952609   7.078726   7.071635   8.339669
    12  H    4.149164   5.146647   6.391296   6.645901   7.494920
    13  H    4.028658   5.065212   6.393666   6.649298   7.555486
    14  H    2.961077   4.302857   5.115592   4.934843   6.399561
    15  H    3.160151   4.562495   5.022162   4.450063   6.408371
    16  H    1.044740   2.176477   2.600415   2.326724   3.986913
    17  H    2.108606   1.110369   2.137569   3.070200   2.846113
    18  H    2.107518   1.109890   2.132374   3.139022   2.732116
    19  H    4.517526   3.421139   2.095928   2.546590   1.011960
                   11         12         13         14         15
    11  H    0.000000
    12  H    1.799408   0.000000
    13  H    1.804406   1.807267   0.000000
    14  H    2.467486   2.497554   3.083881   0.000000
    15  H    3.701423   4.430284   4.110490   2.319724   0.000000
    16  H    4.845651   4.669775   4.455495   2.975885   2.467931
    17  H    6.283081   5.536451   5.132814   4.973504   5.032550
    18  H    6.054326   4.945528   5.155756   4.462445   5.221877
    19  H    9.136802   8.352791   8.451645   7.075978   6.941015
                   16         17         18         19
    16  H    0.000000
    17  H    2.760283   0.000000
    18  H    3.000338   1.801623   0.000000
    19  H    4.618014   3.795416   3.685929   0.000000
 Stoichiometry    C5H9NO3S
 Framework group  C1[X(C5H9NO3S)]
 Deg. of freedom    51
 Full point group                 C1      NOp   1
 Largest Abelian subgroup         C1      NOp   1
 Largest concise Abelian subgroup C1      NOp   1
                         Standard orientation:                         
 ---------------------------------------------------------------------
 Center     Atomic      Atomic             Coordinates (Angstroms)
 Number     Number       Type             X           Y           Z
 ---------------------------------------------------------------------
      1          6    10061003       -3.253865    0.973288    0.237602
      2          6    10061003       -2.055892    0.069933    0.504379
      3         16    10161003       -2.249141   -1.498517   -0.395461
      4          6    10061002       -0.781435    0.748549    0.092530
      5          8    10081002       -0.771884    1.993040   -0.100053
      6          7    10071000        0.421029   -0.011153   -0.068389
      7          6    10061003        1.675266    0.626473   -0.455004
      8          6    10061000        2.841713   -0.174107    0.021835
      9          8    10081002        2.659493   -1.301500    0.547891
     10          8    10081000        4.126347    0.340360   -0.092421
     11          1    10011000       -4.185405    0.474620    0.576028
     12          1    10011000       -3.144792    1.925954    0.796538
     13          1    10011000       -3.342384    1.198126   -0.845850
     14          1    10011000       -2.027733   -0.162379    1.589522
     15          1    10011000       -1.686140   -2.254674    0.647857
     16          1    10011000        0.391667   -1.042326    0.096845
     17          1    10011000        1.718107    0.722100   -1.560418
     18          1    10011000        1.725999    1.642777   -0.011827
     19          1    10011000        4.923364   -0.169883    0.266020
 ---------------------------------------------------------------------
 Rotational constants (GHZ):           2.2364423           0.5184231           0.4380698
 Leave Link  202 at Fri Mar 14 14:14:56 2025, MaxMem=   104857600 cpu:               0.0 elap:               0.0
 (Enter /home/enzo/gaussian_versions/gdv.j21/gdv/l301.exe)
 Standard basis: Dummy (5D, 7F)
 There are    19 symmetry adapted cartesian basis functions of A   symmetry.
 There are    19 symmetry adapted basis functions of A   symmetry.
    19 basis functions,    19 primitive gaussians,    19 cartesian basis functions
    14 alpha electrons       14 beta electrons
       nuclear repulsion energy        67.5273539950 Hartrees.
 IExCor=         0 DFT=F Ex=HF Corr=None N6=None ScaHFX=  1.000000
 ScaDFX=  1.000000  1.000000  1.000000  1.000000  1.000000  0.000000
 ScaDFX=  0.000000  0.000000  0.000000  0.000000  0.000000  0.000000
 IRadAn=      5 IRanWt=     -1 IRanGd=            0 ICorTp=0 IEmpDi=  4
 NAtoms=   19 NActive=   19 NUniq=   19 SFac= 1.00D+00 NAtFMM=   60 NAOKFM=F Big=F
 Integral buffers will be    131072 words long.
 Raffenetti 1 integral format.
 Two-electron integral symmetry is turned on.
 Leave Link  301 at Fri Mar 14 14:14:56 2025, MaxMem=   104857600 cpu:               0.0 elap:               0.0
 (Enter /home/enzo/gaussian_versions/gdv.j21/gdv/l402.exe)
 UFF calculation of energy.
 Energy per function type:
 Direct Coulomb + vdW (small)                           0.029222146
 Direct Coulomb (large)                                 0.000000000
 Direct vdW (large)                                   682.407839069
 Non-direct Coulomb + vdW (small)                      -0.014071870
 Non-direct Coulomb (large)                             0.000000000
 Non-direct vdW (large)                              -682.407839069
 Harmonic stretch III                                   0.010506262
 UFF 3-term bend                                        0.004904368
 UFF 2-term bend                                        0.000135027
 UFF torsion fixed V                                    0.002913003
 UFF torsion w/ bond order V                            0.000076224
 UFF torsion w/ sp3 V                                   0.001065249
 Three term Wilson angle                                0.000018416
 Energy per function class:
        Coulomb               0.000000000
    Vanderwaals               0.015150276
     Stretching               0.010506262
        Bending               0.005039395
        Torsion               0.004054476
   Out-of-plane               0.000018416
 Energy=    3.476882410E-02 NIter=   0.
 Dipole moment=       0.000000       0.000000       0.000000
 Leave Link  402 at Fri Mar 14 14:14:56 2025, MaxMem=   104857600 cpu:               0.0 elap:               0.0
 (Enter /home/enzo/gaussian_versions/gdv.j21/gdv/l9999.exe)
 Unable to Open any file for archive entry.
 1\1\GINC-ORACLE\SP\UFF\ZDO\C5H9N1O3S1\ENZO\14-Mar-2025\0\\#p UFF GEOM=
 READALLGIC OUTPUT=PICKETT\\individuo_4935.xyz\\0,1\C,0,3.27939,1.01266
 8,-0.262402\C,0,2.085373,0.104329,-0.529993\S,0,2.296724,-1.473288,0.3
 49521\C,0,0.809832,0.769265,-0.099602\O,0,0.793468,2.011297,0.107826\N
 ,0,-0.386082,-0.000522,0.062202\C,0,-1.641337,0.623864,0.466708\C,0,-2
 .806276,-0.179008,-0.009963\O,0,-2.620825,-1.298824,-0.550863\O,0,-4.0
 93364,0.325243,0.121001\H,0,4.211428,0.524442,-0.614409\H,0,3.159218,1
 .971105,-0.80906\H,0,3.375416,1.22528,0.822877\H,0,2.04974,-0.115322,-
 1.617551\H,0,1.730172,-2.220901,-0.698023\H,0,-0.351123,-1.029443,-0.1
 15509\H,0,-1.675606,0.706117,1.573496\H,0,-1.702637,1.644966,0.036071\
 H,0,-4.889871,-0.186184,-0.236885\\Version=ES64L-GDVRevJ.21\HF=0.03476
 88\RMSD=0.000e+00\Dipole=0.,0.,0.\PG=C01 [X(C5H9N1O3S1)]\\@
 The archive entry for this job was punched.
 DoSRE=F DoSRN=F DoDH=F DoFC=F DoNQ=F DoQCD=F DoSCD=F
 Inertia tensor (amu-bohr**2): 
                 1             2             3 
      1   0.806970D+03 -0.300843D-05  0.106312D-03
      2  -0.300843D-05  0.348121D+04  0.350406D-05
      3   0.106312D-03  0.350406D-05  0.411976D+04
 Principal inertia moments (amu-bohr**2):
 Iaa = 0.806970D+03 Ibb= 0.348121D+04 Icc= 0.411976D+04
 Rotation matrix to Principal Axis frame: 
                 1             2             3 
      1   0.100000D+01  0.000000D+00  0.000000D+00
      2   0.000000D+00  0.100000D+01  0.000000D+00
      3   0.000000D+00  0.000000D+00  0.100000D+01
                Principal axis orientation:                
 ---------------------------------------------------------------------
 Center     Atomic                     Coordinates (Angstroms)
 Number     Number                        X           Y           Z
 ---------------------------------------------------------------------
      1          6                    3.279390    1.012668   -0.262402
      2          6                    2.085373    0.104329   -0.529993
      3         16                    2.296724   -1.473288    0.349521
      4          6                    0.809832    0.769265   -0.099602
      5          8                    0.793468    2.011297    0.107826
      6          7                   -0.386082   -0.000522    0.062202
      7          6                   -1.641337    0.623864    0.466708
      8          6                   -2.806276   -0.179008   -0.009963
      9          8                   -2.620825   -1.298824   -0.550863
     10          8                   -4.093364    0.325243    0.121001
     11          1                    4.211428    0.524442   -0.614409
     12          1                    3.159218    1.971105   -0.809060
     13          1                    3.375416    1.225280    0.822877
     14          1                    2.049740   -0.115322   -1.617551
     15          1                    1.730172   -2.220901   -0.698023
     16          1                   -0.351123   -1.029443   -0.115509
     17          1                   -1.675606    0.706117    1.573496
     18          1                   -1.702637    1.644966    0.036071
     19          1                   -4.889871   -0.186184   -0.236885
 ---------------------------------------------------------------------
 Rotational constants (MHZ):
   2236.4423177    518.4230702    438.0698049
 Dipole moment (Debye):
      0.0000000      0.0000000      0.0000000  Tot=      0.0000000

 Atoms with significant hyperfine tensors: 

--------------------------------------------------------------------------------
 individuo_4935.xyz                                      
   99  1000  50  0.1760E-11  0.1000E+07  0.1000E+01 1.0000000000
a   1  0  0  0  1  1   1  0  1  0
     10000   0.22364423E+04    0.0000E+00   /  A  /
     20000   0.51842307E+03    0.0000E+00   /  B  /
     30000   0.43806980E+03    0.0000E+00   /  C  /
--------------------------------------------------------------------------------



 THE LENGTH OF A MEETING IS PROPORTIONAL TO THE
 SQUARE OF THE PARTICIPANTS.
 Job cpu time:       0 days  0 hours  0 minutes  0.2 seconds.
 Elapsed time:       0 days  0 hours  0 minutes  0.2 seconds.
 File lengths (MBytes):  RWF=     14 Int=      0 D2E=      0 Chk=      9 Scr=      1
 Normal termination of Gaussian DV at Fri Mar 14 14:14:56 2025.
