 Entering Gaussian System, Link 0=gdv
 Input=../generations_tiopronin/population_49/temp_processing/individuo_5007.gjf
 Output=../generations_tiopronin/population_49/temp_processing/individuo_5007.log
 Initial command:
 /home/enzo/gaussian_versions/gdv.j21/gdv/l1.exe "/local/home/enzo/scratch/Gau-2270781.inp" -scrdir="/local/home/enzo/scratch/"
 Entering Link 1 = /home/enzo/gaussian_versions/gdv.j21/gdv/l1.exe PID=   2270782.
  
 Copyright (c) 1988-2022, Gaussian, Inc.  All Rights Reserved.
  
 This is the private, development version of
 the Gaussian(R) DV system of programs. It is based on
 the Gaussian(R) 16 system (copyright 2016, Gaussian, Inc.),
 the Gaussian(R) 09 system (copyright 2009, Gaussian, Inc.),
 the Gaussian(R) 03 system (copyright 2003, Gaussian, Inc.),
 the Gaussian(R) 98 system (copyright 1998, Gaussian, Inc.),
 the Gaussian(R) 94 system (copyright 1995, Gaussian, Inc.),
 the Gaussian 92(TM) system (copyright 1992, Gaussian, Inc.),
 the Gaussian 90(TM) system (copyright 1990, Gaussian, Inc.),
 the Gaussian 88(TM) system (copyright 1988, Gaussian, Inc.),
 the Gaussian 86(TM) system (copyright 1986, Carnegie Mellon
 University), and the Gaussian 82(TM) system (copyright 1983,
 Carnegie Mellon University). Gaussian is a federally registered
 trademark of Gaussian, Inc.
  
 This software contains proprietary and confidential information,
 including trade secrets, belonging to Gaussian, Inc.
  
 This software is provided under written license and may be
 used, copied, transmitted, or stored only in accord with that
 written license.
  
 The following legend is applicable only to US Government
 contracts under FAR:
  
                    RESTRICTED RIGHTS LEGEND
  
 Use, reproduction and disclosure by the US Government is
 subject to restrictions as set forth in subparagraphs (a)
 and (c) of the Commercial Computer Software - Restricted
 Rights clause in FAR 52.227-19.
  
 Gaussian, Inc.
 340 Quinnipiac St., Bldg. 40, Wallingford CT 06492
  
  
 ---------------------------------------------------------------
 Warning -- This program may not be used in any manner that
 competes with the business of Gaussian, Inc. or will provide
 assistance to any competitor of Gaussian, Inc.  The licensee
 of this program is prohibited from giving any competitor of
 Gaussian, Inc. access to this program.  By using this program,
 the user acknowledges that Gaussian, Inc. is engaged in the
 business of creating and licensing software in the field of
 computational chemistry and represents and warrants to the
 licensee that it is not a competitor of Gaussian, Inc. and that
 it will not use this program in any manner prohibited above.
 ---------------------------------------------------------------
  

 Cite this work as:
 Gaussian Development Version, Revision J.21,
 M. J. Frisch, G. W. Trucks, H. B. Schlegel, G. E. Scuseria, 
 M. A. Robb, J. R. Cheeseman, G. Scalmani, V. Barone, 
 G. A. Petersson, H. Nakatsuji, X. Li, A. V. Marenich, M. Caricato, 
 J. Bloino, B. G. Janesko, J. Zheng, R. Gomperts, B. Mennucci, 
 H. P. Hratchian, J. V. Ortiz, A. F. Izmaylov, J. L. Sonnenberg, 
 D. Williams-Young, F. Ding, F. Lipparini, F. Egidi, J. Goings, 
 B. Peng, A. Petrone, T. Henderson, D. Ranasinghe, V. G. Zakrzewski, 
 J. Gao, N. Rega, G. Zheng, W. Liang, M. Hada, M. Ehara, K. Toyota, 
 R. Fukuda, J. Hasegawa, M. Ishida, T. Nakajima, Y. Honda, O. Kitao, 
 H. Nakai, T. Vreven, K. Throssell, J. A. Montgomery, Jr., 
 J. E. Peralta, F. Ogliaro, M. J. Bearpark, J. J. Heyd, 
 E. N. Brothers, K. N. Kudin, V. N. Staroverov, T. A. Keith, 
 R. Kobayashi, J. Normand, K. Raghavachari, A. P. Rendell, 
 J. C. Burant, S. S. Iyengar, J. Tomasi, M. Cossi, J. M. Millam, 
 M. Klene, C. Adamo, R. Cammi, J. W. Ochterski, R. L. Martin, 
 K. Morokuma, O. Farkas, J. B. Foresman, and D. J. Fox, 
 Gaussian, Inc., Wallingford CT, 2020.
 
 ******************************************
 Gaussian DV:  ES64L-GDVRevJ.21 25-Jul-2022
                14-Mar-2025 
 ******************************************
 -------------------------------------
 #p UFF GEOM=READALLGIC OUTPUT=PICKETT
 -------------------------------------
 1/18=20,37=210000000,38=1,56=1,64=2,145=602,172=1/1;
 2/12=2/2;
 3/5=30,11=9,25=1,30=1,41=10020000,43=2/1;
 4/20=10,24=3/2;
 99/5=1,9=1,10=1024/99;
 Leave Link    1 at Fri Mar 14 14:14:56 2025, MaxMem=           0 cpu:               0.0 elap:               0.0
 (Enter /home/enzo/gaussian_versions/gdv.j21/gdv/l101.exe)
 ------------------
 individuo_5007.xyz
 ------------------
 Symbolic Z-matrix:
 Charge =     0 Multiplicity =     1
 6                     3.29785   0.92877  -0.19883 
 6                     2.07587   0.07839  -0.52439 
 16                    2.23709  -1.56036   0.24737 
 6                     0.82179   0.7529   -0.04826 
 8                     0.90278   1.77525   0.68262 
 7                    -0.46051   0.24596  -0.43253 
 6                    -1.69378   0.89091   0.00594 
 6                    -2.83786  -0.06651  -0.05174 
 8                    -3.33448  -0.38896  -1.16095 
 8                    -3.36985  -0.57963   1.12373 
 1                     4.21415   0.43607  -0.58433 
 1                     3.20814   1.92491  -0.68001 
 1                     3.40018   1.06523   0.89806 
 1                     2.03369  -0.06684  -1.62413 
 1                     2.99798  -2.072    -0.81871 
 1                    -0.50557  -0.60292  -1.03986 
 1                    -1.57074   1.25954   1.04608 
 1                    -1.91186   1.75838  -0.65116 
 1                    -4.17327  -1.19461   1.10454 
 
 Initializing the GIC definitions file.

 CrInp1: Reading the GIC input below.
 Dihed1 = D( 15, 3, 2, 14)
 Dihed2 = D( 3, 2, 4, 5)
 Dihed3 = D( 4, 6, 7, 8)
 Dihed4 = D( 6, 7, 8, 9)
 Dihed5 = D( 9, 8, 10, 19)
 
 Warning:  Number of GICs=     5 3N-6=    51.
 ITRead=  0  0  0  0  0  0  0  0  0  0  0  0  0  0  0  0  0  0  0
 MicOpt= -1 -1 -1 -1 -1 -1 -1 -1 -1 -1 -1 -1 -1 -1 -1 -1 -1 -1 -1
                           ----------------------------
                           !    Current Parameters    !
                           ! (Angstroms and Degrees)  !
 --------------------------                            --------------------------
 ! Name   Definition             Value                                          !
 --------------------------------------------------------------------------------
 ! Dihed1 D(15,3,2,14)          33.2887                                         !
 ! Dihed2 D(3,2,4,5)           112.268                                          !
 ! Dihed3 D(4,6,7,8)          -157.9057                                         !
 ! Dihed4 D(6,7,8,9)           -74.1356                                         !
 ! Dihed5 D(9,8,10,19)          -1.6712                                         !
 --------------------------------------------------------------------------------
 NAtoms=     19 NQM=       19 NQMF=       0 NMMI=      0 NMMIF=      0
                NMic=       0 NMicF=      0.
                    Isotopes and Nuclear Properties:
 (Nuclear quadrupole moments (NQMom) in fm**2, nuclear magnetic moments (NMagM)
  in nuclear magnetons)

  Atom         1           2           3           4           5           6           7           8           9          10
 IAtWgt=          12          12          32          12          16          14          12          12          16          16
 AtmWgt=  12.0000000  12.0000000  31.9720718  12.0000000  15.9949146  14.0030740  12.0000000  12.0000000  15.9949146  15.9949146
 NucSpn=           0           0           0           0           0           2           0           0           0           0
 AtZEff=  -0.0000000  -0.0000000  -0.0000000  -0.0000000  -0.0000000  -0.0000000  -0.0000000  -0.0000000  -0.0000000  -0.0000000
 NQMom=    0.0000000   0.0000000   0.0000000   0.0000000   0.0000000   2.0440000   0.0000000   0.0000000   0.0000000   0.0000000
 NMagM=    0.0000000   0.0000000   0.0000000   0.0000000   0.0000000   0.4037610   0.0000000   0.0000000   0.0000000   0.0000000
 AtZNuc=   6.0000000   6.0000000  16.0000000   6.0000000   8.0000000   7.0000000   6.0000000   6.0000000   8.0000000   8.0000000

  Atom        11          12          13          14          15          16          17          18          19
 IAtWgt=           1           1           1           1           1           1           1           1           1
 AtmWgt=   1.0078250   1.0078250   1.0078250   1.0078250   1.0078250   1.0078250   1.0078250   1.0078250   1.0078250
 NucSpn=           1           1           1           1           1           1           1           1           1
 AtZEff=  -0.0000000  -0.0000000  -0.0000000  -0.0000000  -0.0000000  -0.0000000  -0.0000000  -0.0000000  -0.0000000
 NQMom=    0.0000000   0.0000000   0.0000000   0.0000000   0.0000000   0.0000000   0.0000000   0.0000000   0.0000000
 NMagM=    2.7928460   2.7928460   2.7928460   2.7928460   2.7928460   2.7928460   2.7928460   2.7928460   2.7928460
 AtZNuc=   1.0000000   1.0000000   1.0000000   1.0000000   1.0000000   1.0000000   1.0000000   1.0000000   1.0000000
 Generating MM parameters.
 Include all MM classes

 MM sanity checks:
 All charges sum to:                0.00000000
 Charges of atoms sum to:           0.00000000
 MMInit generated parameter data with length LenPar=        2803.
 Leave Link  101 at Fri Mar 14 14:14:57 2025, MaxMem=   104857600 cpu:               0.1 elap:               0.1
 (Enter /home/enzo/gaussian_versions/gdv.j21/gdv/l202.exe)
                          Input orientation:                          
 ---------------------------------------------------------------------
 Center     Atomic      Atomic             Coordinates (Angstroms)
 Number     Number       Type             X           Y           Z
 ---------------------------------------------------------------------
      1          6    10061003        3.297852    0.928771   -0.198827
      2          6    10061003        2.075874    0.078393   -0.524388
      3         16    10161003        2.237087   -1.560355    0.247365
      4          6    10061002        0.821793    0.752902   -0.048256
      5          8    10081002        0.902775    1.775250    0.682623
      6          7    10071000       -0.460513    0.245963   -0.432530
      7          6    10061003       -1.693777    0.890908    0.005939
      8          6    10061000       -2.837856   -0.066514   -0.051738
      9          8    10081002       -3.334475   -0.388955   -1.160952
     10          8    10081000       -3.369845   -0.579625    1.123728
     11          1    10011000        4.214147    0.436065   -0.584330
     12          1    10011000        3.208140    1.924913   -0.680005
     13          1    10011000        3.400179    1.065235    0.898060
     14          1    10011000        2.033688   -0.066840   -1.624128
     15          1    10011000        2.997976   -2.072002   -0.818713
     16          1    10011000       -0.505569   -0.602920   -1.039859
     17          1    10011000       -1.570738    1.259537    1.046081
     18          1    10011000       -1.911864    1.758383   -0.651161
     19          1    10011000       -4.173272   -1.194605    1.104544
 ---------------------------------------------------------------------
                    Distance matrix (angstroms):
                    1          2          3          4          5
     1  C    0.000000
     2  C    1.523930   0.000000
     3  S    2.742272   1.818540   0.000000
     4  C    2.486859   1.501460   2.727931   0.000000
     5  O    2.688843   2.390054   3.618853   1.259340   0.000000
     6  N    3.827029   2.543576   3.316940   1.431420   2.332561
     7  C    4.995971   3.892518   4.638822   2.519936   2.825251
     8  C    6.217647   4.938536   5.298686   3.750265   4.233639
     9  O    6.830069   5.467678   5.864967   4.451572   5.102631
    10  O    6.962944   5.727576   5.759126   4.551813   4.898499
    11  H    1.109490   2.168809   2.930218   3.449033   3.789957
    12  H    1.109901   2.171607   3.734977   2.732649   2.682138
    13  H    1.110070   2.179679   2.944471   2.764261   2.605295
    14  H    2.149613   1.110090   2.403007   2.150358   3.161228
    15  H    3.078770   2.358198   1.406150   3.648213   4.630899
    16  H    4.185621   2.719144   3.177387   2.140892   3.256696
    17  H    5.036107   4.142373   4.805129   2.679264   2.552710
    18  H    5.294715   4.329029   5.388429   2.974452   3.114716
    19  H    7.875608   6.582231   6.477749   5.483831   5.896127
                    6          7          8          9         10
     6  N    0.000000
     7  C    1.459160   0.000000
     8  C    2.427839   1.492950   0.000000
     9  O    3.032058   2.385702   1.257360   0.000000
    10  O    3.401139   2.494218   1.388530   2.292895   0.000000
    11  H    4.680986   5.954735   7.089921   7.615435   7.840027
    12  H    4.042169   5.056528   6.396450   6.956372   7.266089
    13  H    4.164927   5.174423   6.410620   7.190950   6.970632
    14  H    2.781868   4.179521   5.119019   5.397728   6.083735
    15  H    4.181297   5.609941   6.218293   6.561228   6.822713
    16  H    1.044740   2.176477   2.589146   2.839569   3.589670
    17  H    2.108607   1.110370   2.137570   3.270977   2.573972
    18  H    2.107518   1.109890   2.132374   2.625789   3.277533
    19  H    4.268772   3.421139   2.095928   2.546591   1.011960
                   11         12         13         14         15
    11  H    0.000000
    12  H    1.799409   0.000000
    13  H    1.804405   1.807267   0.000000
    14  H    2.467488   2.497556   3.083881   0.000000
    15  H    2.797214   4.004839   3.598796   2.366267   0.000000
    16  H    4.854144   4.506780   4.668312   2.660184   3.805514
    17  H    6.066403   5.124429   4.976915   4.677732   5.953970
    18  H    6.267456   5.122793   5.576589   4.454827   6.229482
    19  H    8.709775   8.209826   7.906116   6.873417   7.476332
                   16         17         18         19
    16  H    0.000000
    17  H    2.992403   0.000000
    18  H    2.775699   1.801623   0.000000
    19  H    4.289592   3.577627   4.112980   0.000000
 Stoichiometry    C5H9NO3S
 Framework group  C1[X(C5H9NO3S)]
 Deg. of freedom    51
 Full point group                 C1      NOp   1
 Largest Abelian subgroup         C1      NOp   1
 Largest concise Abelian subgroup C1      NOp   1
                         Standard orientation:                         
 ---------------------------------------------------------------------
 Center     Atomic      Atomic             Coordinates (Angstroms)
 Number     Number       Type             X           Y           Z
 ---------------------------------------------------------------------
      1          6    10061003        3.260885   -0.893585    0.150590
      2          6    10061003        2.037843   -0.048564    0.485955
      3         16    10161003        2.179388    1.586151   -0.298111
      4          6    10061002        0.782114   -0.733705    0.029764
      5          8    10081002        0.860293   -1.760207   -0.695577
      6          7    10071000       -0.498412   -0.232099    0.426763
      7          6    10061003       -1.733040   -0.887309    0.007784
      8          6    10061000       -2.882175    0.063507    0.073642
      9          8    10081002       -3.366954    0.390033    1.186892
     10          8    10081000       -3.431863    0.565836   -1.098332
     11          1    10011000        4.178852   -0.392870    0.521521
     12          1    10011000        3.183278   -1.887148    0.639148
     13          1    10011000        3.350420   -1.036454   -0.946600
     14          1    10011000        2.008425    0.103457    1.585193
     15          1    10011000        2.950299    2.109226    0.755144
     16          1    10011000       -0.541138    0.620370    1.029217
     17          1    10011000       -1.620664   -1.261845   -1.031454
     18          1    10011000       -1.937616   -1.751861    0.673031
     19          1    10011000       -4.238753    1.176043   -1.073037
 ---------------------------------------------------------------------
 Rotational constants (GHZ):           2.0540241           0.5051573           0.4538124
 Leave Link  202 at Fri Mar 14 14:14:57 2025, MaxMem=   104857600 cpu:               0.0 elap:               0.0
 (Enter /home/enzo/gaussian_versions/gdv.j21/gdv/l301.exe)
 Standard basis: Dummy (5D, 7F)
 There are    19 symmetry adapted cartesian basis functions of A   symmetry.
 There are    19 symmetry adapted basis functions of A   symmetry.
    19 basis functions,    19 primitive gaussians,    19 cartesian basis functions
    14 alpha electrons       14 beta electrons
       nuclear repulsion energy        67.1601375030 Hartrees.
 IExCor=         0 DFT=F Ex=HF Corr=None N6=None ScaHFX=  1.000000
 ScaDFX=  1.000000  1.000000  1.000000  1.000000  1.000000  0.000000
 ScaDFX=  0.000000  0.000000  0.000000  0.000000  0.000000  0.000000
 IRadAn=      5 IRanWt=     -1 IRanGd=            0 ICorTp=0 IEmpDi=  4
 NAtoms=   19 NActive=   19 NUniq=   19 SFac= 1.00D+00 NAtFMM=   60 NAOKFM=F Big=F
 Integral buffers will be    131072 words long.
 Raffenetti 1 integral format.
 Two-electron integral symmetry is turned on.
 Leave Link  301 at Fri Mar 14 14:14:57 2025, MaxMem=   104857600 cpu:               0.0 elap:               0.0
 (Enter /home/enzo/gaussian_versions/gdv.j21/gdv/l402.exe)
 UFF calculation of energy.
 Energy per function type:
 Direct Coulomb + vdW (small)                           0.022730749
 Direct Coulomb (large)                                 0.000000000
 Direct vdW (large)                                   682.406683861
 Non-direct Coulomb + vdW (small)                      -0.014071868
 Non-direct Coulomb (large)                             0.000000000
 Non-direct vdW (large)                              -682.406683861
 Harmonic stretch III                                   0.010506304
 UFF 3-term bend                                        0.004904387
 UFF 2-term bend                                        0.000135015
 UFF torsion fixed V                                    0.002795918
 UFF torsion w/ bond order V                            0.000076229
 UFF torsion w/ sp3 V                                   0.000646415
 Three term Wilson angle                                0.000018418
 Energy per function class:
        Coulomb               0.000000000
    Vanderwaals               0.008658880
     Stretching               0.010506304
        Bending               0.005039403
        Torsion               0.003518561
   Out-of-plane               0.000018418
 Energy=    2.774156610E-02 NIter=   0.
 Dipole moment=       0.000000       0.000000       0.000000
 Leave Link  402 at Fri Mar 14 14:14:57 2025, MaxMem=   104857600 cpu:               0.0 elap:               0.0
 (Enter /home/enzo/gaussian_versions/gdv.j21/gdv/l9999.exe)
 Unable to Open any file for archive entry.
 1\1\GINC-ORACLE\SP\UFF\ZDO\C5H9N1O3S1\ENZO\14-Mar-2025\0\\#p UFF GEOM=
 READALLGIC OUTPUT=PICKETT\\individuo_5007.xyz\\0,1\C,0,3.297852,0.9287
 71,-0.198827\C,0,2.075874,0.078393,-0.524388\S,0,2.237087,-1.560355,0.
 247365\C,0,0.821793,0.752902,-0.048256\O,0,0.902775,1.77525,0.682623\N
 ,0,-0.460513,0.245963,-0.43253\C,0,-1.693777,0.890908,0.005939\C,0,-2.
 837856,-0.066514,-0.051738\O,0,-3.334475,-0.388955,-1.160952\O,0,-3.36
 9845,-0.579625,1.123728\H,0,4.214147,0.436065,-0.58433\H,0,3.20814,1.9
 24913,-0.680005\H,0,3.400179,1.065235,0.89806\H,0,2.033688,-0.06684,-1
 .624128\H,0,2.997976,-2.072002,-0.818713\H,0,-0.505569,-0.60292,-1.039
 859\H,0,-1.570738,1.259537,1.046081\H,0,-1.911864,1.758383,-0.651161\H
 ,0,-4.173272,-1.194605,1.104544\\Version=ES64L-GDVRevJ.21\HF=0.0277416
 \RMSD=0.000e+00\Dipole=0.,0.,0.\PG=C01 [X(C5H9N1O3S1)]\\@
 The archive entry for this job was punched.
 DoSRE=F DoSRN=F DoDH=F DoFC=F DoNQ=F DoQCD=F DoSCD=F
 Inertia tensor (amu-bohr**2): 
                 1             2             3 
      1   0.878637D+03  0.858979D-04  0.227359D-04
      2   0.858979D-04  0.357263D+04 -0.805665D-04
      3   0.227359D-04 -0.805665D-04  0.397684D+04
 Principal inertia moments (amu-bohr**2):
 Iaa = 0.878637D+03 Ibb= 0.357263D+04 Icc= 0.397684D+04
 Rotation matrix to Principal Axis frame: 
                 1             2             3 
      1   0.100000D+01  0.000000D+00  0.000000D+00
      2   0.000000D+00  0.100000D+01  0.000000D+00
      3   0.000000D+00  0.000000D+00  0.100000D+01
                Principal axis orientation:                
 ---------------------------------------------------------------------
 Center     Atomic                     Coordinates (Angstroms)
 Number     Number                        X           Y           Z
 ---------------------------------------------------------------------
      1          6                    3.297852    0.928771   -0.198827
      2          6                    2.075874    0.078393   -0.524388
      3         16                    2.237087   -1.560355    0.247365
      4          6                    0.821793    0.752902   -0.048256
      5          8                    0.902775    1.775250    0.682623
      6          7                   -0.460513    0.245963   -0.432530
      7          6                   -1.693777    0.890908    0.005939
      8          6                   -2.837856   -0.066514   -0.051738
      9          8                   -3.334475   -0.388955   -1.160952
     10          8                   -3.369845   -0.579625    1.123728
     11          1                    4.214147    0.436065   -0.584330
     12          1                    3.208140    1.924913   -0.680005
     13          1                    3.400179    1.065235    0.898060
     14          1                    2.033688   -0.066840   -1.624128
     15          1                    2.997976   -2.072002   -0.818712
     16          1                   -0.505569   -0.602920   -1.039859
     17          1                   -1.570738    1.259537    1.046081
     18          1                   -1.911864    1.758383   -0.651161
     19          1                   -4.173272   -1.194605    1.104544
 ---------------------------------------------------------------------
 Rotational constants (MHZ):
   2054.0240566    505.1572570    453.8124288
 Dipole moment (Debye):
      0.0000000      0.0000000      0.0000000  Tot=      0.0000000

 Atoms with significant hyperfine tensors: 

--------------------------------------------------------------------------------
 individuo_5007.xyz                                      
   99  1000  50  0.1760E-11  0.1000E+07  0.1000E+01 1.0000000000
a   1  0  0  0  1  1   1  0  1  0
     10000   0.20540241E+04    0.0000E+00   /  A  /
     20000   0.50515726E+03    0.0000E+00   /  B  /
     30000   0.45381243E+03    0.0000E+00   /  C  /
--------------------------------------------------------------------------------



 YOU KNOW YOU'VE SPOKEN TOO LONG WHEN THE AUDIENCE STOPS LOOKING AT
 THEIR WATCHES AND STARTS SHAKING THEM.
 Job cpu time:       0 days  0 hours  0 minutes  0.2 seconds.
 Elapsed time:       0 days  0 hours  0 minutes  0.2 seconds.
 File lengths (MBytes):  RWF=     14 Int=      0 D2E=      0 Chk=      9 Scr=      1
 Normal termination of Gaussian DV at Fri Mar 14 14:14:57 2025.
