 Entering Gaussian System, Link 0=gdv
 Input=../generations_tiopronin/population_49/temp_processing/individuo_7673.gjf
 Output=../generations_tiopronin/population_49/temp_processing/individuo_7673.log
 Initial command:
 /home/enzo/gaussian_versions/gdv.j21/gdv/l1.exe "/local/home/enzo/scratch/Gau-2270813.inp" -scrdir="/local/home/enzo/scratch/"
 Entering Link 1 = /home/enzo/gaussian_versions/gdv.j21/gdv/l1.exe PID=   2270814.
  
 Copyright (c) 1988-2022, Gaussian, Inc.  All Rights Reserved.
  
 This is the private, development version of
 the Gaussian(R) DV system of programs. It is based on
 the Gaussian(R) 16 system (copyright 2016, Gaussian, Inc.),
 the Gaussian(R) 09 system (copyright 2009, Gaussian, Inc.),
 the Gaussian(R) 03 system (copyright 2003, Gaussian, Inc.),
 the Gaussian(R) 98 system (copyright 1998, Gaussian, Inc.),
 the Gaussian(R) 94 system (copyright 1995, Gaussian, Inc.),
 the Gaussian 92(TM) system (copyright 1992, Gaussian, Inc.),
 the Gaussian 90(TM) system (copyright 1990, Gaussian, Inc.),
 the Gaussian 88(TM) system (copyright 1988, Gaussian, Inc.),
 the Gaussian 86(TM) system (copyright 1986, Carnegie Mellon
 University), and the Gaussian 82(TM) system (copyright 1983,
 Carnegie Mellon University). Gaussian is a federally registered
 trademark of Gaussian, Inc.
  
 This software contains proprietary and confidential information,
 including trade secrets, belonging to Gaussian, Inc.
  
 This software is provided under written license and may be
 used, copied, transmitted, or stored only in accord with that
 written license.
  
 The following legend is applicable only to US Government
 contracts under FAR:
  
                    RESTRICTED RIGHTS LEGEND
  
 Use, reproduction and disclosure by the US Government is
 subject to restrictions as set forth in subparagraphs (a)
 and (c) of the Commercial Computer Software - Restricted
 Rights clause in FAR 52.227-19.
  
 Gaussian, Inc.
 340 Quinnipiac St., Bldg. 40, Wallingford CT 06492
  
  
 ---------------------------------------------------------------
 Warning -- This program may not be used in any manner that
 competes with the business of Gaussian, Inc. or will provide
 assistance to any competitor of Gaussian, Inc.  The licensee
 of this program is prohibited from giving any competitor of
 Gaussian, Inc. access to this program.  By using this program,
 the user acknowledges that Gaussian, Inc. is engaged in the
 business of creating and licensing software in the field of
 computational chemistry and represents and warrants to the
 licensee that it is not a competitor of Gaussian, Inc. and that
 it will not use this program in any manner prohibited above.
 ---------------------------------------------------------------
  

 Cite this work as:
 Gaussian Development Version, Revision J.21,
 M. J. Frisch, G. W. Trucks, H. B. Schlegel, G. E. Scuseria, 
 M. A. Robb, J. R. Cheeseman, G. Scalmani, V. Barone, 
 G. A. Petersson, H. Nakatsuji, X. Li, A. V. Marenich, M. Caricato, 
 J. Bloino, B. G. Janesko, J. Zheng, R. Gomperts, B. Mennucci, 
 H. P. Hratchian, J. V. Ortiz, A. F. Izmaylov, J. L. Sonnenberg, 
 D. Williams-Young, F. Ding, F. Lipparini, F. Egidi, J. Goings, 
 B. Peng, A. Petrone, T. Henderson, D. Ranasinghe, V. G. Zakrzewski, 
 J. Gao, N. Rega, G. Zheng, W. Liang, M. Hada, M. Ehara, K. Toyota, 
 R. Fukuda, J. Hasegawa, M. Ishida, T. Nakajima, Y. Honda, O. Kitao, 
 H. Nakai, T. Vreven, K. Throssell, J. A. Montgomery, Jr., 
 J. E. Peralta, F. Ogliaro, M. J. Bearpark, J. J. Heyd, 
 E. N. Brothers, K. N. Kudin, V. N. Staroverov, T. A. Keith, 
 R. Kobayashi, J. Normand, K. Raghavachari, A. P. Rendell, 
 J. C. Burant, S. S. Iyengar, J. Tomasi, M. Cossi, J. M. Millam, 
 M. Klene, C. Adamo, R. Cammi, J. W. Ochterski, R. L. Martin, 
 K. Morokuma, O. Farkas, J. B. Foresman, and D. J. Fox, 
 Gaussian, Inc., Wallingford CT, 2020.
 
 ******************************************
 Gaussian DV:  ES64L-GDVRevJ.21 25-Jul-2022
                14-Mar-2025 
 ******************************************
 -------------------------------------
 #p UFF GEOM=READALLGIC OUTPUT=PICKETT
 -------------------------------------
 1/18=20,37=210000000,38=1,56=1,64=2,145=602,172=1/1;
 2/12=2/2;
 3/5=30,11=9,25=1,30=1,41=10020000,43=2/1;
 4/20=10,24=3/2;
 99/5=1,9=1,10=1024/99;
 Leave Link    1 at Fri Mar 14 14:14:59 2025, MaxMem=           0 cpu:               0.0 elap:               0.0
 (Enter /home/enzo/gaussian_versions/gdv.j21/gdv/l101.exe)
 ------------------
 individuo_7673.xyz
 ------------------
 Symbolic Z-matrix:
 Charge =     0 Multiplicity =     1
 6                     3.00568   1.26339  -0.13045 
 6                     1.96962   0.20483  -0.48876 
 16                    2.41275  -1.38229   0.2805 
 6                     0.60187   0.63244  -0.04066 
 8                     0.43411   1.05356   1.13427 
 7                    -0.50489   0.57492  -0.9466 
 6                    -1.8411    0.99702  -0.53974 
 6                    -2.64395  -0.17269  -0.07486 
 8                    -2.76204  -1.18735  -0.80799 
 8                    -3.28214  -0.12726   1.15748 
 1                     4.00587   0.95138  -0.49546 
 1                     2.74473   2.22977  -0.60991 
 1                     3.05563   1.40741   0.9691 
 1                     1.98044   0.06331  -1.58974 
 1                     2.83346  -1.94286  -0.93853 
 1                    -0.34412   0.22303  -1.91707 
 1                    -1.76191   1.7418    0.27999 
 1                    -2.35667   1.47358  -1.39935 
 1                    -3.65177  -0.96839   1.58166 
 
 Initializing the GIC definitions file.

 CrInp1: Reading the GIC input below.
 Dihed1 = D( 15, 3, 2, 14)
 Dihed2 = D( 3, 2, 4, 5)
 Dihed3 = D( 4, 6, 7, 8)
 Dihed4 = D( 6, 7, 8, 9)
 Dihed5 = D( 9, 8, 10, 19)
 
 Warning:  Number of GICs=     5 3N-6=    51.
 ITRead=  0  0  0  0  0  0  0  0  0  0  0  0  0  0  0  0  0  0  0
 MicOpt= -1 -1 -1 -1 -1 -1 -1 -1 -1 -1 -1 -1 -1 -1 -1 -1 -1 -1 -1
                           ----------------------------
                           !    Current Parameters    !
                           ! (Angstroms and Degrees)  !
 --------------------------                            --------------------------
 ! Name   Definition             Value                                          !
 --------------------------------------------------------------------------------
 ! Dihed1 D(15,3,2,14)          11.9393                                         !
 ! Dihed2 D(3,2,4,5)            72.8327                                         !
 ! Dihed3 D(4,6,7,8)           -94.7981                                         !
 ! Dihed4 D(6,7,8,9)           -53.0499                                         !
 ! Dihed5 D(9,8,10,19)          15.1448                                         !
 --------------------------------------------------------------------------------
 NAtoms=     19 NQM=       19 NQMF=       0 NMMI=      0 NMMIF=      0
                NMic=       0 NMicF=      0.
                    Isotopes and Nuclear Properties:
 (Nuclear quadrupole moments (NQMom) in fm**2, nuclear magnetic moments (NMagM)
  in nuclear magnetons)

  Atom         1           2           3           4           5           6           7           8           9          10
 IAtWgt=          12          12          32          12          16          14          12          12          16          16
 AtmWgt=  12.0000000  12.0000000  31.9720718  12.0000000  15.9949146  14.0030740  12.0000000  12.0000000  15.9949146  15.9949146
 NucSpn=           0           0           0           0           0           2           0           0           0           0
 AtZEff=  -0.0000000  -0.0000000  -0.0000000  -0.0000000  -0.0000000  -0.0000000  -0.0000000  -0.0000000  -0.0000000  -0.0000000
 NQMom=    0.0000000   0.0000000   0.0000000   0.0000000   0.0000000   2.0440000   0.0000000   0.0000000   0.0000000   0.0000000
 NMagM=    0.0000000   0.0000000   0.0000000   0.0000000   0.0000000   0.4037610   0.0000000   0.0000000   0.0000000   0.0000000
 AtZNuc=   6.0000000   6.0000000  16.0000000   6.0000000   8.0000000   7.0000000   6.0000000   6.0000000   8.0000000   8.0000000

  Atom        11          12          13          14          15          16          17          18          19
 IAtWgt=           1           1           1           1           1           1           1           1           1
 AtmWgt=   1.0078250   1.0078250   1.0078250   1.0078250   1.0078250   1.0078250   1.0078250   1.0078250   1.0078250
 NucSpn=           1           1           1           1           1           1           1           1           1
 AtZEff=  -0.0000000  -0.0000000  -0.0000000  -0.0000000  -0.0000000  -0.0000000  -0.0000000  -0.0000000  -0.0000000
 NQMom=    0.0000000   0.0000000   0.0000000   0.0000000   0.0000000   0.0000000   0.0000000   0.0000000   0.0000000
 NMagM=    2.7928460   2.7928460   2.7928460   2.7928460   2.7928460   2.7928460   2.7928460   2.7928460   2.7928460
 AtZNuc=   1.0000000   1.0000000   1.0000000   1.0000000   1.0000000   1.0000000   1.0000000   1.0000000   1.0000000
 Generating MM parameters.
 Include all MM classes

 MM sanity checks:
 All charges sum to:                0.00000000
 Charges of atoms sum to:           0.00000000
 MMInit generated parameter data with length LenPar=        2803.
 Leave Link  101 at Fri Mar 14 14:14:59 2025, MaxMem=   104857600 cpu:               0.1 elap:               0.1
 (Enter /home/enzo/gaussian_versions/gdv.j21/gdv/l202.exe)
                          Input orientation:                          
 ---------------------------------------------------------------------
 Center     Atomic      Atomic             Coordinates (Angstroms)
 Number     Number       Type             X           Y           Z
 ---------------------------------------------------------------------
      1          6    10061003        3.005681    1.263388   -0.130451
      2          6    10061003        1.969615    0.204831   -0.488763
      3         16    10161003        2.412753   -1.382291    0.280496
      4          6    10061002        0.601867    0.632444   -0.040659
      5          8    10081002        0.434106    1.053564    1.134267
      6          7    10071000       -0.504894    0.574922   -0.946603
      7          6    10061003       -1.841099    0.997019   -0.539737
      8          6    10061000       -2.643947   -0.172694   -0.074863
      9          8    10081002       -2.762038   -1.187354   -0.807989
     10          8    10081000       -3.282141   -0.127255    1.157476
     11          1    10011000        4.005874    0.951381   -0.495463
     12          1    10011000        2.744730    2.229774   -0.609908
     13          1    10011000        3.055629    1.407411    0.969102
     14          1    10011000        1.980442    0.063309   -1.589742
     15          1    10011000        2.833460   -1.942861   -0.938530
     16          1    10011000       -0.344119    0.223029   -1.917068
     17          1    10011000       -1.761910    1.741802    0.279988
     18          1    10011000       -2.356667    1.473584   -1.399348
     19          1    10011000       -3.651769   -0.968387    1.581663
 ---------------------------------------------------------------------
                    Distance matrix (angstroms):
                    1          2          3          4          5
     1  C    0.000000
     2  C    1.523930   0.000000
     3  S    2.742272   1.818540   0.000000
     4  C    2.486860   1.501461   2.727931   0.000000
     5  O    2.873419   2.390055   3.252285   1.259340   0.000000
     6  N    3.669363   2.543576   3.721440   1.431420   2.332561
     7  C    4.871318   3.892519   4.942586   2.519936   2.825251
     8  C    5.829556   4.647450   5.211489   3.344357   3.527055
     9  O    6.303315   4.942532   5.291622   3.900810   4.359978
    10  O    6.567294   5.513740   5.897120   4.134996   3.899406
    11  H    1.109490   2.168809   2.930217   3.449033   3.927339
    12  H    1.109899   2.171606   3.734975   2.732649   3.124836
    13  H    1.110069   2.179678   2.944470   2.764261   2.650447
    14  H    2.149613   1.110090   2.403007   2.150359   3.285116
    15  H    3.310994   2.358198   1.406150   3.523972   4.362562
    16  H    3.936433   2.719145   3.873846   2.140893   3.256696
    17  H    4.809081   4.108228   5.214189   2.630766   2.454781
    18  H    5.514441   4.599523   5.807346   3.362510   3.792629
    19  H    7.227295   6.104348   6.216332   4.825765   4.580701
                    6          7          8          9         10
     6  N    0.000000
     7  C    1.459161   0.000000
     8  C    2.427840   1.492951   0.000000
     9  O    2.866972   2.385702   1.257360   0.000000
    10  O    3.554336   2.494219   1.388530   2.292895   0.000000
    11  H    4.548876   5.847319   6.757260   7.104681   7.550551
    12  H    3.662234   4.749151   5.924185   6.483864   6.708383
    13  H    4.127988   5.140327   6.005977   6.613328   6.523650
    14  H    2.617684   4.071670   4.871912   4.966529   5.939554
    15  H    4.181376   5.536554   5.820773   5.647781   6.714927
    16  H    1.044739   2.176477   2.973134   3.010908   4.267024
    17  H    2.108607   1.110370   2.137570   3.280839   2.564071
    18  H    2.107519   1.109890   2.132375   2.755834   3.155398
    19  H    4.321661   3.411991   2.095927   2.559298   1.011960
                   11         12         13         14         15
    11  H    0.000000
    12  H    1.799408   0.000000
    13  H    1.804406   1.807266   0.000000
    14  H    2.467487   2.497555   3.083881   0.000000
    15  H    3.153966   4.186496   3.861702   2.275178   0.000000
    16  H    4.633994   3.908539   4.614220   2.352921   3.968076
    17  H    5.873110   4.619506   4.878051   4.507597   6.014894
    18  H    6.447607   5.217211   5.908205   4.564607   6.230720
    19  H    8.163299   7.479734   7.142047   6.545533   7.025608
                   16         17         18         19
    16  H    0.000000
    17  H    3.023881   0.000000
    18  H    2.425339   1.801623   0.000000
    19  H    4.959954   3.551204   4.065334   0.000000
 Stoichiometry    C5H9NO3S
 Framework group  C1[X(C5H9NO3S)]
 Deg. of freedom    51
 Full point group                 C1      NOp   1
 Largest Abelian subgroup         C1      NOp   1
 Largest concise Abelian subgroup C1      NOp   1
                         Standard orientation:                         
 ---------------------------------------------------------------------
 Center     Atomic      Atomic             Coordinates (Angstroms)
 Number     Number       Type             X           Y           Z
 ---------------------------------------------------------------------
      1          6    10061003       -2.978119   -1.212875   -0.042858
      2          6    10061003       -1.937980   -0.172326   -0.440012
      3         16    10161003       -2.360878    1.438038    0.291405
      4          6    10061002       -0.568789   -0.598615    0.004935
      5          8    10081002       -0.391666   -0.989763    1.188813
      6          7    10071000        0.528631   -0.573780   -0.913769
      7          6    10061003        1.865883   -0.995400   -0.509860
      8          6    10061000        2.682460    0.179895   -0.084673
      9          8    10081002        2.800367    1.173822   -0.845699
     10          8    10081000        3.333426    0.162122    1.141681
     11          1    10011000       -3.979772   -0.902825   -0.405528
     12          1    10011000       -2.729610   -2.193636   -0.499176
     13          1    10011000       -3.017400   -1.327324    1.060597
     14          1    10011000       -1.959503   -0.059939   -1.544189
     15          1    10011000       -2.790344    1.969396   -0.937609
     16          1    10011000        0.360155   -0.246470   -1.891504
     17          1    10011000        1.789838   -1.717564    0.330151
     18          1    10011000        2.368623   -1.498591   -1.361861
     19          1    10011000        3.713905    1.011275    1.539470
 ---------------------------------------------------------------------
 Rotational constants (GHZ):           2.0341938           0.5458512           0.5056819
 Leave Link  202 at Fri Mar 14 14:14:59 2025, MaxMem=   104857600 cpu:               0.0 elap:               0.0
 (Enter /home/enzo/gaussian_versions/gdv.j21/gdv/l301.exe)
 Standard basis: Dummy (5D, 7F)
 There are    19 symmetry adapted cartesian basis functions of A   symmetry.
 There are    19 symmetry adapted basis functions of A   symmetry.
    19 basis functions,    19 primitive gaussians,    19 cartesian basis functions
    14 alpha electrons       14 beta electrons
       nuclear repulsion energy        67.8077808797 Hartrees.
 IExCor=         0 DFT=F Ex=HF Corr=None N6=None ScaHFX=  1.000000
 ScaDFX=  1.000000  1.000000  1.000000  1.000000  1.000000  0.000000
 ScaDFX=  0.000000  0.000000  0.000000  0.000000  0.000000  0.000000
 IRadAn=      5 IRanWt=     -1 IRanGd=            0 ICorTp=0 IEmpDi=  4
 NAtoms=   19 NActive=   19 NUniq=   19 SFac= 1.00D+00 NAtFMM=   60 NAOKFM=F Big=F
 Integral buffers will be    131072 words long.
 Raffenetti 1 integral format.
 Two-electron integral symmetry is turned on.
 Leave Link  301 at Fri Mar 14 14:14:59 2025, MaxMem=   104857600 cpu:               0.0 elap:               0.0
 (Enter /home/enzo/gaussian_versions/gdv.j21/gdv/l402.exe)
 UFF calculation of energy.
 Energy per function type:
 Direct Coulomb + vdW (small)                           0.020893672
 Direct Coulomb (large)                                 0.000000000
 Direct vdW (large)                                   682.408262380
 Non-direct Coulomb + vdW (small)                      -0.014071879
 Non-direct Coulomb (large)                             0.000000000
 Non-direct vdW (large)                              -682.408262380
 Harmonic stretch III                                   0.010506291
 UFF 3-term bend                                        0.004904366
 UFF 2-term bend                                        0.000135011
 UFF torsion fixed V                                    0.002106102
 UFF torsion w/ bond order V                            0.002698589
 UFF torsion w/ sp3 V                                   0.001448841
 Three term Wilson angle                                0.000018417
 Energy per function class:
        Coulomb               0.000000000
    Vanderwaals               0.006821793
     Stretching               0.010506291
        Bending               0.005039377
        Torsion               0.006253532
   Out-of-plane               0.000018417
 Energy=    2.863940888E-02 NIter=   0.
 Dipole moment=       0.000000       0.000000       0.000000
 Leave Link  402 at Fri Mar 14 14:14:59 2025, MaxMem=   104857600 cpu:               0.0 elap:               0.0
 (Enter /home/enzo/gaussian_versions/gdv.j21/gdv/l9999.exe)
 Unable to Open any file for archive entry.
 1\1\GINC-ORACLE\SP\UFF\ZDO\C5H9N1O3S1\ENZO\14-Mar-2025\0\\#p UFF GEOM=
 READALLGIC OUTPUT=PICKETT\\individuo_7673.xyz\\0,1\C,0,3.005681,1.2633
 88,-0.130451\C,0,1.969615,0.204831,-0.488763\S,0,2.412753,-1.382291,0.
 280496\C,0,0.601867,0.632444,-0.040659\O,0,0.434106,1.053564,1.134267\
 N,0,-0.504894,0.574922,-0.946603\C,0,-1.841099,0.997019,-0.539737\C,0,
 -2.643947,-0.172694,-0.074863\O,0,-2.762038,-1.187354,-0.807989\O,0,-3
 .282141,-0.127255,1.157476\H,0,4.005874,0.951381,-0.495463\H,0,2.74473
 ,2.229774,-0.609908\H,0,3.055629,1.407411,0.969102\H,0,1.980442,0.0633
 09,-1.589742\H,0,2.83346,-1.942861,-0.93853\H,0,-0.344119,0.223029,-1.
 917068\H,0,-1.76191,1.741802,0.279988\H,0,-2.356667,1.473584,-1.399348
 \H,0,-3.651769,-0.968387,1.581663\\Version=ES64L-GDVRevJ.21\HF=0.02863
 94\RMSD=0.000e+00\Dipole=0.,0.,0.\PG=C01 [X(C5H9N1O3S1)]\\@
 The archive entry for this job was punched.
 DoSRE=F DoSRN=F DoDH=F DoFC=F DoNQ=F DoQCD=F DoSCD=F
 Inertia tensor (amu-bohr**2): 
                 1             2             3 
      1   0.887202D+03 -0.202607D-03  0.144108D-04
      2  -0.202607D-03  0.330629D+04 -0.585596D-04
      3   0.144108D-04 -0.585596D-04  0.356893D+04
 Principal inertia moments (amu-bohr**2):
 Iaa = 0.887202D+03 Ibb= 0.330629D+04 Icc= 0.356893D+04
 Rotation matrix to Principal Axis frame: 
                 1             2             3 
      1   0.100000D+01  0.000000D+00  0.000000D+00
      2   0.000000D+00  0.100000D+01  0.000000D+00
      3   0.000000D+00  0.000000D+00  0.100000D+01
                Principal axis orientation:                
 ---------------------------------------------------------------------
 Center     Atomic                     Coordinates (Angstroms)
 Number     Number                        X           Y           Z
 ---------------------------------------------------------------------
      1          6                    3.005681    1.263388   -0.130451
      2          6                    1.969615    0.204831   -0.488763
      3         16                    2.412753   -1.382291    0.280496
      4          6                    0.601867    0.632444   -0.040659
      5          8                    0.434106    1.053564    1.134267
      6          7                   -0.504894    0.574922   -0.946603
      7          6                   -1.841099    0.997019   -0.539737
      8          6                   -2.643947   -0.172694   -0.074863
      9          8                   -2.762038   -1.187354   -0.807989
     10          8                   -3.282141   -0.127254    1.157476
     11          1                    4.005874    0.951381   -0.495463
     12          1                    2.744730    2.229774   -0.609908
     13          1                    3.055629    1.407411    0.969102
     14          1                    1.980442    0.063308   -1.589742
     15          1                    2.833460   -1.942861   -0.938529
     16          1                   -0.344119    0.223029   -1.917068
     17          1                   -1.761910    1.741802    0.279988
     18          1                   -2.356667    1.473584   -1.399348
     19          1                   -3.651769   -0.968386    1.581663
 ---------------------------------------------------------------------
 Rotational constants (MHZ):
   2034.1938496    545.8511787    505.6819112
 Dipole moment (Debye):
      0.0000000      0.0000000      0.0000000  Tot=      0.0000000

 Atoms with significant hyperfine tensors: 

--------------------------------------------------------------------------------
 individuo_7673.xyz                                      
   99  1000  50  0.1760E-11  0.1000E+07  0.1000E+01 1.0000000000
a   1  0  0  0  1  1   1  0  1  0
     10000   0.20341938E+04    0.0000E+00   /  A  /
     20000   0.54585118E+03    0.0000E+00   /  B  /
     30000   0.50568191E+03    0.0000E+00   /  C  /
--------------------------------------------------------------------------------



 ASKING FOR EFFICIENCY AND ADAPTABILITY IN THE SAME PROGRAM IS LIKE
 ASKING FOR A BEAUTIFUL AND MODEST WIFE ...
 WE'LL PROBABLY HAVE TO SETTLE FOR ONE OR THE OTHER.

             -- THE PSYCHOLOGY OF COMPUTER PROGRAMMING
                GERALD M. WEINBERG
 Job cpu time:       0 days  0 hours  0 minutes  0.2 seconds.
 Elapsed time:       0 days  0 hours  0 minutes  0.2 seconds.
 File lengths (MBytes):  RWF=     14 Int=      0 D2E=      0 Chk=      9 Scr=      1
 Normal termination of Gaussian DV at Fri Mar 14 14:14:59 2025.
