#p UFF GEOM=READALLGIC OUTPUT=PICKETT

individuo_3507.xyz

0 1
6 2.665000 -0.927461 -1.110922
6 2.053430 -0.438546 0.196483
16 2.203837 1.369978 0.313565
6 0.610749 -0.844302 0.288224
8 0.204009 -1.476541 1.298557
7 -0.302473 -0.503979 -0.760189
6 -1.711847 -0.875090 -0.688853
6 -2.522549 0.242841 -0.121498
8 -3.545872 -0.006215 0.565333
8 -2.159427 1.558633 -0.376148
1 3.738552 -0.650438 -1.152293
1 2.586579 -2.032515 -1.178613
1 2.145382 -0.474377 -1.980961
1 2.625858 -0.882076 1.037854
1 2.655433 1.322777 1.644389
1 0.055205 0.021355 -1.589390
1 -2.082603 -1.123202 -1.705663
1 -1.826608 -1.771289 -0.044249
1 -1.335220 1.772893 -0.922810

Dihed1 = D( 15, 3, 2, 14)
Dihed2 = D(  3, 2, 4, 5)
Dihed3 = D(  4, 6, 7, 8)
Dihed4 = D(  6, 7, 8, 9)
Dihed5 = D(  9, 8, 10, 19)

