12
	Energy:       1.9283506
C         -3.59070       -1.30629       -1.05169
O         -4.77802       -1.15258       -1.28437
O         -2.68264       -1.08448       -2.02090
H         -3.27121       -1.61944       -0.06269
H         -1.73927       -1.20646       -1.84755
O         -0.42589        0.84548       -0.53595
H         -0.32540        1.70389       -1.01902
H         -0.43519        1.09782        0.42135
N         -3.97659        1.72637        0.74630
H         -2.94262        1.59821        0.81432
H         -4.27045        1.45180       -0.21713
H         -4.18197        2.74340        0.86358
