11
	Energy:      -0.9273463
C         -2.86916       -1.32253       -1.07229
O         -3.83751       -0.94953       -1.71298
O         -1.68744       -1.51095       -1.69011
H         -2.96419       -1.50046       -0.00573
H         -0.91254       -1.80294       -1.19044
O         -0.42945        0.95801       -0.45554
H         -0.31771        1.79977       -0.96447
H         -0.66298        1.24912        0.46140
O         -4.14594        1.83591        0.91260
H         -3.19763        1.67143        0.68090
H         -4.65799        1.37143        0.20376
